28
CONF7
C -5.3385600613 -0.1401167482 0.2630792624
C -4.0273971618 0.0198126345 -0.4974245719
C -2.8201058071 -0.3282113745 0.3704691002
C -1.5027592927 -0.1716735532 -0.3854858528
C -0.2967490017 -0.5194250450 0.4839410285
C 1.0194394677 -0.3620998235 -0.2735014800
C 2.2230267804 -0.7124119395 0.5997813738
C 3.5413045729 -0.5726191845 -0.1585830245
C 3.9468404678 0.8392450124 -0.4151052692
O 3.3943025542 1.8302788844 -0.0034434877
H -5.3552964074 0.5121130816 1.1333853451
H -6.1832762753 0.1130544512 -0.3728357471
H -5.4585478851 -1.1664307179 0.6027255987
H -3.9335624610 1.0505183183 -0.8470306713
H -4.0367412856 -0.6275744583 -1.3772592942
H -2.9144539771 -1.3585733454 0.7214670223
H -2.8101425981 0.3202475068 1.2497509694
H -1.4078483099 0.8587650013 -0.7365090665
H -1.5131413808 -0.8195170805 -1.2653569296
H -0.2864513275 0.1305550693 1.3617937192
H -0.3909870271 -1.5495994025 0.8355356994
H 1.0066508532 -1.0099984344 -1.1534612216
H 1.1148182027 0.6697480985 -0.6185856581
H 2.2411412013 -0.0475529420 1.4656418481
H 2.1207579429 -1.7373903260 0.9592736384
H 4.3601366549 -1.0284802078 0.4052227430
H 3.4969246955 -1.0901298491 -1.1196250077
H 4.8577688659 0.9344855136 -1.0365845579
28
CONF4
C -5.5663241678 -0.0751675436 0.0631834241
C -4.2641145280 -0.8591086495 -0.0494971444
C -3.0419885827 0.0514352049 0.0474755510
C -1.7331409886 -0.7264912090 -0.0660478188
C -0.5129515488 0.1867349408 0.0308605870
C 0.7960958218 -0.5906113459 -0.0848644524
C 2.0117549211 0.3270139606 0.0131228170
C 3.3212411255 -0.4475640254 -0.1046097300
C 4.5307575597 0.4168559850 -0.0097854998
O 4.5378873383 1.6141878693 0.1460805568
H -5.6151052929 0.4465412999 1.0163869930
H -5.6368260867 0.6620331407 -0.7335293562
H -6.4221914070 -0.7418429820 -0.0082909005
H -4.2421260017 -1.3906667174 -1.0035302487
H -4.2203827623 -1.6062392217 0.7461800099
H -3.0642889223 0.5831624137 1.0017119082
H -3.0870389064 0.7998429521 -0.7472931786
H -1.7120002650 -1.2578680836 -1.0204063605
H -1.6889195353 -1.4744626188 0.7290484733
H -0.5592990539 0.9361531183 -0.7625972116
H -0.5345773987 0.7177743131 0.9852569673
H 0.8404383283 -1.3384056941 0.7098959680
H 0.8159031057 -1.1189345103 -1.0405276011
H 1.9714787767 1.0803100709 -0.7763948613
H 1.9976680867 0.8596258941 0.9662938272
H 3.3970330120 -1.2046030681 0.6805065834
H 3.3731217651 -0.9812775776 -1.0573154925
H 5.4860463282 -0.1346701450 -0.0956468153
28
CONF38
C -3.5537795691 1.5815122077 0.0290594091
C -3.0222728376 0.2570256515 -0.5054070346
C -1.7842641721 -0.2053465574 0.2599861395
C -1.2294697019 -1.5153975035 -0.2958543420
C -0.0923238451 -2.1024501869 0.5432593107
C 1.1057797871 -1.1730289650 0.7419385135
C 1.7918038354 -0.7814747058 -0.5656389007
C 2.9661821812 0.1634718012 -0.3201316537
C 2.5494919673 1.5480343074 0.0457034106
O 1.4204895961 1.9754374729 0.0585376376
H -2.7907581156 2.3531607665 -0.0485490861
H -4.4271757196 1.9009362386 -0.5344379807
H -3.8351605781 1.4841262671 1.0753072577
H -2.7694709106 0.3690986141 -1.5623450554
H -3.8017710598 -0.5051420774 -0.4306315451
H -2.0423213947 -0.3397648532 1.3135178353
H -1.0246189660 0.5765556924 0.1997921713
H -0.8913733482 -1.3560668672 -1.3212380692
H -2.0371542324 -2.2513137443 -0.3337923766
H -0.4864433322 -2.3658878104 1.5277948449
H 0.2492869959 -3.0246056645 0.0666653281
H 0.7830380317 -0.2705628118 1.2625885350
H 1.8298935117 -1.6819347869 1.3837430746
H 2.1434763460 -1.6804220040 -1.0738019915
H 1.0772344313 -0.2761601852 -1.2160330950
H 3.6184616691 -0.2136989404 0.4708879672
H 3.5834703529 0.2562434002 -1.2182174217
H 3.3932728027 2.2139865379 0.3089675142
28
CONF37
C -3.5220175966 1.5969554981 0.0304096647
C -3.0041117323 0.2679571772 -0.5062954808
C -1.7745093168 -0.2097770348 0.2630366785
C -1.2264483531 -1.5205999792 -0.2974041867
C -0.0893128814 -2.1137313295 0.5376491787
C 1.1088741280 -1.1854535434 0.7414863356
C 1.7934585753 -0.7845183213 -0.5640583668
C 2.9561902117 0.1738342233 -0.3151443085
C 2.5218595817 1.5543221849 0.0458111805
O 1.3876075078 1.9677425756 0.0560855920
H -3.8138951468 1.4981925254 1.0737082561
H -2.7472927562 2.3580286030 -0.0364323897
H -4.3857742339 1.9317339538 -0.5390208926
H -2.7451932536 0.3808371953 -1.5617247917
H -3.7925767622 -0.4855459485 -0.4376829985
H -2.0390817319 -0.3481308713 1.3144630380
H -1.0087023554 0.5665950430 0.2109475191
H -0.8900031182 -1.3597401264 -1.3231380507
H -2.0369384818 -2.2533809734 -0.3357512704
H -0.4829931471 -2.3832193119 1.5207182973
H 0.2517819678 -3.0329463129 0.0550653094
H 0.7860050723 -0.2867852386 1.2685843477
H 1.8338632434 -1.6980830795 1.3792836760
H 2.1561405148 -1.6787590246 -1.0728126903
H 1.0746253560 -0.2863783984 -1.2152832148
H 3.6086829905 -0.1940575178 0.4801204787
H 3.5769523134 0.2715196475 -1.2102822976
H 3.3569664847 2.2316547644 0.3076833911
28
CONF32
C -5.0105763278 0.5914760667 -0.3256182589
C -4.0778486227 -0.6095151871 -0.2206354996
C -2.6559425335 -0.1952935621 0.1526340366
C -1.7208180797 -1.3991161611 0.2502528769
C -0.3139297496 -1.0411121500 0.7315410993
C 0.4738365013 -0.2000751790 -0.2708836596
C 1.9076471747 0.0342081716 0.1973944456
C 2.6996504623 0.8795004083 -0.7960187598
C 4.1072113991 1.1250606500 -0.3747765012
O 4.6263727519 0.7222908221 0.6382907678
H -5.0541916578 1.1232395600 0.6223046914
H -4.6587443777 1.2817686886 -1.0890391573
H -6.0166737132 0.2731869159 -0.5875416040
H -4.0588688085 -1.1387772431 -1.1760789087
H -4.4616590709 -1.3018769095 0.5322546002
H -2.6738434301 0.3255325977 1.1129489811
H -2.2845004367 0.5029496279 -0.5990501854
H -1.6554135872 -1.8855469289 -0.7257746760
H -2.1537330733 -2.1203170042 0.9478914082
H -0.3829969357 -0.5031546138 1.6797202051
H 0.2360209109 -1.9665162815 0.9191243517
H 0.4864299381 -0.7124060791 -1.2354044321
H -0.0180085935 0.7638594678 -0.4080975623
H 1.9026619238 0.5357832158 1.1673693123
H 2.4150403401 -0.9232011351 0.3334965966
H 2.7304133983 0.3986511487 -1.7774283352
H 2.2263574553 1.8541803871 -0.9418819448
H 4.6902359334 1.7376560652 -1.0882665107
28
CONF16
C -5.3627984418 0.2460841370 0.1121058972
C -4.1636819842 -0.6946705108 0.1276500186
C -2.8462910887 0.0598601493 -0.0368744683
C -1.6406020211 -0.8770742599 -0.0233947802
C -0.3237656150 -0.1208803650 -0.1886088573
C 0.8771970501 -1.0649180066 -0.1637845225
C 2.2044130528 -0.3636923652 -0.4490252065
C 2.6122706121 0.6142030670 0.6497809124
C 3.9751659907 1.1821410616 0.4532234072
O 4.7236890614 0.9347084515 -0.4615777311
H -5.2900762899 0.9690725723 0.9215231087
H -5.4076988117 0.7899085232 -0.8288708886
H -6.2885186097 -0.3115208633 0.2312886389
H -4.2641379008 -1.4238584430 -0.6794991545
H -4.1474009497 -1.2461448579 1.0704538646
H -2.7472836952 0.7889412225 0.7708421290
H -2.8638507261 0.6121129318 -0.9795081720
H -1.7430320863 -1.6068894246 -0.8300113159
H -1.6240850034 -1.4292070564 0.9192422412
H -0.3370502725 0.4205675093 -1.1373056086
H -0.2383560266 0.6131612338 0.6141912018
H 0.9290931906 -1.5597188068 0.8084273008
H 0.7275947665 -1.8397975448 -0.9185882535
H 2.9928037472 -1.1124819488 -0.5527467223
H 2.1425634181 0.1715286081 -1.3986503680
H 1.9177604933 1.4550324040 0.7110506156
H 2.6004406013 0.1247190933 1.6274895440
H 4.2864048957 1.8896637766 1.2448837139
28
CONF28
C -5.1496393219 0.2602720630 0.0749998115
C -3.7274996643 0.3285724611 -0.4689419113
C -2.7669731511 -0.5422254827 0.3379776388
C -1.3401601356 -0.4788730699 -0.2026259776
C -0.3855093376 -1.3472655602 0.6145945278
C 1.0307009320 -1.4003813145 0.0405587997
C 1.7663696453 -0.0657031820 0.1335642979
C 3.2118482649 -0.1846562019 -0.3413653358
C 3.9603195481 1.1020343094 -0.2834714534
O 3.5194019055 2.1642466234 0.0844985636
H -5.1788735510 0.6023658996 1.1071227823
H -5.8152939636 0.8866112448 -0.5138205139
H -5.5206105773 -0.7617325172 0.0429786485
H -3.3797603502 1.3639647463 -0.4465217110
H -3.7215588731 0.0007959220 -1.5110118959
H -3.1168092851 -1.5772391756 0.3173399844
H -2.7724640449 -0.2130660685 1.3798521332
H -1.0025724198 0.5588334802 -0.1865936378
H -1.3345299979 -0.8155503597 -1.2421071985
H -0.3456041768 -0.9718067296 1.6395925733
H -0.7848926013 -2.3636804458 0.6513900616
H 1.5992075422 -2.1537453673 0.5906272959
H 0.9824698521 -1.7164437072 -1.0036903508
H 1.2616249616 0.6884083356 -0.4716769052
H 1.7592675724 0.2884447362 1.1665630374
H 3.7624912704 -0.9126538442 0.2603811733
H 3.2526869547 -0.5405511470 -1.3743790072
H 5.0120386060 1.0269396207 -0.6187355107
28
CONF54
C -4.6177911836 -0.1010844317 0.9876450338
C -4.1317608641 0.0996365296 -0.4435328613
C -2.8230043618 -0.6322941543 -0.7443080742
C -1.6217594095 -0.0600526693 0.0057705502
C -0.3203391445 -0.7498437537 -0.3970291079
C 0.8837512335 -0.1809296022 0.3496210448
C 2.1829252262 -0.8762244808 -0.0536175760
C 3.3894591542 -0.3173181669 0.6976897410
C 3.8046617872 1.0435949937 0.2515807549
O 3.3466374080 1.6652538902 -0.6761261520
H -5.5872515248 0.3718061329 1.1255128233
H -4.7183179050 -1.1613114586 1.2086987420
H -3.9237629548 0.3363292547 1.7000846088
H -3.9986536461 1.1667361748 -0.6355568215
H -4.8992380767 -0.2658318276 -1.1298930169
H -2.6262786512 -0.5686199754 -1.8174579580
H -2.9360970093 -1.6893002993 -0.4922922823
H -1.7671984218 -0.1780929993 1.0807789679
H -1.5415835547 1.0093169228 -0.2045717776
H -0.4011915459 -1.8199097655 -0.1913622244
H -0.1657594489 -0.6301741631 -1.4718796512
H 0.9674259841 0.8869841951 0.1362530912
H 0.7272823712 -0.2968336567 1.4249812157
H 2.0964264790 -1.9450727170 0.1473337739
H 2.3412235881 -0.7426099134 -1.1256375918
H 3.1965081179 -0.2751354470 1.7721228495
H 4.2613947053 -0.9632651539 0.5611371615
H 4.6263192729 1.4774020109 0.8530981032
28
CONF51
C -4.9609464682 0.1109597378 0.6387707075
C -3.4886480617 0.3431137495 0.3185603355
C -2.9103691281 -0.7972519091 -0.5170182015
C -1.4671142060 -0.5592825440 -0.9625912931
C -0.4669013838 -0.5520777140 0.1919281175
C 0.9736330057 -0.4811776571 -0.3097059992
C 1.9766998415 -0.4584589554 0.8424736957
C 3.4209334684 -0.4484914717 0.3458215636
C 3.8459264349 0.8440271952 -0.2641462209
O 3.2028499077 1.8646906784 -0.3037083178
H -5.3558826447 0.9272759761 1.2385935772
H -5.5445473859 0.0433516987 -0.2767920122
H -5.0872794477 -0.8160934617 1.1935829345
H -2.9311920904 0.4359527301 1.2517878874
H -3.3796933386 1.2815645258 -0.2299827036
H -3.5319425251 -0.9259887938 -1.4067259673
H -2.9613657340 -1.7253236651 0.0572620964
H -1.4054849959 0.3909907032 -1.4982950805
H -1.1862100634 -1.3500536587 -1.6628581255
H -0.6584185534 0.3036916906 0.8410811381
H -0.5971666581 -1.4597061422 0.7862214932
H 1.1736004126 -1.3449317577 -0.9488857793
H 1.1010220588 0.4192377367 -0.9146030070
H 1.8045108796 0.4330154507 1.4488166776
H 1.8198958967 -1.3350414699 1.4729610647
H 4.1128728399 -0.6396737651 1.1709967633
H 3.5865880119 -1.2383501892 -0.3905066378
H 4.8642927086 0.8174926696 -0.6970819626
28
CONF33
C -4.8488718395 -0.4484549057 -1.0021808719
C -4.3718996991 -0.6980030217 0.4244333725
C -3.0660653733 0.0246313596 0.7588655608
C -1.8598560258 -0.5167944020 -0.0057784586
C -0.5623927524 0.1616539440 0.4289986097
C 0.6469903931 -0.3699213639 -0.3366690703
C 1.9413180512 0.3077562204 0.1048374760
C 3.1504245893 -0.2186081885 -0.6630430828
C 4.4329962053 0.4227953048 -0.2592588880
O 4.5652055025 1.2801784992 0.5806829530
H -5.8187894073 -0.9137220346 -1.1614898953
H -4.9456647765 0.6189556780 -1.1881992850
H -4.1518191028 -0.8633379503 -1.7251077489
H -4.2393587348 -1.7710260477 0.5802369862
H -5.1442556078 -0.3569488904 1.1178587152
H -2.8750479690 -0.0775829041 1.8301256661
H -3.1801065760 1.0901205428 0.5458086405
H -2.0006027820 -0.3586987452 -1.0761074057
H -1.7797054954 -1.5929117666 0.1655281111
H -0.6471718715 1.2387863049 0.2674470015
H -0.4109446370 0.0017001297 1.4991172384
H 0.7279498355 -1.4471876287 -0.1757799588
H 0.4964223906 -0.2032365641 -1.4055252441
H 1.8649662839 1.3864256901 -0.0473357240
H 2.0989723934 0.1444315615 1.1730148454
H 3.2630121741 -1.2966344932 -0.5203228368
H 3.0282395518 -0.0581042783 -1.7376063546
H 5.3168802391 0.0457728153 -0.8075887910
28
CONF31
C -5.1242771850 0.4205943945 -0.0494063548
C -3.6898643501 0.0838911918 -0.4404012006
C -3.0761588197 -0.9447801228 0.5076218833
C -1.6749348812 -1.3963744799 0.0943083976
C -0.6202288753 -0.2989191996 0.2249222046
C 0.7802100315 -0.8188176287 -0.0919527150
C 1.8346969246 0.2772819988 0.0350872069
C 3.2351918504 -0.2400701379 -0.2803862090
C 4.2922450602 0.8026876041 -0.1602152576
O 4.1200875777 1.9560706786 0.1529163903
H -5.5444869589 1.1561912824 -0.7310141459
H -5.7473321215 -0.4706898894 -0.0785370279
H -5.1576649805 0.8278203986 0.9587343996
H -3.0943832482 0.9980384516 -0.4291265109
H -3.6753356872 -0.3122184069 -1.4583795436
H -3.7293284665 -1.8204654288 0.5391617416
H -3.0375411175 -0.5266568022 1.5162718033
H -1.7016470608 -1.7512228831 -0.9385717531
H -1.3812791508 -2.2390615335 0.7249928125
H -0.8550358930 0.5226145652 -0.4536269147
H -0.6363908597 0.0966419072 1.2431398977
H 1.0230284947 -1.6366061419 0.5901846794
H 0.7922982144 -1.2185332880 -1.1083049284
H 1.5979396046 1.0995846926 -0.6433037683
H 1.8255525867 0.6839740465 1.0484936436
H 3.5065245920 -1.0604310218 0.3894827511
H 3.2823458431 -0.6399614618 -1.2967979469
H 5.3117699088 0.4385942839 -0.3884667328
28
CONF50
C -4.9482577501 0.0825844471 -0.6449001445
C -3.4761851930 0.3271390937 -0.3331196983
C -2.9104703600 -0.7524594656 0.5875901369
C -1.4671204118 -0.4918444641 1.0203646286
C -0.4606170791 -0.6001491614 -0.1234068313
C 0.9768388418 -0.4625846745 0.3730759039
C 1.9849643548 -0.5697635203 -0.7698641439
C 3.4264969737 -0.4719044351 -0.2748826941
C 3.8299038352 0.8982891260 0.1529873327
O 3.1718370643 1.9048086812 0.0498501079
H -5.3342009894 0.8579590186 -1.3021396701
H -5.0780615603 -0.8798489161 -1.1348861977
H -5.5371935536 0.0826094578 0.2697514481
H -3.3635341164 1.3025300558 0.1459394153
H -2.9127970665 0.3479500120 -1.2672249282
H -2.9663070320 -1.7204350220 0.0841281464
H -3.5368075380 -0.8094958643 1.4813811826
H -1.1989245481 -1.2187458341 1.7912510577
H -1.3979229888 0.5024822889 1.4679312226
H -0.5806704324 -1.5675498712 -0.6169973889
H -0.6555429831 0.1789685107 -0.8618931587
H 1.0962371238 0.5038531960 0.8677440448
H 1.1785447677 -1.2435503261 1.1106400479
H 1.8451093450 -1.5216847682 -1.2844221699
H 1.8012609220 0.2346978463 -1.4849360590
H 3.5995727688 -1.1508990749 0.5632126902
H 4.1251733416 -0.7640707714 -1.0639588357
H 4.8465739655 0.9469527136 0.5880142397
28
CONF52
C -4.7030744336 0.3906229721 0.9256562304
C -3.8095568064 0.0597323918 -0.2641173765
C -2.4165780919 -0.3854537902 0.1763844381
C -1.5199265994 -0.7111068742 -1.0166022563
C -0.1554693337 -1.2748000638 -0.6180552369
C 0.7389304585 -0.2564081210 0.0857650502
C 2.1272035663 -0.8289809336 0.3676609156
C 3.0259784158 0.1748594186 1.0868155083
C 3.4973731348 1.2947436530 0.2223740180
O 3.3160791853 1.4093549819 -0.9654271234
H -4.8175990123 -0.4792374822 1.5686067768
H -4.2704351598 1.1967236448 1.5140851250
H -5.6889817804 0.7017660595 0.5890663329
H -3.7190672449 0.9388944759 -0.9063084662
H -4.2719444637 -0.7340855512 -0.8553539779
H -2.5065059265 -1.2701386120 0.8112128338
H -1.9653551282 0.4095524212 0.7723720219
H -1.3746729013 0.1901529791 -1.6170549086
H -2.0298349930 -1.4456048480 -1.6451143970
H -0.2996121301 -2.1407191363 0.0323568698
H 0.3546345538 -1.6199601135 -1.5205641794
H 0.8381633787 0.6301717840 -0.5444297508
H 0.2795600839 0.0473293765 1.0280919657
H 2.0282467357 -1.7271148878 0.9791586185
H 2.5971498723 -1.1099487962 -0.5770703565
H 2.5169806192 0.6076543441 1.9511150387
H 3.9256823891 -0.3170637265 1.4672850357
H 4.0782862891 2.0632559828 0.7674621078
28
CONF129
C -3.2765799206 1.5007256017 0.4001292892
C -2.6967301827 0.0913106889 0.3809569043
C -1.7237563879 -0.0927189639 -0.7813949914
C -1.1653861929 -1.5124658612 -0.8935579908
C -0.3575413205 -1.9898053398 0.3170964037
C 0.7727246883 -1.0540387536 0.7467144742
C 1.8276799188 -0.8408114249 -0.3374489861
C 2.9137466153 0.1297797156 0.1218500847
C 2.4580776488 1.5483711194 0.1885341965
O 1.3825147692 1.9724339879 -0.1589502954
H -3.9537693447 1.6275178356 1.2415236063
H -2.4774795095 2.2345695745 0.4856421649
H -3.8255535786 1.7008241897 -0.5175423186
H -3.5070893478 -0.6367464897 0.2942620073
H -2.1825963427 -0.0924053773 1.3256728105
H -0.9069376044 0.6248250847 -0.6831776406
H -2.2463395380 0.1415748916 -1.7129262300
H -0.5408929403 -1.5673849895 -1.7873766328
H -1.9973532987 -2.2067271822 -1.0386287288
H -1.0320529756 -2.1258265930 1.1646789955
H 0.0647756615 -2.9690530370 0.0776682195
H 0.3562401265 -0.0884303595 1.0355393510
H 1.2535276794 -1.4817825773 1.6306910043
H 2.2790262601 -1.7992890350 -0.5978582032
H 1.3559924360 -0.4298883407 -1.2305540222
H 3.2989986266 -0.1461913278 1.1063453507
H 3.7652228157 0.1119252140 -0.5642207801
H 3.2196861902 2.2433700077 0.5907641438
28
CONF47
C -5.0383175514 -0.4690867882 0.6176685938
C -3.5927657208 -0.7692534350 0.2381079116
C -2.9239060514 0.4351596932 -0.4220416872
C -1.5088563515 0.1475659285 -0.9253939896
C -0.5024485445 -0.0977519865 0.1970319283
C 0.9153166245 -0.2708469067 -0.3428027438
C 1.9221749585 -0.5298209507 0.7766260997
C 3.3396111712 -0.7192264706 0.2404795018
C 3.9772045466 0.5378526714 -0.2460388415
O 3.5215822617 1.6524062111 -0.1618523892
H -5.0827393846 0.3663051779 1.3129671883
H -5.6189201314 -0.2096471131 -0.2649875302
H -5.4979272008 -1.3341098446 1.0895726725
H -3.5675317656 -1.6162061553 -0.4513448304
H -3.0406566340 -1.0518064409 1.1356239544
H -2.8916644264 1.2644540157 0.2885481980
H -3.5369784085 0.7520899335 -1.2695568479
H -1.1684915952 1.0017969092 -1.5161692651
H -1.5319978199 -0.7217653725 -1.5869018218
H -0.5227112024 0.7472697188 0.8890011017
H -0.7817261919 -0.9935358853 0.7541943615
H 0.9308857009 -1.1062321640 -1.0472104048
H 1.2072882619 0.6306868225 -0.8859664712
H 1.9151729800 0.3171329693 1.4655933283
H 1.6240657999 -1.4216309974 1.3298630398
H 3.9970879917 -1.1138391439 1.0203577220
H 3.3550389508 -1.4430258118 -0.5776415894
H 4.9703839449 0.3823863221 -0.7092290113
28
CONF56
C -4.4586999296 0.9292868503 0.2192681077
C -4.1535115072 -0.5631149428 0.1539647837
C -2.8314798047 -0.8777073698 -0.5476424040
C -1.6042824288 -0.4113099910 0.2331079323
C -0.3043339091 -0.8337266417 -0.4475925001
C 0.9256266729 -0.3642942776 0.3255624344
C 2.2236600662 -0.7918836825 -0.3571945669
C 3.4572329911 -0.3390372876 0.4211537001
C 3.7211854307 1.1263927600 0.3407271942
O 3.1218678257 1.9273171103 -0.3347559343
H -5.4406961616 1.0941921080 0.6563435830
H -3.7252664451 1.4514996829 0.8277388092
H -4.4497784842 1.3623292865 -0.7786027038
H -4.9607156106 -1.0632824457 -0.3862998318
H -4.1298360798 -0.9731544723 1.1661489112
H -2.8287735772 -0.4115637704 -1.5357047872
H -2.7622009680 -1.9586445203 -0.6931746509
H -1.6378517671 -0.8327183255 1.2408054172
H -1.6156903907 0.6758928168 0.3261533038
H -0.2807346053 -1.9224675180 -0.5379456528
H -0.2751609691 -0.4172010573 -1.4570396978
H 0.9055883503 0.7246658578 0.4072231368
H 0.8926971577 -0.7771046442 1.3369226165
H 2.2378393927 -1.8784244201 -0.4549652483
H 2.2591194529 -0.3590064926 -1.3589447284
H 3.3747564409 -0.6085047690 1.4766573952
H 4.3556400200 -0.8334670875 0.0410237975
H 4.5683026176 1.4607597109 0.9696996381
28
CONF48
C -5.1445128404 0.1143441729 0.4968367510
C -3.9200093614 0.0215648900 -0.4060795422
C -2.6444768971 -0.2432994551 0.3904691432
C -1.4138143599 -0.3388513707 -0.5085758333
C -0.1385530883 -0.6044622936 0.2885149814
C 1.0852268047 -0.6994307628 -0.6209452395
C 2.3762858559 -1.0356271375 0.1283009592
C 2.8812600579 0.1124249823 1.0004920224
C 3.4359533631 1.2603605314 0.2276580241
O 3.5976203334 1.3104110281 -0.9676387177
H -6.0395552062 0.3035209341 -0.0906369058
H -5.2832804671 -0.8141291128 1.0461898846
H -5.0273188061 0.9226733064 1.2152215092
H -3.8084425840 0.9540759522 -0.9641556248
H -4.0640750260 -0.7817986413 -1.1321087673
H -2.7566009443 -1.1756613346 0.9488932514
H -2.5010770468 0.5612154628 1.1158319383
H -1.3008205609 0.5934380497 -1.0676580536
H -1.5599612642 -1.1410914402 -1.2358502118
H -0.0079551907 0.1999527674 1.0147281375
H -0.2488665562 -1.5397165434 0.8422967710
H 0.9048356583 -1.4785363723 -1.3649196237
H 1.2176377052 0.2402940553 -1.1612171144
H 2.2111509355 -1.9158286974 0.7512703436
H 3.1507770189 -1.2753098961 -0.6030770567
H 2.0945751359 0.4938222369 1.6537455281
H 3.6862776996 -0.2324744796 1.6557294567
H 3.7262185679 2.1223330514 0.8588203375
28
CONF49
C -5.2653467502 -0.1677600844 -0.2218615064
C -3.8594856559 -0.6722270697 -0.5252293356
C -2.8036520244 0.0469597419 0.3116559095
C -1.3927090203 -0.4567738418 0.0157172778
C -0.3435528363 0.2715673760 0.8540619079
C 1.0706932337 -0.2818430528 0.6762280740
C 1.6531937147 -0.0096980195 -0.7102484683
C 3.0937162141 -0.5047973333 -0.8253125882
C 4.0848289173 0.3272248715 -0.0845415623
O 3.8636050919 1.3656708009 0.4896756108
H -5.5079468736 -0.3250221626 0.8267723198
H -5.3417167952 0.8963261639 -0.4340560132
H -5.9998149217 -0.6930122458 -0.8274802926
H -3.6417289475 -0.5230410348 -1.5851769166
H -3.8080304063 -1.7447819179 -0.3246420218
H -3.0249739638 -0.0983376640 1.3718337975
H -2.8529206500 1.1196307069 0.1096204713
H -1.1838262199 -0.3148911575 -1.0457889686
H -1.3421595050 -1.5276250070 0.2266130177
H -0.3483258984 1.3338842449 0.5998959223
H -0.6192618399 0.1860945441 1.9080153521
H 1.7204733799 0.1813308107 1.4222736213
H 1.0603211729 -1.3586081992 0.8621629101
H 1.0472215352 -0.5049564935 -1.4685901315
H 1.6326814659 1.0653289515 -0.9002285964
H 3.1833044974 -1.5331886738 -0.4677171190
H 3.4179678943 -0.5074379253 -1.8698767694
H 5.1128462418 -0.0825131085 -0.1047394541
28
CONF36
C -5.0337681359 0.1283676664 -0.2570398415
C -3.5642612304 0.5123339698 -0.3844800754
C -2.6446032032 -0.5463730575 0.2198126346
C -1.1709314056 -0.1636034643 0.1021785735
C -0.2569965181 -1.2355859277 0.6928140189
C 1.2124000190 -0.8172644297 0.7469132358
C 1.8434526852 -0.6569964078 -0.6355797082
C 3.3335278685 -0.3344536208 -0.5436472822
C 3.6239119068 1.0500041415 -0.0717069541
O 2.8145545749 1.9206839413 0.1375997293
H -5.2267574771 -0.8121246144 -0.7682336185
H -5.3068544187 0.0111994845 0.7893058593
H -5.6688771225 0.8947193243 -0.6945343157
H -3.3927403708 1.4666075579 0.1189002185
H -3.3142281705 0.6467462355 -1.4393562532
H -2.8109987466 -1.4996044745 -0.2877325982
H -2.8997007962 -0.6845972456 1.2733164704
H -0.9989621314 0.7818100069 0.6226234963
H -0.9293614542 -0.0090937091 -0.9507317925
H -0.5913270662 -1.4561008854 1.7095160179
H -0.3514427380 -2.1536606841 0.1082235527
H 1.2973975552 0.1261370163 1.2905923943
H 1.7689687670 -1.5755556314 1.3037982127
H 1.7077385435 -1.5794616252 -1.2021508626
H 1.3467365702 0.1528810565 -1.1710938341
H 3.8466841109 -1.0317529322 0.1227416678
H 3.8095634735 -0.4300528752 -1.5236865380
H 4.7022174761 1.2542575941 0.0721994756
28
CONF151
C -3.6324361787 1.4597331263 -0.0689326738
C -2.7507751400 0.2925959013 -0.4980927047
C -2.3359090692 -0.5651112811 0.6956692565
C -1.6017020125 -1.8484527311 0.3026359326
C -0.3022001784 -1.6373102078 -0.4761686579
C 0.7477064731 -0.8436766713 0.2975525867
C 2.0683939700 -0.7684595472 -0.4669611471
C 3.1156237533 0.0541799050 0.2807577175
C 2.8477290816 1.5212012305 0.2764822976
O 1.9639169759 2.0867932331 -0.3201545238
H -4.5396164450 1.0982109849 0.4106144370
H -3.1022616338 2.0958532269 0.6366922659
H -3.9142239679 2.0628206344 -0.9287029154
H -1.8628878898 0.6857643788 -0.9961954216
H -3.2928453762 -0.3270416362 -1.2163675983
H -3.2336136810 -0.8459716161 1.2528582003
H -1.7120246096 0.0292571103 1.3656330204
H -2.2716602874 -2.4608753025 -0.3060233014
H -1.3782605878 -2.4102337913 1.2130711663
H 0.1099476309 -2.6195445303 -0.7217271358
H -0.5159813102 -1.1297543209 -1.4180876558
H 0.3864871501 0.1706551362 0.4720566457
H 0.9137127121 -1.3166822850 1.2687028365
H 2.4503084012 -1.7772693543 -0.6309913078
H 1.8897431187 -0.3095185083 -1.4416388741
H 3.1988009097 -0.2698325905 1.3207838336
H 4.1037867656 -0.0785905494 -0.1686918247
H 3.5649314032 2.1064457951 0.8833471251
28
CONF152
C -3.6247574089 1.4651991149 0.0159138424
C -2.7584791811 0.3002330369 0.4806335756
C -2.3336472789 -0.5840406250 -0.6899200780
C -1.6006829831 -1.8569475607 -0.2623065743
C -0.3032671038 -1.6260026507 0.5144501672
C 0.7464725792 -0.8473036263 -0.2746140461
C 2.0682307790 -0.7595367980 0.4866436669
C 3.1147888827 0.0495698211 -0.2766487015
C 2.8476402098 1.5165551113 -0.2980952279
O 1.9633841741 2.0930203154 0.2873661534
H -3.9175412902 2.0851077887 0.8599007006
H -3.0778535202 2.0853901843 -0.6911506929
H -4.5257084224 1.1011694341 -0.4733924375
H -3.3153153564 -0.3009362246 1.2033029549
H -1.8747461941 0.6966930552 0.9834844326
H -1.7052599034 -0.0044073198 -1.3684612380
H -3.2268516071 -0.8785098571 -1.2472634495
H -1.3743702958 -2.4413334431 -1.1576864946
H -2.2723051302 -2.4541304651 0.3595167005
H -0.5198249251 -1.0983222776 1.4446239142
H 0.1103228160 -2.6017676378 0.7823901953
H 0.9107851204 -1.3377936917 -1.2373356813
H 0.3859257485 0.1640709777 -0.4667221590
H 1.8912580309 -0.2839962525 1.4536153114
H 2.4500210198 -1.7655651386 0.6671995070
H 4.1035539766 -0.0758233496 0.1736190389
H 3.1963781333 -0.2925844053 -1.3110037054
H 3.5659072546 2.0906897075 -0.9142362129
28
CONF183
C -3.8009265702 1.1325225341 -0.1984276079
C -3.5714815427 -0.2993033971 -0.6690556384
C -2.9720673874 -1.2015186597 0.4114372341
C -1.5856877726 -0.7845821055 0.9058670508
C -0.5098936173 -0.8423127770 -0.1763582027
C 0.8756557023 -0.5381713848 0.3885992186
C 1.9556341240 -0.6011730079 -0.6901349801
C 3.3424214697 -0.2899103668 -0.1310584652
C 3.5546642662 1.1497758253 0.1943926953
O 2.7865773253 2.0549829825 -0.0237072692
H -2.8578688430 1.6338552559 0.0026751860
H -4.3280745059 1.6999406614 -0.9619049619
H -4.3981518670 1.1427367143 0.7108528741
H -2.9242747568 -0.2942099588 -1.5472989009
H -4.5295241782 -0.7278145953 -0.9735512081
H -2.9116158306 -2.2195912185 0.0186756710
H -3.6526760565 -1.2181201921 1.2664186067
H -1.2997588061 -1.4567547335 1.7191757184
H -1.6280659452 0.2240150294 1.3200948318
H -0.5066436284 -1.8370467726 -0.6287406591
H -0.7353085269 -0.1187277779 -0.9612362152
H 0.8710065717 0.4594885574 0.8334123194
H 1.1083508785 -1.2562002975 1.1790379793
H 1.9609935007 -1.5967249002 -1.1363918901
H 1.7208064401 0.1223865102 -1.4734610666
H 3.5396875891 -0.8712490498 0.7726557672
H 4.1189872121 -0.5592620705 -0.8524159323
H 4.5327331660 1.3594448781 0.6681270457
28
CONF182
C -3.8162798069 1.1249464070 -0.2058774833
C -3.5763295344 -0.3081456632 -0.6673419478
C -2.9708907099 -1.1992423777 0.4189895460
C -1.5856411844 -0.7721557760 0.9078745041
C -0.5104376586 -0.8387178174 -0.1744635153
C 0.8751412594 -0.5278783693 0.3868055390
C 1.9545835128 -0.5991636804 -0.6919602407
C 3.3432063683 -0.2946280449 -0.1338012320
C 3.5616600772 1.1430750369 0.1961406311
O 2.7999240469 2.0531189893 -0.0241861451
H -4.3443068187 1.6845800850 -0.9744750985
H -4.4167132081 1.1366651122 0.7012748532
H -2.8770853188 1.6333648130 -0.0044208075
H -2.9288481683 -0.3039666601 -1.5454059588
H -4.5312294914 -0.7453268978 -0.9694304525
H -2.9061037595 -2.2199734393 0.0338932945
H -3.6501245425 -1.2126227511 1.2750995590
H -1.2969715007 -1.4342354818 1.7284563242
H -1.6309174574 0.2408566416 1.3108064275
H -0.5062238126 -1.8378216921 -0.6171522017
H -0.7372744578 -0.1231086997 -0.9662434784
H 0.8698164825 0.4735101419 0.8231853361
H 1.1091285462 -1.2388879766 1.1832376149
H 1.9545904872 -1.5959139956 -1.1356503590
H 1.7235292843 0.1236040861 -1.4771153611
H 3.5402608130 -0.8804625528 0.7669934704
H 4.1173771880 -0.5636348131 -0.8579835269
H 4.5384021973 1.3462022116 0.6754950748
28
CONF186
C -3.8486936137 1.1302775807 0.0973838571
C -3.5790063144 -0.2536433561 0.6773810153
C -2.9673239068 -1.2236976797 -0.3353155048
C -1.5842347140 -0.8277388408 -0.8555750172
C -0.5040393093 -0.8310348070 0.2238836159
C 0.8778920421 -0.5455944316 -0.3595004942
C 1.9647996645 -0.5726108587 0.7137837411
C 3.3488366234 -0.2877861951 0.1342169863
C 3.5639846051 1.1377694743 -0.2467431331
O 2.8046745988 2.0550587376 -0.0491963079
H -2.9208061436 1.6344964011 -0.1594060250
H -4.4597177044 1.0538939690 -0.7995211614
H -4.3772822764 1.7456953801 0.8216594058
H -4.5234347714 -0.6792516662 1.0253799021
H -2.9241573793 -0.1630897070 1.5452393149
H -3.6463027953 -1.3081759825 -1.1875373176
H -2.8962252733 -2.2107942425 0.1283188430
H -1.6306597288 0.1593683738 -1.3181538432
H -1.2994553824 -1.5380374585 -1.6361976322
H -0.7303891630 -0.0750157474 0.9773264457
H -0.4936987456 -1.8049308359 0.7195263738
H 1.1058764818 -1.2900601155 -1.1265804677
H 0.8703588942 0.4363744513 -0.8379833637
H 1.7379318684 0.1800380028 1.4715988572
H 1.9696960899 -1.5512050479 1.1961544701
H 4.1289161253 -0.5313124810 0.8610938000
H 3.5388984864 -0.9045421403 -0.7472111325
H 4.5356820301 1.3241927124 -0.7428284562
28
CONF136
C -4.4349529469 0.8072343837 0.5123120748
C -3.3477131835 0.1271647451 -0.3121221001
C -2.6984557334 -1.0228379828 0.4552145763
C -1.6985452102 -1.8268950276 -0.3778957861
C -0.4747328547 -1.0436237412 -0.8573301332
C 0.4036528860 -0.5314583070 0.2822004623
C 1.6859860571 0.1079958992 -0.2439772707
C 2.5723159804 0.6228693615 0.8865775416
C 3.8368897300 1.2485807341 0.4085086506
O 4.1813497552 1.3637693853 -0.7430737389
H -5.2164404722 0.0969764106 0.7737720265
H -4.0186523081 1.2105401258 1.4328778852
H -4.8859871581 1.6232691412 -0.0471660077
H -2.5919756068 0.8665374229 -0.5814304594
H -3.7818107264 -0.2581092897 -1.2377274349
H -3.4849090931 -1.7041833009 0.7900949166
H -2.2082115287 -0.6315514112 1.3479928401
H -2.2167764141 -2.2261923242 -1.2532473208
H -1.3569264952 -2.6771761407 0.2175172668
H 0.1238988065 -1.7041462192 -1.4897010875
H -0.7917158234 -0.2040582828 -1.4778823607
H -0.1464655125 0.2058667993 0.8685610504
H 0.6572981261 -1.3648811036 0.9412360959
H 2.2488449283 -0.6193270192 -0.8330384918
H 1.4395455121 0.9380348460 -0.9095865392
H 2.0442381124 1.3678281431 1.4877756779
H 2.8453931943 -0.1887977049 1.5663595776
H 4.4870827974 1.6269133035 1.2199327007
28
CONF137
C -4.4161444140 0.8301337793 -0.4671489656
C -3.3148390500 0.1387858808 0.3287293965
C -2.7002481608 -1.0205548057 -0.4530443190
C -1.7004369249 -1.8454787939 0.3598062323
C -0.4675952365 -1.0789829006 0.8430936509
C 0.4055592407 -0.5528086401 -0.2938814803
C 1.6851078712 0.0900609057 0.2348857825
C 2.5656616529 0.6195169488 -0.8934291977
C 3.8166128923 1.2698362181 -0.4125081520
O 4.1531554757 1.3977834279 0.7400495246
H -4.0218196421 1.2213602429 -1.4024434795
H -5.2157472044 0.1303046144 -0.7001835242
H -4.8376803731 1.6563470567 0.1003405004
H -3.7280732070 -0.2390974301 1.2668358004
H -2.5433682467 0.8698273992 0.5752001752
H -2.2191840418 -0.6354804293 -1.3535105910
H -3.5043973627 -1.6869845798 -0.7756194125
H -1.3700903273 -2.6888752909 -0.2515467977
H -2.2154052642 -2.2544034247 1.2326273845
H -0.7747535719 -0.2479796625 1.4798962635
H 0.1312030464 -1.7537880019 1.4600480368
H 0.6622630472 -1.3792170286 -0.9604362365
H -0.1500334384 0.1862460665 -0.8727947843
H 1.4347699660 0.9136306360 0.9070862610
H 2.2533733657 -0.6381137819 0.8175932754
H 2.8549950801 -0.1872018244 -1.5722231359
H 2.0256865749 1.3547199590 -1.4962055255
H 4.4638805855 1.6553649910 -1.2228904901
28
CONF124
C -2.9835669441 1.2313048472 0.9526225185
C -3.0735485675 0.4765297576 -0.3691966549
C -1.7537646286 -0.1870608509 -0.7646183223
C -1.3702242604 -1.3464881651 0.1535180001
C -0.1532828019 -2.1309051163 -0.3422997343
C 1.1151742984 -1.2953902460 -0.5218773294
C 1.6129859101 -0.6641296543 0.7773613276
C 2.8320648492 0.2233597471 0.5360202305
C 2.4979346807 1.5231684326 -0.1150205792
O 1.3896874622 1.9431214256 -0.3449558897
H -3.9073394651 1.7725714517 1.1435627738
H -2.8135217276 0.5486252552 1.7809086944
H -2.1647501199 1.9474662291 0.9204628057
H -3.3568302618 1.1799658865 -1.1558427627
H -3.8582692412 -0.2811732377 -0.3044463894
H -0.9690438344 0.5718454533 -0.7543181418
H -1.8416309222 -0.5638703386 -1.7871532314
H -2.2156441203 -2.0365742469 0.2203458166
H -1.1768794878 -0.9709893587 1.1582437385
H 0.0513151928 -2.9382688964 0.3652711538
H -0.4001982508 -2.5886341484 -1.3034740495
H 1.8985210785 -1.9430819803 -0.9244943095
H 0.9304407522 -0.5095376363 -1.2554086310
H 0.8246512590 -0.0473497876 1.2097437715
H 1.8640728634 -1.4508267116 1.4900521711
H 3.3240163925 0.4723193810 1.4806289532
H 3.5765084429 -0.2846634636 -0.0811423527
H 3.3833089887 2.1320221291 -0.3797411024
28
CONF123
C -4.2225638547 0.8246617309 -0.8466413614
C -3.3855431066 0.2953415188 0.3121607257
C -2.1989116813 -0.5333270915 -0.1754031581
C -1.3390316766 -1.0305512315 0.9845888029
C -0.2265762255 -1.9889221017 0.5546494949
C 0.7854284069 -1.4030094990 -0.4315385126
C 1.5356719832 -0.1944592673 0.1221536689
C 2.6287301210 0.2754259186 -0.8336391215
C 3.3579413716 1.4810560035 -0.3500640690
O 3.1450071714 2.0743001774 0.6798555765
H -5.0630915074 1.4070974733 -0.4772536069
H -3.6206797611 1.4614742999 -1.4913005627
H -4.6098542283 0.0018081937 -1.4433987316
H -4.0129391834 -0.3185280271 0.9625912240
H -3.0171411927 1.1348096702 0.9067246339
H -1.5965417388 0.0813477169 -0.8462425848
H -2.5674498998 -1.3894416670 -0.7456361707
H -1.9815891990 -1.5551821313 1.6964784418
H -0.9086618348 -0.1757311397 1.5092766010
H 0.3064412908 -2.3197815051 1.4492671968
H -0.6822341324 -2.8705675337 0.0974817049
H 1.5081523070 -2.1846593966 -0.6774893034
H 0.2775585214 -1.1244862014 -1.3559358121
H 0.8465551561 0.6333255563 0.2945391288
H 1.9866492994 -0.4475035838 1.0840309019
H 3.3684404572 -0.5120806035 -1.0004859363
H 2.2084587204 0.5193605185 -1.8132634253
H 4.1575316545 1.8276654352 -1.0317905650
28
CONF135
C -4.4056486136 0.8333188247 -0.4631420264
C -3.3122431548 0.1301392053 0.3331740932
C -2.6985522856 -1.0247905411 -0.4556264207
C -1.6969148813 -1.8535218827 0.3508293883
C -0.4661679526 -1.0873703112 0.8400647676
C 0.3877332052 -0.5211863892 -0.2923856555
C 1.6811052968 0.0943155114 0.2351590074
C 2.5346189775 0.6772064482 -0.8876962719
C 3.8116284605 1.2772758188 -0.4099040459
O 4.1879884917 1.3274629889 0.7363334792
H -4.8270261552 1.6564962540 0.1088644350
H -4.0037933644 1.2308427989 -1.3925889421
H -5.2068996528 0.1391685477 -0.7072896433
H -3.7323131531 -0.2541229653 1.2656345148
H -2.5387174823 0.8552860986 0.5903778630
H -2.2185529171 -0.6346294826 -1.3545090637
H -3.5028880102 -1.6896470026 -0.7810249879
H -1.3640827889 -2.6904780347 -0.2679773923
H -2.2101253567 -2.2717787257 1.2202872422
H -0.7738980973 -0.2772529554 1.5030115324
H 0.1465936171 -1.7725995564 1.4312491828
H 0.6268836297 -1.3218648892 -0.9958127412
H -0.1750981077 0.2427353516 -0.8305236780
H 1.4491034773 0.8842061189 0.9527648357
H 2.2621801833 -0.6619393182 0.7672406924
H 2.7883866279 -0.0921191937 -1.6219379976
H 1.9887387599 1.4551992348 -1.4281789050
H 4.4384451451 1.7031120563 -1.2161333338
28
CONF188
C -4.0761680674 -1.4245508139 -0.4484712036
C -3.6959822026 -0.4623172250 0.6712500417
C -3.0096341746 0.8094190658 0.1686031563
C -1.6760454558 0.5852454352 -0.5467123688
C -0.6013412222 -0.0297049691 0.3471790017
C 0.7519938530 -0.0904434431 -0.3573391729
C 1.8257072555 -0.7207798130 0.5280125485
C 3.1797636900 -0.7903507331 -0.1749770329
C 3.8592018628 0.5296918311 -0.3143635901
O 3.4878071903 1.5801582108 0.1498594142
H -4.6816772347 -0.9166582459 -1.1960464973
H -3.1917624351 -1.8259460756 -0.9356204127
H -4.6502820178 -2.2576211918 -0.0496795117
H -3.0491931002 -0.9719898352 1.3868476830
H -4.6025727146 -0.1675635297 1.2054749675
H -2.8409978636 1.4725345773 1.0208633745
H -3.6875859802 1.3226834405 -0.5180620044
H -1.3173454138 1.5532665117 -0.9064389002
H -1.8279684314 -0.0488840719 -1.4216102646
H -0.5062281452 0.5661789216 1.2579623570
H -0.8946156922 -1.0400233187 0.6374942216
H 0.6517615318 -0.6710916856 -1.2778859152
H 1.0617619211 0.9205389132 -0.6314502608
H 1.9304784014 -0.1275381357 1.4386683892
H 1.5144015487 -1.7274451545 0.8110849322
H 3.8696102306 -1.4323895404 0.3800726940
H 3.0812838241 -1.2252429798 -1.1722864365
H 4.7993289549 0.4867423474 -0.8969767354
28
CONF121
C -4.2857957565 0.8194844153 0.7860880337
C -3.4088361890 0.2799061208 -0.3378122475
C -2.2240991959 -0.5209184034 0.1985213547
C -1.3399229042 -1.0492496992 -0.9291033579
C -0.2303182223 -1.9863464837 -0.4484234014
C 0.7780093770 -1.3547359218 0.5128959947
C 1.5432571418 -0.1853240251 -0.1014381676
C 2.6508723109 0.3108453738 0.8237465769
C 3.4027832048 1.4734674249 0.2743224482
O 3.1950936381 2.0181580934 -0.7831602504
H -5.1234015979 1.3823421999 0.3813696348
H -4.6787756905 0.0026113357 1.3873096611
H -3.7118942593 1.4770847361 1.4353038075
H -3.0367930085 1.1125520434 -0.9396013534
H -4.0089607923 -0.3567565012 -0.9921077420
H -2.5959544738 -1.3610689232 0.7900292460
H -1.6388764307 0.1204797275 0.8594988363
H -0.9052796893 -0.2093771625 -1.4739383440
H -1.9668710050 -1.6010232826 -1.6343701279
H -0.6892365764 -2.8449618120 0.0477100915
H 0.3072006510 -2.3598617776 -1.3233807746
H 0.2655363601 -1.0214014007 1.4163280431
H 1.4921973699 -2.1274450639 0.8072823041
H 1.9838525124 -0.4907679682 -1.0529241728
H 0.8660291288 0.6443006495 -0.3087087687
H 2.2416881225 0.6141723569 1.7913854803
H 3.3748692886 -0.4825347542 1.0279240262
H 4.2154590585 1.8358924916 0.9319572583
28
CONF190
C -4.0777264904 -1.4130621455 -0.4756693555
C -3.6962418299 -0.4785824333 0.6669631012
C -3.0095936471 0.8047064915 0.1949411536
C -1.6767013582 0.5978482904 -0.5268998736
C -0.6005585823 -0.0362289919 0.3517217255
C 0.7509334387 -0.0852288566 -0.3572701435
C 1.8273874400 -0.7269080127 0.5165701132
C 3.1793606814 -0.7881773828 -0.1911836294
C 3.8593960001 0.5330400761 -0.3159621894
O 3.4891016262 1.5782792941 0.1608080861
H -3.1939159107 -1.8030813450 -0.9730769119
H -4.6521508024 -2.2552181065 -0.0969317584
H -4.6834045681 -0.8867266046 -1.2102618518
H -3.0492661208 -1.0059404436 1.3694698020
H -4.6023103212 -0.1964559060 1.2089009654
H -2.8399554226 1.4467609131 1.0629716743
H -3.6879570405 1.3348440246 -0.4783494319
H -1.3190956861 1.5740293714 -0.8650445621
H -1.8292098110 -0.0164141978 -1.4157478786
H -0.5021959439 0.5415367739 1.2737731486
H -0.8946224548 -1.0516044944 0.6229582859
H 0.6489792848 -0.6528087472 -1.2857471239
H 1.0589182993 0.9299106512 -0.6177287303
H 1.9351827599 -0.1450293622 1.4341784972
H 1.5166337763 -1.7369155160 0.7881577494
H 3.8703306467 -1.4376993063 0.3536671837
H 3.0777783166 -1.2102978500 -1.1936594309
H 4.7988860594 0.4962141854 -0.9001003569
28
CONF85
C -4.9060545974 0.4568723758 0.2276723220
C -3.5482464524 0.3349555225 -0.4540575645
C -2.5533962346 -0.4514868624 0.3966590970
C -1.1939424815 -0.5902569260 -0.2855437355
C -0.2059081641 -1.3732475063 0.5770606272
C 1.1174690652 -1.6739884180 -0.1295985964
C 1.9329993748 -0.4417683188 -0.5204418652
C 2.3792117216 0.3860622509 0.6814967305
C 3.3292590600 1.4758615201 0.3234076381
O 3.7388951141 1.7272776068 -0.7845562796
H -5.3288732255 -0.5282049706 0.4123322433
H -4.8086360850 0.9711940052 1.1811911308
H -5.5988008721 1.0168233142 -0.3958267116
H -3.1484191925 1.3330274793 -0.6474693932
H -3.6701715267 -0.1637298573 -1.4182476929
H -2.9606111595 -1.4454762785 0.5967967249
H -2.4265167574 0.0519682404 1.3581170354
H -0.8009372753 0.4063289937 -0.4946825481
H -1.3223031342 -1.1026760675 -1.2420015156
H -0.0206904406 -0.8264889833 1.5029120201
H -0.6651749831 -2.3260576132 0.8516313070
H 1.7248587690 -2.3044203871 0.5239108862
H 0.9070809336 -2.2466966418 -1.0352622686
H 2.8233628700 -0.7666489964 -1.0637784188
H 1.3610051553 0.1905947151 -1.2003994389
H 1.5274168156 0.8522475276 1.1819624616
H 2.8727652716 -0.2459126961 1.4250630376
H 3.6633884723 2.0832282898 1.1858373596
28
CONF227
C -4.2116127663 0.2483002027 -0.1755541195
C -2.8625345269 0.9224332910 -0.4017316123
C -1.7135433774 0.2565832423 0.3582746123
C -1.3439692280 -1.1160491968 -0.2013961209
C -0.2698097216 -1.8369402124 0.6163186254
C 1.0535342677 -1.0832822760 0.7561714169
C 1.7407064529 -0.8148963064 -0.5815641257
C 3.0583834274 -0.0656919588 -0.3955586816
C 2.8819209977 1.3667882764 -0.0196966873
O 1.8351611326 1.9641416707 0.0510144753
H -4.4446540441 0.2146442405 0.8864540172
H -4.9983957206 0.8021650054 -0.6823075950
H -4.2122841260 -0.7677959733 -0.5608216675
H -2.9330423734 1.9637018426 -0.0781242496
H -2.6316229658 0.9258364717 -1.4695498413
H -1.9900043885 0.1560554143 1.4108555431
H -0.8439671614 0.9148837961 0.3037181439
H -1.0118557686 -1.0035528832 -1.2349721294
H -2.2317261360 -1.7512342604 -0.2126509884
H -0.6633253051 -2.0244309283 1.6184133186
H -0.0756382555 -2.8068235676 0.1513889360
H 0.8819196360 -0.1358885788 1.2686552991
H 1.7204924840 -1.6802774492 1.3839557471
H 1.9265791932 -1.7623001899 -1.0895954804
H 1.0889682374 -0.2086143856 -1.2115058080
H 3.6787055796 -0.5408201964 0.3680344914
H 3.6410315026 -0.0711325867 -1.3210926876
H 3.8319804787 1.8933749939 0.1924621642
28
CONF173
C -4.5997170116 0.7405473381 0.3016857385
C -3.6190936378 -0.4055570476 0.5214496685
C -2.3280770656 -0.2096763915 -0.2709092677
C -1.3395764293 -1.3501444568 -0.0369440372
C -0.0982215591 -1.2760527137 -0.9285262901
C 0.7628501168 -0.0260018913 -0.7402591388
C 1.3414059831 0.1014013563 0.6682247741
C 2.3047563773 1.2818545433 0.7774421300
C 3.6198085698 1.0572179385 0.1114408865
O 4.0012843794 0.0303658493 -0.3956989873
H -5.5113260860 0.5792117526 0.8718456631
H -4.1599310462 1.6843187022 0.6163077486
H -4.8622076441 0.8197809844 -0.7509588461
H -4.0874653356 -1.3459797278 0.2219111334
H -3.3807787806 -0.4804705608 1.5849598371
H -1.8767365323 0.7391862084 0.0231326209
H -2.5648890692 -0.1508944613 -1.3360161230
H -1.8450094245 -2.2975404818 -0.2414543735
H -1.0423061783 -1.3643197039 1.0128367066
H 0.5203766642 -2.1561285057 -0.7365153017
H -0.4154320199 -1.3203407306 -1.9733420210
H 1.5897002198 -0.0769818849 -1.4527908795
H 0.1771606018 0.8639673003 -0.9773734930
H 0.5343885692 0.2361943583 1.3880273541
H 1.8769445958 -0.8167220077 0.9185297847
H 1.8635148731 2.1873579345 0.3544207773
H 2.5277031358 1.5024387320 1.8253108727
H 4.2813962349 1.9446461216 0.1227958467
28
CONF142
C -4.1270477210 0.4194694946 -0.9851395596
C -3.7737520926 0.1728986881 0.4773005746
C -3.1168027219 -1.1874683399 0.7204023671
C -1.7941595024 -1.4070766934 -0.0161626520
C -0.7018896430 -0.4185394118 0.3866862541
C 0.6342539532 -0.7510095224 -0.2736325726
C 1.7158363300 0.2601909107 0.0966480345
C 3.0503393538 -0.0616781022 -0.5696185056
C 4.1225732188 0.9222456181 -0.2512145617
O 4.0066883236 1.8959618367 0.4533735233
H -4.6882475954 1.3456508389 -1.0852105863
H -3.2313946946 0.5005166984 -1.5950287141
H -4.7361963710 -0.3947871281 -1.3715473362
H -4.6884707662 0.2171842913 1.0735907397
H -3.1171448206 0.9685729457 0.8327308914
H -3.8153317358 -1.9707756782 0.4154662613
H -2.9437021059 -1.3004055308 1.7935861523
H -1.9584210715 -1.3468904940 -1.0931003721
H -1.4484974937 -2.4204840307 0.2032474922
H -0.9940388327 0.5926730043 0.0991881280
H -0.5831546151 -0.4333925368 1.4726639649
H 0.9499185354 -1.7505682003 0.0333048058
H 0.5043248698 -0.7617944833 -1.3581950241
H 1.4028186742 1.2627901377 -0.2025619827
H 1.8525789042 0.2763626689 1.1799137042
H 3.4090016547 -1.0490243621 -0.2670514592
H 2.9443429782 -0.0891567841 -1.6575035255
H 5.0954530352 0.6981234740 -0.7280569417
28
CONF140
C -4.2007316662 0.3449168701 1.0141813457
C -3.7923775046 0.1892699438 -0.4464505217
C -3.1100020796 -1.1473161574 -0.7442266012
C -1.7924479148 -1.3801519650 -0.0025887321
C -0.7020557589 -0.3758028618 -0.3706049328
C 0.6377569934 -0.7362247512 0.2673713002
C 1.7243195054 0.2764096722 -0.0841616036
C 3.0681250612 -0.0893678580 0.5394674018
C 4.1504613838 0.8854778379 0.2273404037
O 4.0357626140 1.8847202745 -0.4407699194
H -4.8152725720 -0.4959842505 1.3283432719
H -3.3287449530 0.3959319330 1.6605035799
H -4.7746183947 1.2588298390 1.1489322644
H -3.1339968012 1.0115182485 -0.7307821106
H -4.6862549664 0.2584974681 -1.0713271412
H -2.9214468395 -1.2078485052 -1.8190588026
H -3.7995450751 -1.9547330539 -0.4851997949
H -1.4395482867 -2.3851149451 -0.2478777762
H -1.9649647488 -1.3511092449 1.0742706733
H -0.5887960082 -0.3480403747 -1.4569933316
H -0.9919965576 0.6235827834 -0.0422323914
H 0.5185342567 -0.7789210047 1.3523123996
H 0.9427262623 -1.7283494231 -0.0729119973
H 1.8392731579 0.3340507220 -1.1685912655
H 1.4306913302 1.2699817794 0.2610072230
H 2.9874480305 -0.1515071073 1.6280589137
H 3.4019256013 -1.0719810893 0.1957570737
H 5.1303508955 0.6276138803 0.6719167233
28
CONF185
C -4.2914897324 0.2166455031 -1.1565678467
C -3.2055227507 -0.5866746453 -0.4498819839
C -2.5122671211 0.2378133535 0.6329861201
C -1.5173306013 -0.5661710924 1.4722890576
C -0.3378620009 -1.1537622135 0.6952335753
C 0.5537140066 -0.0944573448 0.0513051060
C 1.7921657303 -0.7188559731 -0.5897598543
C 2.6831113148 0.3284717515 -1.2546519401
C 3.4315528647 1.1868301065 -0.2919513745
O 3.4660789729 1.0574675109 0.9076110469
H -4.7695214380 -0.3815335319 -1.9285494618
H -5.0529203419 0.5352037786 -0.4479177602
H -3.8668427114 1.1035322801 -1.6218955040
H -2.4734590661 -0.9188247334 -1.1873198039
H -3.6490915962 -1.4755364300 0.0046447668
H -3.2742313521 0.6401675167 1.3057166766
H -2.0064172078 1.0887358024 0.1736196704
H -2.0531939640 -1.3857312669 1.9577768337
H -1.1256427501 0.0825456078 2.2599037592
H 0.2663163636 -1.7409430054 1.3913777877
H -0.7047327940 -1.8365469428 -0.0729208883
H -0.0087181011 0.4456512026 -0.7124369841
H 0.8668888352 0.6233270895 0.8128437541
H 2.3699887943 -1.2376045646 0.1779557736
H 1.4803906858 -1.4525556520 -1.3347863244
H 3.4367491268 -0.1514429210 -1.8855467781
H 2.0999847192 0.9827493867 -1.9068160530
H 4.0080570944 1.9988706028 -0.7751538859
28
CONF127
C -4.2983092384 0.4154327864 0.9827509798
C -3.8422712522 0.3008112786 -0.4676994345
C -2.7925398591 -0.7899304932 -0.6853235702
C -1.4508203234 -0.4813881356 -0.0231080791
C -0.4031297966 -1.5394304112 -0.3647518969
C 0.9235895951 -1.3414329239 0.3691976636
C 1.6718561293 -0.0859216028 -0.0725042793
C 3.0435814785 0.0148292590 0.5888330243
C 3.7998532933 1.2370177833 0.1970938064
O 3.4152037099 2.0995679005 -0.5553355421
H -4.6677312202 -0.5429331030 1.3409372102
H -3.4810554472 0.7327830055 1.6246592025
H -5.0992909732 1.1459378223 1.0688164034
H -3.4374889094 1.2603042086 -0.7977870366
H -4.7102113309 0.0768902257 -1.0924523150
H -2.6315936111 -0.9091717788 -1.7597807988
H -3.1760660183 -1.7387847835 -0.3026165058
H -1.5749129413 -0.4429113044 1.0603110484
H -1.1094870732 0.4993426002 -0.3591168228
H -0.8029549791 -2.5220256499 -0.1025398501
H -0.2232281311 -1.5342649202 -1.4423028102
H 0.7354818106 -1.2928623700 1.4439013797
H 1.5563747546 -2.2118504873 0.1811308059
H 1.7996152382 -0.0948290236 -1.1570266544
H 1.0971422132 0.8062986747 0.1793130883
H 2.9495056600 0.0235302564 1.6781156677
H 3.6633572640 -0.8499420709 0.3371594234
H 4.7995161477 1.3173709120 0.6644214698
28
CONF311
C -3.7353415295 0.4351612332 -0.8791807835
C -2.6325882426 0.8318980432 0.0957542968
C -2.2591962544 -0.2850892208 1.0718158452
C -1.7248612798 -1.5631004417 0.4201807406
C -0.4968400859 -1.3700088797 -0.4706542517
C 0.7067207933 -0.7957162709 0.2725539318
C 1.9462262213 -0.7481787097 -0.6194918876
C 3.1379640847 -0.1139110540 0.0946505221
C 3.0232528852 1.3636217072 0.2617183138
O 2.1487295725 2.0688487498 -0.1797035278
H -3.3987032478 -0.3493139754 -1.5515281206
H -4.6082301053 0.0757026755 -0.3383783463
H -4.0322343987 1.2916858767 -1.4800467325
H -2.9705838777 1.6917109146 0.6799683518
H -1.7484571566 1.1493040590 -0.4598898153
H -3.1454027794 -0.5488901162 1.6550883504
H -1.5146082095 0.1005799212 1.7711023085
H -2.5177204451 -2.0192420736 -0.1753750682
H -1.4724997352 -2.2671604607 1.2173398986
H -0.2224168561 -2.3429343495 -0.8869957008
H -0.7461126323 -0.7170562828 -1.3085980819
H 0.4797952851 0.2162767957 0.6108735189
H 0.9135158739 -1.4093067329 1.1530524206
H 2.2071335611 -1.7602443278 -0.9326714897
H 1.7197282229 -0.1629741470 -1.5133171293
H 3.2810343276 -0.5541161713 1.0842884978
H 4.0620904771 -0.2895838138 -0.4630972746
H 3.8515407973 1.8118663938 0.8432018533
28
CONF314
C -3.9502122689 0.0568713853 0.3432302913
C -2.5915844594 0.7439247333 0.4270675605
C -1.6717780829 0.4095808672 -0.7485152560
C -1.2884739444 -1.0675905595 -0.8657554766
C -0.5639638873 -1.6476864465 0.3516074723
C 0.7019772888 -0.8964825442 0.7650994199
C 1.7857631820 -0.9033287292 -0.3115972737
C 3.0258504642 -0.1324769022 0.1358343808
C 2.8361299486 1.3468000398 0.1453032415
O 1.8642061115 1.9455289033 -0.2475424726
H -4.5974884724 0.4029459639 1.1458024462
H -4.4306812768 0.2817451100 -0.6065369718
H -3.8488764472 -1.0215241126 0.4314912585
H -2.1050682352 0.4749381382 1.3660034884
H -2.7431709956 1.8263219529 0.4398553434
H -0.7664208819 1.0150887990 -0.6677418231
H -2.1724757958 0.7033888063 -1.6750833915
H -0.6580068576 -1.1841612746 -1.7494563240
H -2.1894878041 -1.6593701002 -1.0391796127
H -1.2487629337 -1.6632339121 1.2016382029
H -0.3012921440 -2.6848755998 0.1275963704
H 0.4505829540 0.1352562938 1.0141343529
H 1.0984656340 -1.3661059767 1.6694713387
H 2.0587154055 -1.9337733840 -0.5439628033
H 1.4018156489 -0.4365465156 -1.2193197110
H 3.3425703233 -0.4390712186 1.1354212734
H 3.8674333854 -0.3297510527 -0.5342344590
H 3.7025523630 1.9062675284 0.5464402404
28
CONF167
C -4.1719830586 0.2134828338 -1.0695738161
C -3.7087351296 0.3537913357 0.3763165251
C -2.1944866340 0.2124107397 0.5387837946
C -1.6868212181 -1.1938768021 0.2230505160
C -0.2223796434 -1.4040991209 0.6095187994
C 0.7480269640 -0.5763335359 -0.2304295647
C 2.2020402469 -0.9008813026 0.1087175926
C 3.1823414811 -0.0880154916 -0.7344378537
C 3.2560686852 1.3533496636 -0.3595542912
O 2.7016214714 1.8813641022 0.5735397807
H -5.2401461979 0.4037996718 -1.1431435871
H -3.6515901577 0.9269211559 -1.7048121186
H -3.9793795199 -0.7880015858 -1.4444145153
H -4.2090281300 -0.3973999978 0.9919083240
H -4.0071692649 1.3368954278 0.7482518248
H -1.9297865571 0.4561739762 1.5708347333
H -1.7003831057 0.9389608422 -0.1088201141
H -1.8043662155 -1.3982076557 -0.8424296960
H -2.2979610775 -1.9157160011 0.7707181427
H -0.0876332705 -1.1550476526 1.6646602732
H 0.0221548627 -2.4622083842 0.4858517738
H 0.5674400811 -0.7781731722 -1.2892345383
H 0.5738686474 0.4858901803 -0.0534008516
H 2.3788142061 -0.6837790982 1.1641134079
H 2.3824527258 -1.9645294197 -0.0548652190
H 4.1972154386 -0.4828935843 -0.6330600606
H 2.9284068738 -0.1471195284 -1.7953643675
H 3.9068697266 1.9529349102 -1.0245601552
28
CONF169
C -5.0325593517 0.1737434368 0.3334629519
C -3.6892483187 -0.4967374723 0.5964333553
C -2.5876038332 0.0644883189 -0.3000841166
C -1.2400919138 -0.6079035966 -0.0456910428
C -0.1423846971 -0.0327542316 -0.9391562086
C 1.1844989699 -0.7886228518 -0.8415856689
C 1.8383259952 -0.7808052293 0.5423447681
C 2.2602314100 0.6115810780 1.0073321559
C 3.4109773123 1.1820271320 0.2508183261
O 4.0720384006 0.6159982315 -0.5859383988
H -4.9666444330 1.2438367978 0.5176514141
H -5.3371375158 0.0233019864 -0.6999950037
H -5.8008563934 -0.2403005290 0.9819555251
H -3.7805641134 -1.5714723201 0.4236935446
H -3.4111628991 -0.3526728792 1.6428984515
H -2.4945986914 1.1391672819 -0.1254628221
H -2.8701539503 -0.0749590587 -1.3463686097
H -1.3316929906 -1.6800969452 -0.2341839887
H -0.9745503308 -0.4755293838 1.0043161089
H -0.4779908071 -0.0798479066 -1.9781930249
H 0.0044072417 1.0223456379 -0.7006772075
H 1.0131118862 -1.8280906402 -1.1304164320
H 1.8873464045 -0.3624334198 -1.5609695317
H 1.1564151651 -1.2140347436 1.2736764141
H 2.7288303389 -1.4115592151 0.4980515023
H 1.4322975903 1.3202333361 0.9514079650
H 2.5704847135 0.5825543257 2.0560220731
H 3.6547986372 2.2248852908 0.5314908872
28
CONF155
C -5.0216457961 -0.4004645188 0.3311390590
C -4.0180747344 -0.4770190005 -0.8143014137
C -2.6415191919 0.0856681288 -0.4545309074
C -1.8856310812 -0.7775399627 0.5542375634
C -0.5184299924 -0.2059608086 0.9342597956
C 0.5003677003 -0.2534680627 -0.2027996293
C 1.8775671412 0.2152503789 0.2595117388
C 2.9005176213 0.1816779922 -0.8723671253
C 4.2614736040 0.6190029759 -0.4532454463
O 4.5837787883 0.9743559289 0.6548343059
H -5.9987958120 -0.7431824757 -0.0010849197
H -4.7119690259 -1.0227881038 1.1663964591
H -5.1187208903 0.6244705014 0.6823949151
H -4.4129019146 0.0875759187 -1.6623112131
H -3.9091018456 -1.5163388440 -1.1321848768
H -2.7608243559 1.0929096148 -0.0485286301
H -2.0541698840 0.1634588513 -1.3709750003
H -1.7554067919 -1.7812938926 0.1428494045
H -2.4814334257 -0.8669868282 1.4639873268
H -0.6400048404 0.8270378217 1.2680221348
H -0.1241589572 -0.7782173290 1.7776408052
H 0.5722648118 -1.2774777968 -0.5759497334
H 0.1657972128 0.3810934581 -1.0246696470
H 1.8101547698 1.2333446505 0.6486437878
H 2.2303893315 -0.4180306130 1.0763251805
H 2.9926447587 -0.8274222848 -1.2829613792
H 2.5886439653 0.8264210292 -1.6983736431
H 5.0112892201 0.5985274859 -1.2666061801
28
CONF112
C -4.9146981063 0.2602047423 -0.3714132313
C -3.3906493666 0.2465356873 -0.4020870688
C -2.8125218228 -0.5786738598 0.7460812325
C -1.2864403766 -0.5223716308 0.8270703220
C -0.5978841615 -1.1960238851 -0.3593567286
C 0.9104883971 -1.3562742231 -0.1661705154
C 1.6537427673 -0.0229130286 -0.1358187584
C 3.1653388228 -0.2210749357 -0.0654775693
C 3.9272803599 1.0581829908 -0.0200377031
O 3.4524111984 2.1683906754 -0.0274221087
H -5.2739410710 0.6917615057 0.5603370367
H -5.3091027900 0.8480180960 -1.1967375935
H -5.3055194570 -0.7517171839 -0.4521876380
H -3.0171868878 1.2708080701 -0.3315318601
H -3.0574714514 -0.1650828946 -1.3559615765
H -3.1317297627 -1.6181786976 0.6384882218
H -3.2253024269 -0.2033856092 1.6859799221
H -0.9693657485 -1.0221127077 1.7457966629
H -0.9751341783 0.5217578581 0.8912038068
H -1.0375753347 -2.1862208268 -0.5013505056
H -0.7787372983 -0.6177925958 -1.2668498266
H 1.0987645725 -1.8980315409 0.7633603554
H 1.3030491281 -1.9593266163 -0.9882062239
H 1.4120069801 0.5548503206 -1.0304725560
H 1.3384037148 0.5663026111 0.7262436332
H 3.4403035934 -0.7973786365 0.8220411434
H 3.5258910435 -0.7877304455 -0.9281726240
H 5.0250671508 0.9274095178 0.0242274200
28
CONF102
C -4.7514128903 -0.3245470625 -0.9477719384
C -4.2632054441 -0.4122062370 0.4940280021
C -2.8621593308 0.1675776084 0.6933836461
C -1.7682344834 -0.6360406800 -0.0073828565
C -0.3741644498 -0.1077039409 0.3260622808
C 0.7163690508 -0.8969179535 -0.3967337013
C 2.1305855456 -0.5012001331 0.0247724027
C 2.5007794670 0.9219998550 -0.3843518517
C 3.9293663751 1.2538587511 -0.1240015662
O 4.7533129401 0.5173754207 0.3629698687
H -4.7136905930 0.7041168945 -1.2993977844
H -4.1398499611 -0.9372645870 -1.6044345639
H -5.7788065609 -0.6738732956 -1.0189079541
H -4.2692800878 -1.4560821320 0.8158435934
H -4.9591472153 0.1342384807 1.1349852183
H -2.6456141174 0.1929455642 1.7643896007
H -2.8448349319 1.1974375004 0.3291753263
H -1.9137650429 -0.5933803483 -1.0878756273
H -1.8405256728 -1.6828233691 0.2975085148
H -0.3217844445 0.9452740861 0.0445629684
H -0.2124037992 -0.1743963990 1.4045286201
H 0.5784266129 -1.9590087341 -0.1831714488
H 0.6074030464 -0.7621986413 -1.4750321840
H 2.2341532609 -0.5999433974 1.1071886464
H 2.8479418215 -1.1875256837 -0.4306525411
H 2.3179840276 1.0783815273 -1.4509426922
H 1.8958266194 1.6583728136 0.1494315810
H 4.2145417998 2.2805756197 -0.4218060560
28
CONF154
C -4.9278654651 0.3162976791 0.2424098469
C -3.4100541780 0.2909540750 0.3819061947
C -2.8177810670 -1.0108237614 -0.1545862499
C -1.3101651095 -1.1311582320 0.0713809549
C -0.5006537428 -0.1119077087 -0.7300094710
C 1.0029767238 -0.3888980621 -0.7117912168
C 1.6292765545 -0.2062224792 0.6702053362
C 3.1443441473 -0.3980504824 0.6340537666
C 3.8847137148 0.7266340125 -0.0062619020
O 3.4140698358 1.7712999261 -0.3862706403
H -5.2150849852 0.2173478346 -0.8021155655
H -5.3761652359 -0.5037987362 0.7990960447
H -5.3319241956 1.2514125100 0.6226028673
H -3.1411924259 0.4010685170 1.4349760458
H -2.9878958492 1.1383279637 -0.1604576812
H -3.0310667928 -1.0892047662 -1.2233810417
H -3.3129640830 -1.8491143402 0.3421136371
H -0.9950455257 -2.1355782285 -0.2216680990
H -1.1041005243 -1.0130388898 1.1363643829
H -0.8433954192 -0.1314380778 -1.7674584026
H -0.6780386717 0.8921656431 -0.3415517514
H 1.1856813466 -1.4077397439 -1.0624620349
H 1.4903839162 0.2977964367 -1.4078463735
H 1.4091081003 0.8006023072 1.0305981410
H 1.1975123695 -0.9237426516 1.3673765881
H 3.5455695566 -0.4889320240 1.6474863941
H 3.4095830705 -1.3186555561 0.1093234129
H 4.9718019172 0.5439469402 -0.1059919146
28
CONF158
C -3.8348252351 0.7865766361 -1.0998563477
C -3.7731843532 0.1905359777 0.3022131134
C -2.7124708157 -0.9015009068 0.4482433326
C -1.2825483898 -0.3772934699 0.3299042771
C -0.2569406442 -1.4811530703 0.5805559756
C 1.1856884954 -0.9750693906 0.5970140189
C 1.6706036900 -0.4952989211 -0.7705145150
C 3.1415769542 -0.0854586428 -0.7375721031
C 3.3945821086 1.1984948978 -0.0225469683
O 2.5592189800 1.9500865778 0.4182109549
H -2.9157904683 1.3144663728 -1.3397132170
H -3.9873190905 0.0031187370 -1.8388628861
H -4.6587230728 1.4926319236 -1.1726180817
H -4.7483228746 -0.2383206631 0.5451844364
H -3.5724355767 0.9846782509 1.0249815674
H -2.8792172899 -1.6685172757 -0.3117914831
H -2.8327282517 -1.3750414729 1.4260514003
H -1.1299203484 0.4256776479 1.0554042669
H -1.1315598715 0.0397274057 -0.6654526173
H -0.4723471603 -1.9449968606 1.5464124126
H -0.3614251360 -2.2526723512 -0.1859557396
H 1.2711090298 -0.1564378824 1.3149773287
H 1.8346820775 -1.7865329744 0.9365061749
H 1.5342565520 -1.2942189081 -1.5009276974
H 1.0795137395 0.3650839945 -1.0863912057
H 3.7552580395 -0.8586790635 -0.2695293025
H 3.5268966869 0.0486457924 -1.7523957131
H 4.4681036033 1.4497843140 0.0751764105
28
CONF153
C -3.9104610411 1.2195835922 -0.1223490431
C -3.7230349329 -0.1039868370 0.6109058256
C -2.6972174843 -1.0215391274 -0.0558394648
C -1.2698762725 -0.4806454265 0.0073028627
C -0.2639575645 -1.4849081658 -0.5525988477
C 1.1495486959 -0.9170364768 -0.6817347999
C 1.7951102428 -0.5993296984 0.6664195866
C 3.2349564835 -0.1161630891 0.5045307374
C 3.3502094198 1.2601375442 -0.0578473723
O 2.4401089471 2.0185894491 -0.2889291075
H -4.6993942573 1.8023136784 0.3473670439
H -2.9974791769 1.8087048643 -0.1031904591
H -4.1852272015 1.0430303465 -1.1599883089
H -4.6829018675 -0.6246543878 0.6481035703
H -3.4140415040 0.0929298981 1.6399924788
H -2.9796968428 -1.1773448244 -1.0997595920
H -2.7239703631 -1.9944194043 0.4415770559
H -1.0259086084 -0.2516053050 1.0460858946
H -1.1976139128 0.4456753975 -0.5652130216
H -0.2419658580 -2.3713853502 0.0857375165
H -0.6016051987 -1.8001393020 -1.5429752050
H 1.7707070857 -1.6463164402 -1.2082585691
H 1.1171801970 -0.0077842765 -1.2860176442
H 1.2231879192 0.1814882361 1.1690081159
H 1.7815745330 -1.4933851576 1.2915970308
H 3.7453063573 -0.0952531248 1.4716848528
H 3.8070006819 -0.7909833172 -0.1365588462
H 4.3931229429 1.5761370499 -0.2517012262
28
CONF68
C -4.9485784518 0.5295225076 -0.3960611432
C -4.0166110088 -0.5967773665 0.0355088350
C -2.5583082011 -0.1447718208 0.0755335202
C -1.6237820539 -1.2754240840 0.5015974934
C -0.1689802722 -0.8313011447 0.6627637836
C 0.4843996247 -0.4318313332 -0.6601311623
C 1.9942537846 -0.2281320085 -0.5432417577
C 2.3674093002 0.9658899331 0.3314889397
C 3.8262490803 1.2662293649 0.3235768705
O 4.6739466483 0.6606300531 -0.2873016063
H -4.6834329432 0.8835359734 -1.3898134396
H -5.9799626375 0.1861148674 -0.4177119934
H -4.8794842229 1.3666044531 0.2950911408
H -4.1144465168 -1.4346563870 -0.6586213701
H -4.3120674607 -0.9525670426 1.0253265858
H -2.4605697736 0.6876649953 0.7764157649
H -2.2743514090 0.2160832373 -0.9143087353
H -1.6767688883 -2.0830946132 -0.2322829485
H -1.9740940708 -1.6763878951 1.4560938872
H -0.1342455747 0.0046866146 1.3631948424
H 0.3992524897 -1.6570561234 1.0976696659
H 0.2989836958 -1.2196131474 -1.3933178399
H 0.0294817665 0.4855935605 -1.0362750625
H 2.4592004212 -1.1283852729 -0.1361309194
H 2.4157169074 -0.0708476709 -1.5386320750
H 1.8463391400 1.8676434064 -0.0016507034
H 2.0768718655 0.8014489461 1.3715374065
H 4.1106352541 2.1334707215 0.9491389600
28
CONF141
C -5.1749647806 -0.3311685474 0.1792019890
C -3.7409350272 -0.6992831677 -0.1836984906
C -2.7855399127 0.4709019889 0.0444176324
C -1.3493152753 0.1846038809 -0.3982506694
C -0.6286856888 -0.8109108181 0.5095965645
C 0.7830600421 -1.1511140787 0.0296245153
C 1.7568691733 0.0201541865 0.1351680310
C 3.1734117827 -0.3898047824 -0.2579842645
C 4.1527201737 0.7308762991 -0.1941660254
O 3.9078626673 1.8714054456 0.1177457788
H -5.8410360321 -1.1739194892 0.0107694259
H -5.2405204709 -0.0447757128 1.2265370967
H -5.5189562415 0.5052176971 -0.4254527981
H -3.6984561438 -0.9971075216 -1.2338771316
H -3.4308921627 -1.5547827348 0.4182802482
H -2.7896007529 0.7401960122 1.1032492962
H -3.1571670978 1.3332502690 -0.5148415872
H -0.7983893570 1.1267669841 -0.4032268924
H -1.3599585942 -0.2006358789 -1.4206537879
H -0.5776831931 -0.4020158348 1.5212749706
H -1.2057594392 -1.7359992959 0.5539773184
H 1.1639296584 -1.9781047552 0.6333956084
H 0.7353234325 -1.4909495459 -1.0072122237
H 1.4392227876 0.8383317024 -0.5124709212
H 1.7672075830 0.4010797826 1.1585532207
H 3.5438931937 -1.1884490176 0.3901518963
H 3.1935733533 -0.7827534298 -1.2781701853
H 5.1853730286 0.4426400297 -0.4676059102
28
CONF120
C -4.6352972403 0.0763980728 0.8759554775
C -4.1497360359 -0.2666073349 -0.5282113151
C -2.6343328527 -0.1352663421 -0.6882191981
C -1.8548923929 -1.1632576103 0.1310713053
C -0.3628686229 -1.1933353550 -0.2036608769
C 0.3718194108 0.0837074023 0.1992785136
C 1.8750869294 -0.0346730188 -0.0377750095
C 2.6148687984 1.2418302871 0.3521027949
C 4.0875773702 1.1600848147 0.1439011510
O 4.6927917181 0.2077072905 -0.2859113924
H -4.3054823441 1.0737800493 1.1581892782
H -5.7217521050 0.0502812625 0.9159510465
H -4.2526375183 -0.6333137523 1.6043387270
H -4.6341056822 0.4040152565 -1.2420522673
H -4.4520386181 -1.2865122472 -0.7771525463
H -2.3367541088 0.8732480567 -0.3965879686
H -2.3828819242 -0.2660934615 -1.7437120783
H -2.2740515106 -2.1537306798 -0.0627875056
H -1.9739848388 -0.9544468963 1.1953939191
H 0.0943435898 -2.0387607837 0.3163901731
H -0.2354334178 -1.3607103170 -1.2757381735
H -0.0148867881 0.9258625075 -0.3762366389
H 0.1862955735 0.2844838644 1.2567587798
H 2.2776658937 -0.8694300554 0.5399956005
H 2.0676784357 -0.2505664010 -1.0907854835
H 2.2490105753 2.0952800870 -0.2249826328
H 2.4456932414 1.4827061778 1.4050536775
H 4.6335064247 2.0809757894 0.4235298716
28
CONF98
C -4.8576497482 0.6546427035 0.0927875147
C -3.4938383643 0.0914403114 0.4758482309
C -2.9125399153 -0.7787217778 -0.6371456974
C -1.6000233081 -1.4633826552 -0.2536746196
C -0.4384496582 -0.4884711312 -0.0663986740
C 0.8734955555 -1.2278552374 0.1927055070
C 2.0370593860 -0.2953010253 0.5260628782
C 2.4513175050 0.5872432236 -0.6484529044
C 3.6762244223 1.3897951645 -0.3762046228
O 4.3133438306 1.3895508075 0.6497766408
H -5.2546875737 1.2742442284 0.8932686306
H -4.7794286398 1.2626094840 -0.8058917289
H -5.5629455378 -0.1508347686 -0.1002441414
H -3.5910528265 -0.5061294519 1.3851912650
H -2.8156723415 0.9185421566 0.6912230790
H -2.7545721847 -0.1659865528 -1.5278118031
H -3.6445235229 -1.5486399243 -0.8936336491
H -1.3356028819 -2.1740834310 -1.0405816672
H -1.7472640327 -2.0327312496 0.6670990691
H -0.3496401280 0.1261843125 -0.9636542551
H -0.6447190701 0.1719230124 0.7773459646
H 0.7285118449 -1.9116501714 1.0318071584
H 1.1299587664 -1.8307404531 -0.6811807507
H 1.7703305507 0.3397367621 1.3732861896
H 2.9007366069 -0.8906941450 0.8302965904
H 2.6479327648 -0.0183978849 -1.5372972636
H 1.6585673938 1.2894905144 -0.9159867292
H 3.9923639623 2.0294996705 -1.2218593769
28
CONF187
C -4.2199594938 0.2246399826 1.2331042872
C -4.0453187357 -0.6744750188 0.0140751313
C -2.8455093093 -0.2899781790 -0.8532424050
C -1.5006359285 -0.5387878029 -0.1728467070
C -0.3337428843 -0.2250437760 -1.1078324096
C 1.0328107884 -0.5687460595 -0.5141668662
C 1.4200376317 0.3241306238 0.6642384040
C 2.8281235822 0.0140791287 1.1689403658
C 3.9162810398 0.4874237050 0.2660738711
O 3.7820148939 1.1530177499 -0.7319780745
H -3.3831831872 0.1208700003 1.9183403834
H -4.2900616279 1.2665350748 0.9284909985
H -5.1297403720 -0.0386111920 1.7674989532
H -4.9484228426 -0.6154157974 -0.5979871934
H -3.9354494598 -1.7111615339 0.3403018484
H -2.9218470713 0.7653358012 -1.1256365690
H -2.8831096893 -0.8711701808 -1.7782384675
H -1.4433464908 -1.5854116997 0.1357277300
H -1.4280004645 0.0816661606 0.7199045907
H -0.4627174696 -0.7943344227 -2.0318592774
H -0.3543778178 0.8348249785 -1.3715624658
H 1.0325102076 -1.6138024461 -0.1946856697
H 1.7875724335 -0.4572709497 -1.2960810069
H 1.3798162244 1.3684509136 0.3480644708
H 0.7128027870 0.1842402354 1.4814089165
H 3.0050288251 0.4929961221 2.1362717528
H 2.9607813703 -1.0593210597 1.3227251648
H 4.9294038044 0.1860108886 0.5946709030
28
CONF134
C -3.8689057118 1.2582407813 -0.1265703164
C -3.9368394612 -0.2516070886 -0.3283142969
C -2.8331709807 -1.0096347853 0.4109930508
C -1.4383829631 -0.7563526516 -0.1581853762
C -0.3806203687 -1.5947797432 0.5571821073
C 1.0151748008 -1.4617645317 -0.0529158162
C 1.6209369555 -0.0719919408 0.1286447764
C 3.0585668802 -0.0134413232 -0.3802686897
C 3.6772790928 1.3353021619 -0.2491049693
O 3.1417040906 2.3222508678 0.1949033542
H -2.9584597389 1.6699475844 -0.5537601485
H -4.7163575104 1.7411018847 -0.6075178767
H -3.8921055061 1.5007622258 0.9336020913
H -3.8762144024 -0.4781258431 -1.3952052674
H -4.9045338550 -0.6100140777 0.0306145287
H -3.0464227344 -2.0801412112 0.3532841766
H -2.8488570338 -0.7274265994 1.4663620029
H -1.1927066098 0.3005566000 -0.0565806392
H -1.4355858063 -1.0032415724 -1.2226691775
H -0.3435666104 -1.3048967697 1.6097591072
H -0.6798074728 -2.6450639351 0.5154249091
H 1.6712354530 -2.1953721916 0.4212268579
H 0.9648929148 -1.6994818153 -1.1176880588
H 1.0311916179 0.6720923850 -0.4083113424
H 1.6059378944 0.2021734146 1.1856016078
H 3.6937612522 -0.7210183710 0.1592182713
H 3.1076926483 -0.2938381773 -1.4359890268
H 4.7234735416 1.3875884558 -0.6052998129
28
CONF189
C -4.2230712224 0.2266557197 1.2312392282
C -4.0444730897 -0.6751660705 0.0147697240
C -2.8447768434 -0.2890990599 -0.8520105192
C -1.4998167180 -0.5408253571 -0.1728007541
C -0.3332090882 -0.2229136393 -1.1067493593
C 1.0335503456 -0.5698626449 -0.5154847889
C 1.4214281499 0.3169014590 0.6673181410
C 2.8317193943 0.0074620981 1.1661330108
C 3.9159728584 0.4886835197 0.2626241772
O 3.7772882436 1.1634356810 -0.7287130531
H -5.1309370474 -0.0400443715 1.7671345572
H -3.3851506571 0.1296558978 1.9161238170
H -4.2991892027 1.2672791246 0.9236249705
H -4.9471475114 -0.6202926535 -0.5983184497
H -3.9318454355 -1.7107337965 0.3436603154
H -2.9204802280 0.7669946742 -1.1215120388
H -2.8830541920 -0.8677074452 -1.7785755933
H -1.4424887663 -1.5888259183 0.1310602963
H -1.4269891281 0.0755668807 0.7227658661
H -0.4627173429 -0.7876910281 -2.0334830222
H -0.3536102980 0.8382314972 -1.3653733789
H 1.0334857416 -1.6165726460 -0.2014655157
H 1.7878166555 -0.4542941993 -1.2972834135
H 1.3776739088 1.3630653188 0.3576645093
H 0.7166730990 0.1701257136 1.4854798476
H 3.0102701831 0.4822719402 2.1351852474
H 2.9674409673 -1.0662730971 1.3143577169
H 4.9305295144 0.1842313807 0.5838633654
28
CONF97
C -4.8559851108 0.6561139893 0.0935799170
C -3.4938770268 0.0890930626 0.4769697311
C -2.9115288758 -0.7765168585 -0.6389691267
C -1.5997208009 -1.4634359425 -0.2570017566
C -0.4388842685 -0.4892516596 -0.0614261475
C 0.8740483177 -1.2290434212 0.1912210878
C 2.0380886955 -0.2973748173 0.5254248319
C 2.4485132477 0.5896670849 -0.6470731778
C 3.6741212301 1.3913932356 -0.3756995058
O 4.3139715432 1.3881567408 0.6485088933
H -4.7751519678 1.2669438217 -0.8029350570
H -5.5625276831 -0.1473526021 -0.1032212401
H -5.2530580975 1.2738261859 0.8955121641
H -3.5937543660 -0.5126521758 1.3832642027
H -2.8149785837 0.9142037645 0.6975807438
H -2.7519815277 -0.1598340617 -1.5266285560
H -3.6435506766 -1.5448616922 -0.8999570306
H -1.3335606131 -2.1690068232 -1.0479103035
H -1.7485736593 -2.0386283840 0.6598383586
H -0.3507620322 0.1330137761 -0.9534895069
H -0.6455208138 0.1638112858 0.7878972686
H 0.7315729436 -1.9166083214 1.0276426132
H 1.1284963914 -1.8279596872 -0.6859871604
H 1.7731759612 0.3344153614 1.3756097729
H 2.9029179624 -0.8933816074 0.8251525948
H 2.6421600897 -0.0125181939 -1.5389260778
H 1.6548881935 1.2929858569 -0.9092686284
H 3.9883147037 2.0331182000 -1.2205276750
28
CONF115
C -5.1437025276 0.2407718210 -0.3426814794
C -4.0540768976 -0.7842131291 -0.0506202223
C -2.6849448493 -0.1274153823 0.1136047128
C -1.5932164488 -1.1550859371 0.4049620939
C -0.2208765401 -0.5327478108 0.6708178944
C 0.4084375613 0.0839661523 -0.5776223904
C 1.7733465904 0.7177839052 -0.3107431443
C 2.8560340871 -0.3048904075 0.0241600749
C 4.2170800448 0.2922622827 0.1215930621
O 4.4950569760 1.4578148958 -0.0288103248
H -5.2177245556 0.9595309876 0.4703732081
H -4.9207479802 0.7831683662 -1.2587859669
H -6.1081622946 -0.2476089321 -0.4585272491
H -4.0097251101 -1.5088527703 -0.8669230215
H -4.3051478477 -1.3298776818 0.8619795889
H -2.7285703685 0.5941223868 0.9330187509
H -2.4464453714 0.4206163867 -0.7994463616
H -1.5175972462 -1.8490859352 -0.4353315966
H -1.8894611328 -1.7338987201 1.2833442979
H -0.3176236199 0.2343210223 1.4424947296
H 0.4360969656 -1.3136024818 1.0574126625
H 0.5089910899 -0.6836761284 -1.3480674311
H -0.2537171502 0.8584166116 -0.9663573411
H 2.0908450949 1.2742600871 -1.1954559548
H 1.6932806657 1.4353828870 0.5082089958
H 2.6541461499 -0.8020556916 0.9755291098
H 2.8968799408 -1.0885728011 -0.7371317037
H 5.0138813852 -0.4396114271 0.3537987408
28
CONF202
C -4.4098035316 0.5404961068 -0.7057874976
C -3.3275534897 0.3771483595 0.3549349314
C -2.2137270866 -0.5590945274 -0.1092041387
C -1.1256976110 -0.7171712434 0.9505776051
C -0.0582088162 -1.7472050912 0.5767006210
C 0.7368454129 -1.4250716117 -0.6915881451
C 1.4645214964 -0.0813736163 -0.6709748768
C 2.5128411003 0.0131863256 0.4339462671
C 3.3202136395 1.2630217970 0.3709764279
O 3.1911338022 2.1534163649 -0.4347523441
H -4.8642067165 -0.4204585920 -0.9370289242
H -5.1889320368 1.2144965623 -0.3578825448
H -3.9868607461 0.9478932968 -1.6215564281
H -3.7742847972 -0.0173189221 1.2706750229
H -2.9008995935 1.3550867715 0.5907656885
H -1.7807295719 -0.1601858660 -1.0281372688
H -2.6397586106 -1.5388291496 -0.3387258983
H -1.5933544309 -1.0360648864 1.8858459480
H -0.6619608326 0.2532013521 1.1368089676
H 0.6292835597 -1.8567544013 1.4173286031
H -0.5453527282 -2.7143520527 0.4308258108
H 1.4705311983 -2.2202845425 -0.8435712664
H 0.0633584494 -1.4392067318 -1.5495251358
H 1.9623218643 0.0651023799 -1.6323960683
H 0.7505760631 0.7353303788 -0.5580413496
H 2.0499865031 -0.0201447784 1.4231508562
H 3.2069440957 -0.8301123591 0.3838886781
H 4.0963304283 1.3378142828 1.1562258992
28
CONF105
C -4.8145505362 -0.9168675395 0.6005516667
C -4.2463661823 -0.1505366830 -0.5888370747
C -2.8818443222 0.4791166053 -0.3050070724
C -1.7690238414 -0.5486049097 -0.1079833819
C -0.4044857516 0.1176159088 0.0588199729
C 0.7058602482 -0.9121747052 0.2609260480
C 2.0701478813 -0.2843449463 0.5422384333
C 2.6359717665 0.4770307530 -0.6536766330
C 4.0304543496 0.9544425080 -0.4388796150
O 4.6928701885 0.7906574529 0.5575149535
H -4.1976500713 -1.7785672160 0.8406612861
H -4.8661925431 -0.2739851871 1.4765383173
H -5.8177991624 -1.2711528948 0.3756204891
H -4.9451995138 0.6439600939 -0.8611316958
H -4.1610566447 -0.8227920043 -1.4455705147
H -2.9546785362 1.1078604979 0.5855235019
H -2.6163868732 1.1265869961 -1.1445227842
H -1.7405734679 -1.2174781995 -0.9715044568
H -1.9787253360 -1.1541531213 0.7751011919
H -0.1972865926 0.7208738541 -0.8266398384
H -0.4352159360 0.7882992418 0.9206485476
H 0.4398802961 -1.5512890871 1.1055568457
H 0.7746268635 -1.5491311472 -0.6235998751
H 1.9959385757 0.3935961669 1.3948622752
H 2.7786418379 -1.0692102837 0.8162309803
H 2.6407192853 -0.1537051219 -1.5468758544
H 2.0278366279 1.3528519063 -0.8909374625
H 4.4559603253 1.5032077117 -1.3003127221
28
CONF285
C -4.2735038126 0.4587654927 -0.3567985543
C -3.2387982489 0.2072655506 0.7342007133
C -2.6275793013 -1.1937030503 0.6741071188
C -1.8580300999 -1.5093898455 -0.6110277757
C -0.6867973623 -0.5727863846 -0.9128322969
C 0.4045347010 -0.6019085502 0.1549721370
C 1.6148326840 0.2314394401 -0.2583171604
C 2.7076772688 0.2159297874 0.8066299283
C 3.9121369682 1.0073857749 0.4299570286
O 4.0671022953 1.6186441183 -0.5998199236
H -4.7499834468 1.4252133154 -0.2088017866
H -3.8121349066 0.4568036940 -1.3407760162
H -5.0430808691 -0.3099389803 -0.3350882561
H -3.7188334022 0.3256558888 1.7088734029
H -2.4510717997 0.9591403579 0.6673547486
H -3.4314442938 -1.9276347058 0.7740075704
H -1.9642074170 -1.3226129518 1.5312640291
H -2.5483784837 -1.4852901731 -1.4560112019
H -1.4772127100 -2.5309908403 -0.5340198703
H -0.2493961630 -0.8732735527 -1.8684600044
H -1.0493248476 0.4493514707 -1.0327195775
H 0.0096093309 -0.2140929948 1.0951272634
H 0.7152682354 -1.6358520309 0.3212944876
H 2.0263721210 -0.1503949107 -1.1951565617
H 1.3088760934 1.2640542315 -0.4395747625
H 2.3350028267 0.6155891098 1.7535359502
H 3.0381141883 -0.8064623660 1.0090997458
H 4.7106307547 1.0043248156 1.1958444875
28
CONF116
C -5.1312422556 0.1197282936 0.5396235277
C -4.0530647984 -0.7871197120 -0.0420387263
C -2.6875986476 -0.1032888242 -0.0674217368
C -1.6071248362 -1.0140501303 -0.6470291461
C -0.2412601636 -0.3374653487 -0.7804130755
C 0.4212246398 -0.0548371259 0.5672444320
C 1.7843812920 0.6236545590 0.4350011069
C 2.8535718416 -0.2868204373 -0.1634936909
C 4.2135355280 0.3206282990 -0.1541644263
O 4.4995760353 1.4185705452 0.2596797054
H -5.2290313346 1.0247709657 -0.0557976535
H -6.0925177732 -0.3880640431 0.5534920243
H -4.8791318611 0.4064247286 1.5581688190
H -4.3317971106 -1.0758818846 -1.0581760684
H -3.9867957416 -1.7001215752 0.5541747675
H -2.4221097011 0.1885237400 0.9500259274
H -2.7525868210 0.8068751803 -0.6685057872
H -1.9296527344 -1.3457691047 -1.6371469306
H -1.5093693186 -1.9024772407 -0.0188370094
H 0.4041131757 -0.9910716670 -1.3696346527
H -0.3565724944 0.6000956810 -1.3289759801
H -0.2260965305 0.5981559798 1.1537041753
H 0.5338894310 -0.9914245898 1.1177278799
H 1.6920513067 1.5201536329 -0.1813198589
H 2.1234482397 0.9460321585 1.4220421577
H 2.9123859180 -1.2292652973 0.3878801983
H 2.6235684472 -0.5437592125 -1.2000729237
H 5.0010985756 -0.3330765882 -0.5746009006
28
CONF283
C -4.2657218923 0.4630762251 -0.3571544958
C -3.2331359951 0.2074815337 0.7348637221
C -2.6266094354 -1.1955231152 0.6748659050
C -1.8583296760 -1.5139912668 -0.6103489289
C -0.6873429950 -0.5780135096 -0.9150907793
C 0.4017844375 -0.6006845071 0.1550813929
C 1.6133556433 0.2296963235 -0.2604195220
C 2.7013474314 0.2237532368 0.8096069376
C 3.9077111523 1.0117880224 0.4319445641
O 4.0679429759 1.6140717109 -0.6022650635
H -5.0391953371 -0.3016850604 -0.3352260163
H -4.7373741861 1.4321036787 -0.2105719104
H -3.8035848456 0.4576703298 -1.3407490390
H -3.7138497181 0.3270730351 1.7090594171
H -2.4427662518 0.9566787099 0.6692283566
H -3.4327889941 -1.9268570531 0.7751114956
H -1.9634321707 -1.3264351868 1.5318826734
H -2.5493624785 -1.4917167392 -1.4548287582
H -1.4775348222 -2.5354553003 -0.5314029994
H -0.2479990922 -0.8831571600 -1.8683451517
H -1.0505440441 0.4431706169 -1.0409966376
H 0.0048496612 -0.2068097187 1.0918608221
H 0.7118514114 -1.6336329299 0.3286776370
H 2.0291245518 -0.1600005494 -1.1921224061
H 1.3077362854 1.2605699027 -0.4518652510
H 2.3240947476 0.6319456546 1.7510586926
H 3.0305776549 -0.7968290647 1.0228500564
H 4.7025098195 1.0149030422 1.2016992611
28
CONF104
C -4.8221338505 -0.8970645653 0.6097387254
C -4.2441894393 -0.1585640813 -0.5924424748
C -2.8791792331 0.4723572806 -0.3137716135
C -1.7675105064 -0.5546400881 -0.1064816347
C -0.4034075247 0.1122800784 0.0609236229
C 0.7088934214 -0.9166138702 0.2568306399
C 2.0721699254 -0.2878745715 0.5408842944
C 2.6306836770 0.4903730501 -0.6476119167
C 4.0268164476 0.9637273117 -0.4351640238
O 4.6970859564 0.7815451884 0.5526802372
H -5.8215915624 -1.2609785492 0.3832917510
H -4.2045364836 -1.7498125431 0.8782642560
H -4.8855787161 -0.2324091063 1.4685144745
H -4.9388748023 0.6319753765 -0.8860142744
H -4.1559007114 -0.8493980138 -1.4339369275
H -2.9519208243 1.1097910177 0.5705218365
H -2.6120760828 1.1112442096 -1.1592960761
H -1.7362422041 -1.2282855074 -0.9661818291
H -1.9804025970 -1.1553787281 0.7791243471
H -0.1984073438 0.7188975871 -0.8227195570
H -0.4335566244 0.7797670329 0.9252223819
H 0.4447893660 -1.5610760727 1.0979819773
H 0.7782434025 -1.5483948207 -0.6313682303
H 1.9989454669 0.3791186947 1.4021883790
H 2.7842629448 -1.0737650083 0.8023372980
H 2.6295911432 -0.1275119417 -1.5497634299
H 2.0215239598 1.3696881965 -0.8685428399
H 4.4455637657 1.5279961721 -1.2898731437
28
CONF343
C -4.1598636818 -1.1278114973 0.2798053626
C -3.1333299046 -0.2023843212 0.9229316537
C -2.5118430824 0.7872232697 -0.0642921662
C -1.7146785572 0.1498280357 -1.2053313592
C -0.5397981463 -0.7256886588 -0.7664419066
C 0.5300937701 0.0394439824 0.0091598844
C 1.7392579329 -0.8427461991 0.3161788070
C 2.8069946004 -0.0941400205 1.1113472665
C 3.5627237911 0.9130610661 0.3128315134
O 3.4724757547 1.0999803546 -0.8761742528
H -4.9282515861 -0.5481667964 -0.2272643396
H -3.6910145949 -1.7870232132 -0.4457385202
H -4.6388621411 -1.7436866489 1.0374190944
H -2.3498745962 -0.7989856711 1.3922746077
H -3.6230001316 0.3712568257 1.7138377307
H -1.8639544523 1.4718375369 0.4864233592
H -3.3122931979 1.3862495712 -0.5063382449
H -1.3311168305 0.9532841942 -1.8396342547
H -2.3872746913 -0.4525940342 -1.8185930196
H -0.9026366278 -1.5572597896 -0.1599391176
H -0.0823600020 -1.1524130979 -1.6627306556
H 0.8542422952 0.9007259605 -0.5794895275
H 0.1111797091 0.4087558953 0.9470529565
H 1.4129496240 -1.7155655990 0.8838743560
H 2.1768344309 -1.1905928817 -0.6218216693
H 2.3686725366 0.4173522333 1.9713056902
H 3.5516294574 -0.7904913585 1.5074227872
H 4.2739993582 1.5130811240 0.9122310533
28
CONF180
C -4.3561216417 -1.4833205477 -0.2328867831
C -4.0117715750 -0.0340888853 -0.5584351057
C -2.8863121363 0.5282679638 0.3112718931
C -1.5305116296 -0.1234773236 0.0449540231
C -0.4193182948 0.5514573303 0.8476062788
C 0.9364055122 -0.1432830365 0.7163926693
C 1.5340164287 -0.0355496896 -0.6861021573
C 2.9286871188 -0.6548270397 -0.7555418288
C 3.9882730959 0.1557056618 -0.0895330470
O 3.8553900238 1.2554353120 0.3901144341
H -3.5221558424 -2.1424546100 -0.4576748888
H -4.6037940572 -1.5863380272 0.8212884033
H -5.2122175541 -1.8077522796 -0.8197531023
H -4.9031020858 0.5805699901 -0.4121516839
H -3.7267719903 0.0438281196 -1.6100313038
H -3.1485165184 0.4019819317 1.3644427012
H -2.8005126175 1.6010764206 0.1206962614
H -1.3115415147 -0.0546365190 -1.0218257792
H -1.5700206795 -1.1797663207 0.3155675719
H -0.3211761030 1.5922765377 0.5304678425
H -0.7052130489 0.5566830858 1.9023915239
H 1.6300152289 0.3147779477 1.4253223937
H 0.8278845189 -1.1966756212 0.9861446566
H 0.8865156612 -0.5405322834 -1.4024944105
H 1.6009568043 1.0181043428 -0.9645977559
H 2.9364971477 -1.6517783664 -0.3089712915
H 3.2455938507 -0.7753678361 -1.7954115745
H 4.9796239842 -0.3364081218 -0.0722419584
28
CONF133
C -4.9307177409 -0.4174336934 -0.2916202523
C -3.4201063227 -0.5430337709 -0.4530975605
C -2.6765765513 0.5026491396 0.3761173793
C -1.1643200318 0.4925986967 0.1496438770
C -0.4919738277 -0.7877101267 0.6442468739
C 1.0326369686 -0.6835620504 0.6891810074
C 1.6627870867 -0.5371135181 -0.6952456164
C 3.1885546066 -0.5365934772 -0.6266422188
C 3.7668543160 0.7109964887 -0.0497559132
O 3.1589634423 1.7073713088 0.2579784054
H -5.4431554701 -1.1743070222 -0.8804374149
H -5.2131066891 -0.5433143927 0.7512601665
H -5.2696394800 0.5623841246 -0.6209284605
H -3.1567181633 -0.4191127579 -1.5059642882
H -3.1106470342 -1.5431326408 -0.1461677225
H -2.8853620491 0.3372979995 1.4359190445
H -3.0610326021 1.4922558435 0.1162859474
H -0.7252724641 1.3432641680 0.6772284270
H -0.9670615251 0.6268826922 -0.9153132068
H -0.8534305444 -1.0045931988 1.6523881454
H -0.7722107886 -1.6244635372 0.0020347756
H 1.3177532353 0.1726569015 1.3045474145
H 1.4290851729 -1.5841770203 1.1653922901
H 1.3300458698 -1.3592981567 -1.3306683543
H 1.3360833998 0.4007868172 -1.1458011626
H 3.5564400572 -1.3811743213 -0.0392947000
H 3.6190384896 -0.6395089490 -1.6268295309
H 4.8659955609 0.6755854470 0.0758875539
28
CONF203
C -4.8782559303 0.0188551011 0.7353948301
C -3.8214400234 0.0435450392 -0.3626732505
C -2.4554601826 -0.4053050476 0.1523561050
C -1.3974679375 -0.3835873716 -0.9491226572
C -0.0409726227 -0.9342276228 -0.5050410246
C 0.6818876333 -0.0188849195 0.4821579743
C 2.0326108620 -0.5737222011 0.9405879159
C 3.1012834644 -0.5453634884 -0.1507313321
C 3.5941429760 0.8225461132 -0.4801355128
O 3.2984504353 1.8479658794 0.0841410829
H -4.9873094420 -0.9866333517 1.1357035010
H -4.5964821906 0.6825134217 1.5498575182
H -5.8414196935 0.3408915040 0.3471795931
H -3.7389810152 1.0559509033 -0.7648342148
H -4.1324205507 -0.6117857600 -1.1796615139
H -2.5383150791 -1.4188783522 0.5519380889
H -2.1541242936 0.2517374198 0.9699237889
H -1.2699283025 0.6405923876 -1.3081461451
H -1.7598614842 -0.9832232961 -1.7880910815
H -0.1850124714 -1.9155923438 -0.0472132688
H 0.5760644090 -1.0694889055 -1.3954058495
H 0.8311825008 0.9645704797 0.0313499544
H 0.0558085348 0.1172992888 1.3649628167
H 2.3879273919 0.0266634281 1.7806253169
H 1.8993114897 -1.5995070574 1.2873568816
H 3.9785763526 -1.1193628520 0.1611416634
H 2.7442912699 -1.0063589335 -1.0733227816
H 4.3104659874 0.8454399446 -1.3239438345
28
CONF176
C -4.8491185561 -0.0749246058 -0.7662580263
C -3.4645604939 -0.5944673174 -0.3960771699
C -2.7447383454 0.3559822140 0.5592000791
C -1.4053257702 -0.1837858357 1.0628292706
C -0.3396317485 -0.2841753574 -0.0271332435
C 1.0019639787 -0.7357937917 0.5482603607
C 2.0812694490 -0.9462721696 -0.5156832185
C 2.5770244428 0.3592930782 -1.1348831626
C 3.4205981754 1.1799459370 -0.2196714844
O 3.8030315712 0.8641031994 0.8809913731
H -4.7744970351 0.8987862448 -1.2452875144
H -5.3439172389 -0.7585356139 -1.4518261175
H -5.4680709652 0.0285268924 0.1223325065
H -2.8763752992 -0.7191149213 -1.3063797554
H -3.5599343799 -1.5742794432 0.0773947127
H -3.3916473534 0.5376825367 1.4211391252
H -2.5845220409 1.3153665876 0.0613843523
H -1.5598535684 -1.1689512956 1.5092972392
H -1.0355370298 0.4781488078 1.8502501810
H -0.6567903394 -1.0000059594 -0.7871787488
H -0.2365428626 0.6921565753 -0.5044283937
H 1.3559612085 -0.0063875740 1.2800186332
H 0.8511522393 -1.6792111428 1.0777712679
H 2.9326191691 -1.4498356430 -0.0531486654
H 1.6891458876 -1.5925329956 -1.3023198524
H 3.1925867519 0.1539299429 -2.0154132273
H 1.7470172485 0.9798499936 -1.4769646971
H 3.7106242087 2.1611702068 -0.6424438586
28
CONF274
C -4.2609195703 0.4633084859 -0.9240464778
C -3.2827349439 -0.5173443867 -0.2871369140
C -2.2243117162 0.2052878135 0.5438802122
C -1.3025784856 -0.7395860299 1.3168735721
C -0.4774103233 -1.6945462388 0.4505067392
C 0.4350666578 -1.0159322852 -0.5720894197
C 1.5028793463 -0.1327771024 0.0683166136
C 2.4781053079 0.4135161285 -0.9708103884
C 3.5325110574 1.2903673256 -0.3890039140
O 3.6482564637 1.5851131569 0.7762590508
H -4.7795991432 1.0370331824 -0.1589031444
H -3.7340127849 1.1594738341 -1.5730624060
H -5.0022961179 -0.0659836980 -1.5177856351
H -2.8012817567 -1.0999299042 -1.0740178620
H -3.8309250751 -1.2113032484 0.3543407538
H -2.7298411873 0.8509710489 1.2669255089
H -1.6334963865 0.8524768564 -0.1064819081
H -1.9117146330 -1.3421098521 1.9956433957
H -0.6286227408 -0.1416595197 1.9334426319
H 0.1372197206 -2.3061988652 1.1157133641
H -1.1521132957 -2.3697493067 -0.0788049422
H 0.9280667344 -1.7973369889 -1.1555505770
H -0.1636598628 -0.4208445266 -1.2629601352
H 1.0396939065 0.7074078924 0.5874654515
H 2.0598292867 -0.7068677304 0.8120163424
H 2.9822204829 -0.3999784904 -1.4994465400
H 1.9501529838 0.9971732926 -1.7299390679
H 4.2514205422 1.6841755022 -1.1322887753
28
CONF322
C -4.3066039831 0.6463666171 -0.6508286621
C -3.2613731021 0.0141029740 0.2613631234
C -2.2675913139 -0.8363438835 -0.5270726463
C -1.2806834869 -1.5997520044 0.3579641924
C -0.3671055518 -0.7229821366 1.2188361541
C 0.4980109949 0.2713150500 0.4430709911
C 1.4721899893 -0.4036045323 -0.5214146258
C 2.4080731170 0.6084106110 -1.1799398574
C 3.4642534607 1.1411652718 -0.2722176857
O 3.6878580892 0.7814887087 0.8582027228
H -5.0038477605 1.2491855045 -0.0738858435
H -3.8300470650 1.2860775478 -1.3904081533
H -4.8698257729 -0.1219345396 -1.1761157243
H -3.7600295930 -0.6124887662 1.0046609996
H -2.7304128760 0.8041242739 0.7948183033
H -1.7246838237 -0.2001791143 -1.2277657453
H -2.8267773866 -1.5660925633 -1.1185545037
H -0.6674299161 -2.2423995366 -0.2762786804
H -1.8466814438 -2.2527882846 1.0272326973
H -0.9748134247 -0.1680422568 1.9359722284
H 0.2904003214 -1.3797788158 1.7939943358
H -0.1395871544 0.9653576296 -0.1074869155
H 1.0724862749 0.8545033812 1.1669890457
H 2.0706724216 -1.1327671885 0.0286928038
H 0.9174354270 -0.9298074847 -1.2980172011
H 2.9334002930 0.1548107963 -2.0253032524
H 1.8481927849 1.4573484609 -1.5792435014
H 4.0877545944 1.9321112489 -0.7318932340
28
CONF2
C -5.4118457096 -0.4021292825 -0.1784208239
C -4.0990013656 0.2291266560 0.2699903108
C -2.8914035728 -0.5926724515 -0.1752049318
C -1.5723622225 0.0341122190 0.2706608741
C -0.3662992406 -0.7906173810 -0.1728815361
C 0.9523570877 -0.1605386508 0.2692390379
C 2.1570747262 -0.9939316795 -0.1643204986
C 3.4716609927 -0.3408177197 0.2658206160
C 3.7061215784 0.9526220937 -0.4357748543
O 4.1515964290 1.9576830926 0.0650841982
H -6.2568589608 0.1986511550 0.1487618191
H -5.4452158683 -0.4811009696 -1.2627332736
H -5.5165957799 -1.4004029229 0.2405129432
H -4.0922304947 0.3181308898 1.3587039892
H -4.0207882318 1.2371528723 -0.1437211088
H -2.8990776383 -0.6816567568 -1.2640867068
H -2.9702282031 -1.6005269968 0.2389691582
H -1.5667720325 0.1260479158 1.3593277579
H -1.4931567515 1.0419833434 -0.1440967135
H -0.4439619576 -1.7959087327 0.2468644935
H -0.3757767263 -0.8846209760 -1.2610643853
H 1.0364019756 0.8443985657 -0.1536821236
H 0.9556874912 -0.0571353926 1.3565860703
H 2.0884562303 -1.9871408173 0.2806446128
H 2.1470049804 -1.1096099371 -1.2497308275
H 3.5048491327 -0.1843031564 1.3448981642
H 4.3048410737 -0.9929575727 -0.0115864688
H 3.4483344334 0.9392235136 -1.5112433006
28
CONF174
C -4.8228605749 -0.0641128673 0.8232037198
C -3.4536161715 -0.5964383031 0.4162095045
C -2.7405324313 0.3597767689 -0.5382435461
C -1.4111171463 -0.1822956712 -1.0652754487
C -0.3323202847 -0.3002976520 0.0100158115
C 1.0049952645 -0.7322092573 -0.5899512490
C 2.0938713081 -0.9736722634 0.4575040330
C 2.5791862472 0.3101108160 1.1284159255
C 3.3950613536 1.1864229431 0.2401578464
O 3.7682831253 0.9273377587 -0.8783088242
H -4.7244072012 0.8990740374 1.3189813486
H -5.4573388355 0.0654357434 -0.0508903368
H -5.3144194544 -0.7533894316 1.5053915980
H -3.5720137717 -1.5669615009 -0.0708915204
H -2.8487771158 -0.7437678240 1.3120538493
H -2.5673246794 1.3124019016 -0.0318722680
H -3.3977145921 0.5554907811 -1.3892525625
H -1.0476333048 0.4865147597 -1.8497920817
H -1.5768299180 -1.1614870063 -1.5206683263
H -0.2284975566 0.6666632943 0.5058457650
H -0.6372401408 -1.0333212838 0.7586267394
H 0.8514317419 -1.6593381424 -1.1467798843
H 1.3516077090 0.0200144330 -1.3018166544
H 1.7143919504 -1.6564287743 1.2191555699
H 2.9474306849 -1.4479822012 -0.0311395891
H 1.7453761760 0.8999686284 1.5127138285
H 3.2124601327 0.0737502692 1.9884147984
H 3.6732017629 2.1528552910 0.7030861474
28
CONF271
C -3.8712986622 0.5766870357 0.9971568104
C -3.4765218587 0.3665861730 -0.4603594471
C -2.9935730566 -1.0545952779 -0.7577384381
C -1.7355607694 -1.4837820174 -0.0001068957
C -0.5029858248 -0.6501966984 -0.3459167465
C 0.7510882113 -1.1994729737 0.3324251983
C 2.0278251554 -0.4619701733 -0.0686877090
C 2.0683673190 0.9801123131 0.4303192649
C 3.3757042857 1.6498288426 0.1830273279
O 4.3373768126 1.1560065172 -0.3552387085
H -4.3029311195 1.5658729666 1.1311754732
H -4.6086340638 -0.1632785527 1.3008753332
H -3.0086963484 0.4925844788 1.6524518996
H -2.7037179980 1.0854049269 -0.7366607244
H -4.3451362306 0.5664435741 -1.0926666112
H -2.8012056698 -1.1377494024 -1.8304356835
H -3.7981804432 -1.7527254115 -0.5134835072
H -1.5327882089 -2.5292353609 -0.2465798486
H -1.9170914622 -1.4349579110 1.0746189205
H -0.3584788761 -0.6548446410 -1.4289174529
H -0.6659584490 0.3804941338 -0.0315552510
H 0.6281481271 -1.1494156583 1.4166148311
H 0.8626253513 -2.2522216955 0.0637716616
H 2.8925683740 -0.9906614505 0.3385329662
H 2.1309060532 -0.4670278325 -1.1556642253
H 1.2985995546 1.5888078887 -0.0494413820
H 1.8780520847 1.0229595374 1.5062668214
H 3.4216309399 2.6945841167 0.5445063430
28
CONF192
C -4.5238190201 0.6067734921 -0.4576394547
C -3.0130993208 0.4193749066 -0.3778666161
C -2.6310641383 -0.6276530501 0.6670933637
C -1.1208455715 -0.7666319986 0.8647981639
C -0.4080987950 -1.3466550685 -0.3560536968
C 1.0521436791 -1.7136561692 -0.0828361213
C 1.9413640174 -0.5396167857 0.3264955744
C 2.0431267129 0.5373504955 -0.7499415576
C 3.0299028443 1.6034974915 -0.4215848473
O 3.6988497020 1.6693433230 0.5817684822
H -4.7788032569 1.3501457480 -1.2090739355
H -5.0095217839 -0.3299226799 -0.7219351872
H -4.9188597468 0.9373729127 0.5005514678
H -2.5442839552 1.3720390663 -0.1200298077
H -2.6410080239 0.1157638888 -1.3574566597
H -3.0493489153 -1.5946007522 0.3775124820
H -3.0831946219 -0.3469075355 1.6217730825
H -0.9405402575 -1.4234400405 1.7193852471
H -0.7075884729 0.2138851410 1.1083005521
H -0.9320392898 -2.2542048155 -0.6657864461
H -0.4600352144 -0.6416840820 -1.1856042307
H 1.0833979552 -2.4601011235 0.7137627523
H 1.4689235404 -2.1746153876 -0.9813634663
H 1.5729309775 -0.0907138846 1.2496104489
H 2.9461042757 -0.9141504827 0.5354961957
H 2.3370638352 0.1015622185 -1.7087018792
H 1.0810749966 1.0296430450 -0.9108642201
H 3.1230376786 2.3854601236 -1.1989938626
28
CONF263
C -4.1612704395 0.1942774641 -0.9582858671
C -3.5669179607 0.3871160063 0.4323401882
C -2.9087431058 -0.8771498545 0.9886698522
C -1.7115935326 -1.3893283354 0.1855552226
C -0.5368356812 -0.4131044945 0.1541929454
C 0.6808068742 -1.0300724037 -0.5324754523
C 1.8432475285 -0.0521925820 -0.6973120139
C 2.4716793681 0.3576538947 0.6320540647
C 3.7019587490 1.1815817158 0.4704045372
O 4.1952290312 1.5255605915 -0.5768904906
H -4.8504127676 -0.6474984307 -0.9635359506
H -4.7058787323 1.0853929650 -1.2618112984
H -3.3834871124 0.0077174786 -1.6938988245
H -4.3648852238 0.6823882324 1.1181297107
H -2.8420642144 1.2021965495 0.4084040518
H -3.6604000933 -1.6693384958 1.0314202366
H -2.5840523919 -0.6768490952 2.0128249960
H -2.0224321793 -1.6181766352 -0.8349246179
H -1.3753944150 -2.3254505280 0.6387114817
H -0.8231157067 0.4924502523 -0.3830924537
H -0.2863475911 -0.1333020599 1.1788864501
H 1.0166145060 -1.9002469722 0.0359120977
H 0.3822331726 -1.3810255553 -1.5227097712
H 2.6170190812 -0.5125439619 -1.3157562664
H 1.5024830915 0.8424197570 -1.2224290828
H 1.7728624080 0.9364368665 1.2402304854
H 2.7438612971 -0.5236937593 1.2192782302
H 4.1721927731 1.4805484809 1.4263293852
28
CONF272
C -3.9413747708 0.5258954541 -0.9914386996
C -3.4902032139 0.3780126729 0.4573658802
C -2.9832041168 -1.0263469072 0.7921904782
C -1.7348339032 -1.4652512723 0.0242630523
C -0.4966027285 -0.6309798560 0.3478585637
C 0.7443220958 -1.1787413106 -0.3556657677
C 2.0333345051 -0.4631196128 0.0455226015
C 2.0808419123 0.9911148696 -0.4161106230
C 3.4016312950 1.6380336057 -0.1791977472
O 4.3690392139 1.1170559272 0.3219554483
H -4.3835241465 1.5068100270 -1.1496013771
H -3.1040658912 0.4183663083 -1.6754892462
H -4.6854464535 -0.2291511353 -1.2358933042
H -4.3366732136 0.5961859402 1.1131935415
H -2.7146200772 1.1136932196 0.6751081067
H -3.7839570283 -1.7413365520 0.5872207769
H -2.7685908564 -1.0720278098 1.8629053529
H -1.9285006657 -1.4269078532 -1.0487118375
H -1.5303437481 -2.5084253810 0.2788210528
H -0.6657126453 0.4004813331 0.0391954124
H -0.3316458563 -0.6382495184 1.4279296759
H 0.8483159828 -2.2376953418 -0.1092148216
H 0.6096753512 -1.1059152474 -1.4371448060
H 2.1518956285 -0.4975145549 1.1303936374
H 2.8870924838 -0.9889882778 -0.3877731228
H 1.8693803886 1.0646217200 -1.4864579688
H 1.3284733434 1.5957250902 0.0952695823
H 3.4525326315 2.6923945925 -0.5108048531
28
CONF270
C -4.0529961021 0.3252877370 -0.9479909781
C -3.5185026245 0.3768681641 0.4787846438
C -2.9167522269 -0.9493783087 0.9479197389
C -1.7174742797 -1.4384032777 0.1334692215
C -0.5333351093 -0.4733309600 0.1559361800
C 0.6966587353 -1.0833115429 -0.5151743615
C 1.8443798271 -0.0897345808 -0.6886118975
C 2.4348596277 0.3794046500 0.6384145137
C 3.6361293801 1.2442111196 0.4722401746
O 4.1319162082 1.5787925200 -0.5769223563
H -3.2467754421 0.1835637361 -1.6627056201
H -4.7609546761 -0.4931184239 -1.0594555925
H -4.5617041639 1.2548376135 -1.1930065926
H -4.3390496328 0.6329666821 1.1535979559
H -2.7733223839 1.1697248033 0.5594932495
H -3.6940631616 -1.7167456260 0.9119495913
H -2.6113579801 -0.8399005420 1.9915728281
H -2.0212390809 -1.6175913272 -0.8990975363
H -1.3959849296 -2.3977176618 0.5470655331
H -0.7991921484 0.4471514905 -0.3663075255
H -0.3062790480 -0.2210043927 1.1931535548
H 1.0417664563 -1.9403659528 0.0672510920
H 0.4095029928 -1.4521208453 -1.5023138135
H 2.6397795507 -0.5553255332 -1.2748121316
H 1.4978765522 0.7796358171 -1.2512197897
H 1.7047900973 0.9499715398 1.2170223033
H 2.7278087134 -0.4740088722 1.2559040931
H 4.0796379405 1.5869055210 1.4262450030
28
CONF222
C -4.2320060176 0.8983411838 -0.4589842904
C -3.0844365826 0.2727428306 0.3255705161
C -2.6598581962 -1.0668514352 -0.2730805199
C -1.6105231535 -1.8050931105 0.5604142065
C -0.2791974934 -1.0676923318 0.7200713859
C 0.4360393783 -0.8287968942 -0.6090955138
C 1.8680619159 -0.3253414350 -0.4340618527
C 1.9358311217 1.0716355048 0.1776440281
C 3.3156061093 1.6317533124 0.2122576314
O 4.3168921776 1.0809538558 -0.1782297945
H -5.1023060691 0.2456023909 -0.4498068801
H -4.5158897807 1.8546871490 -0.0261198890
H -3.9403532905 1.0623938016 -1.4941799028
H -3.3938502085 0.1214593199 1.3623265763
H -2.2394887992 0.9626709564 0.3259879009
H -2.2840535043 -0.9088187715 -1.2852882864
H -3.5418412379 -1.7077873894 -0.3521412185
H -1.4206297306 -2.7756921611 0.0954259928
H -2.0235049453 -1.9927565414 1.5547815662
H -0.4535863384 -0.1191376719 1.2278054907
H 0.3671116176 -1.6716794655 1.3618630987
H 0.4654753568 -1.7686786976 -1.1645349669
H -0.1226554846 -0.1071653256 -1.2068437591
H 2.4308047711 -1.0183012936 0.1947918109
H 2.3637054706 -0.2995169119 -1.4071452198
H 1.3132697274 1.7719484656 -0.3860240767
H 1.5610994269 1.0733070514 1.2037617756
H 3.3777741017 2.6486603587 0.6440844944
28
CONF266
C -3.4468778406 1.2182915007 -0.3251732841
C -3.5825472128 -0.2956131120 -0.4443670694
C -2.9172831951 -1.0541153885 0.7058855545
C -1.4032649912 -0.8618159755 0.8125280636
C -0.6438892975 -1.3983253535 -0.3997898693
C 0.8720211644 -1.4125452151 -0.1994926877
C 1.4775412066 -0.0125562757 -0.1301984581
C 3.0000945030 -0.0599494390 -0.0374281220
C 3.6300861450 1.2884433717 0.0259705645
O 3.0472177136 2.3458798745 0.0117570259
H -4.0238801903 1.7105643881 -1.1045903563
H -3.8151432385 1.5579371970 0.6405392263
H -2.4102466869 1.5284648304 -0.4268330353
H -3.1625851691 -0.6250875918 -1.3958513271
H -4.6443320397 -0.5541947729 -0.4507490447
H -3.1285451903 -2.1198992788 0.5864767272
H -3.3743974836 -0.7312601416 1.6447246275
H -1.0568917951 -1.3901845069 1.7045132902
H -1.1820078078 0.1962242678 0.9520739126
H -0.9801092597 -2.4191593334 -0.5975972791
H -0.8768671764 -0.7950360201 -1.2786556396
H 1.1092016524 -1.9568862389 0.7172328541
H 1.3276855310 -1.9511944621 -1.0336515139
H 1.1937955008 0.5564377316 -1.0182870454
H 1.0914043237 0.5247598988 0.7370155230
H 3.3182043562 -0.6129876636 0.8503922337
H 3.4275950029 -0.5812561609 -0.8982466081
H 4.7344303608 1.2673121028 0.0903058898
28
CONF250
C -3.5741596021 1.3436359799 0.1769193435
C -3.7526340706 -0.1697332925 0.1204831617
C -2.5971446628 -0.8888175267 -0.5774182605
C -1.2857251341 -0.8273720970 0.2038634483
C -0.1829316763 -1.6255642169 -0.4888553422
C 1.1134374240 -1.7042611703 0.3203528105
C 1.7834060701 -0.3582489504 0.5962226383
C 2.2055993755 0.3722817851 -0.6754267307
C 3.0063828055 1.5993017794 -0.4082020464
O 3.3109415190 2.0273135699 0.6793222794
H -3.4299601740 1.7465846863 -0.8231981540
H -4.4554857882 1.8105077997 0.6104129143
H -2.7157680459 1.6145556863 0.7858867023
H -4.6767537832 -0.3939687045 -0.4175463177
H -3.8588979384 -0.5602545219 1.1350962586
H -2.4496190081 -0.4522331620 -1.5681467420
H -2.8732269780 -1.9369754373 -0.7178186335
H -1.4460968455 -1.2296076441 1.2070987536
H -0.9757744936 0.2125058944 0.3062373478
H -0.5403919067 -2.6453634607 -0.6521797507
H 0.0144604278 -1.1931459850 -1.4710361827
H 0.8987083730 -2.1817037132 1.2787506790
H 1.8182707990 -2.3447294663 -0.2149045743
H 1.1190637264 0.2839579613 1.1756388242
H 2.6725560840 -0.5268384649 1.2081896323
H 2.8066984832 -0.2790955055 -1.3157494071
H 1.3377606819 0.6775379090 -1.2647849795
H 3.3287964748 2.1342303488 -1.3216392744
28
CONF267
C -3.4457151981 1.2093240988 0.3611645634
C -3.5855525759 -0.3065421075 0.4456864191
C -2.9132444287 -1.0409318133 -0.7160850551
C -1.3987263581 -0.8460647455 -0.8099449149
C -0.6467750065 -1.3940032988 0.4019275165
C 0.8698442782 -1.4127520029 0.2076266090
C 1.4773496017 -0.0141713405 0.1284578467
C 3.0007383855 -0.0627142344 0.0521004658
C 3.6299166033 1.2848961226 -0.0341530400
O 3.0453432061 2.3413251184 -0.0557270964
H -3.8077396853 1.5716187700 -0.5987211417
H -4.0260114924 1.6851810543 1.1483515460
H -2.4089000803 1.5146198815 0.4755164436
H -4.6478999949 -0.5628874694 0.4385288025
H -3.1732513401 -0.6580769729 1.3926445341
H -3.3646534565 -0.6990163411 -1.6509439152
H -3.1249715482 -2.1089515204 -0.6197093195
H -1.1780483396 0.2137329764 -0.9365047216
H -1.0454832211 -1.3642927868 -1.7051931766
H -0.8810232122 -0.7953903131 1.2836661698
H -0.9875850611 -2.4148017687 0.5918308693
H 1.3211473589 -1.9451699578 1.0481415758
H 1.1096972587 -1.9652064081 -0.7035419228
H 1.1009998307 0.5129131782 -0.7492795537
H 1.1843474145 0.5654830211 1.0065956069
H 3.4204511741 -0.5664705328 0.9270118491
H 3.3275247179 -0.6329907265 -0.8217277764
H 4.7351709868 1.2642781072 -0.0803610808
28
CONF221
C -4.2616025864 0.8662488461 0.4967694525
C -3.1097503321 0.2694687446 -0.3038649051
C -2.6632009904 -1.0730236917 0.2716685795
C -1.6078225552 -1.7835554891 -0.5779606295
C -0.2851616256 -1.0285427342 -0.7268710803
C 0.4259566942 -0.7982639268 0.6062701655
C 1.8655498026 -0.3142400723 0.4387033004
C 1.9571401723 1.0755867244 -0.1858008218
C 3.3471782688 1.6090639065 -0.2294838108
O 4.3384206737 1.0441903198 0.1662961821
H -4.5627679708 1.8242706421 0.0797466855
H -5.1218111651 0.2004130814 0.4833358703
H -3.9659216911 1.0195806580 1.5324033569
H -2.2745014863 0.9710933830 -0.2982844853
H -3.4230237953 0.1299732572 -1.3411183621
H -3.5357615401 -1.7274022342 0.3447565151
H -2.2844490149 -0.9254880245 1.2843379492
H -2.0210628825 -1.9578503716 -1.5746586913
H -1.4056042044 -2.7602366485 -0.1312101989
H 0.3682176890 -1.6174962177 -1.3754303068
H -0.4698243638 -0.0757056869 -1.2229280286
H -0.1268084215 -0.0694814540 1.2008989540
H 0.4409780124 -1.7382201326 1.1621406856
H 2.3535784411 -0.2860627895 1.4155584418
H 2.4243493460 -1.0202162090 -0.1791814798
H 1.5793471699 1.0744883861 -1.2107765179
H 1.3494411062 1.7925632627 0.3730385347
H 3.4279602601 2.6195161028 -0.6730841993
28
CONF309
C -3.9359935292 1.0075300809 -0.1364080765
C -3.7468517339 -0.4095852725 0.3939060897
C -2.2768919559 -0.7882035647 0.5818424068
C -1.5169290163 -0.9069971765 -0.7382962811
C -0.1162612983 -1.5013084163 -0.5761524931
C 0.8364504247 -0.6814238189 0.2955998293
C 1.1161281252 0.7126397968 -0.2642036048
C 2.1731868813 1.4489988807 0.5566230904
C 3.5606912383 0.9400737012 0.3588461613
O 3.9111759582 0.1015534258 -0.4356817968
H -3.5210770643 1.1079807938 -1.1356382970
H -4.9940400272 1.2545536620 -0.1827462858
H -3.4449338764 1.7255364574 0.5167578019
H -4.2179914636 -1.1189379809 -0.2904200409
H -4.2543801790 -0.4951299142 1.3577747213
H -2.2263415110 -1.7485233021 1.1013106762
H -1.8016699115 -0.0398493087 1.2179616061
H -1.4437501484 0.0699689885 -1.2155266002
H -2.0837257954 -1.5570500732 -1.4098981732
H -0.2068123837 -2.5000133075 -0.1414591022
H 0.3307191421 -1.6148802683 -1.5668912316
H 0.4303047297 -0.5959236845 1.3050762685
H 1.7818771010 -1.2249834628 0.3645605473
H 1.4688505920 0.6196496041 -1.2934689371
H 0.1985972768 1.3006360948 -0.2664473179
H 2.1974564615 2.5098614407 0.2911591874
H 1.9449563273 1.3989082949 1.6238366772
H 4.3088254205 1.4206244082 1.0182072727
28
CONF264
C -3.4533526932 1.1914842261 0.3903353548
C -3.5980825768 -0.3256698407 0.4322589271
C -2.9118090165 -1.0307389494 -0.7393695972
C -1.3976439910 -0.8254212406 -0.8155874277
C -0.6552145151 -1.3761747531 0.4009192901
C 0.8623129880 -1.4037303981 0.2148582873
C 1.4783843237 -0.0092792263 0.1300731881
C 3.0017827169 -0.0684145927 0.0604709195
C 3.6411198768 1.2737795980 -0.0339442940
O 3.0647377055 2.3345443382 -0.0606855666
H -4.0453945572 1.6479575552 1.1802058962
H -2.4177955004 1.4905229966 0.5296903887
H -3.7985537255 1.5801723255 -0.5653675645
H -4.6607806762 -0.5790223551 0.4037882405
H -3.1993807248 -0.7036622178 1.3748455324
H -3.3568801324 -0.6713831670 -1.6707519705
H -3.1184342104 -2.1017007342 -0.6676927782
H -1.1823429652 0.2365803212 -0.9331670051
H -1.0319987750 -1.3356887922 -1.7104170491
H -0.8912423234 -0.7753097161 1.2806576720
H -1.0022364293 -2.3950170423 0.5900151699
H 1.3062808613 -1.9334312654 1.0609669233
H 1.1039762712 -1.9630426327 -0.6916590793
H 1.1089269227 0.5144910866 -0.7525472617
H 1.1853910686 0.5776997272 1.0033060431
H 3.4140088609 -0.5670079154 0.9419783278
H 3.3285473996 -0.6490171127 -0.8064464956
H 4.7461790336 1.2442706400 -0.0809314140
28
CONF313
C -4.2906324801 -0.7118554616 -0.9740961503
C -3.8541245796 -0.5620325038 0.4790020071
C -2.8196190222 0.5458781251 0.6886880857
C -1.4894821593 0.3425068284 -0.0400725346
C -0.7112962721 -0.8755990551 0.4537025115
C 0.6283869956 -1.0631063166 -0.2603138077
C 1.6566663131 0.0091850835 0.0920351959
C 3.0086220146 -0.2726117657 -0.5575643038
C 4.0356762683 0.7638663571 -0.2576174778
O 3.8714924589 1.7523711289 0.4161716536
H -4.6394911113 0.2412250442 -1.3658073633
H -3.4699026632 -1.0607188681 -1.5948750407
H -5.1017938029 -1.4321485509 -1.0507581004
H -3.4588102570 -1.5124752589 0.8405527932
H -4.7302319779 -0.3235784760 1.0871016730
H -2.6203791663 0.6368263094 1.7595053026
H -3.2540205383 1.4915984903 0.3545650107
H -0.8870088277 1.2396027712 0.1146718674
H -1.6676099419 0.2486379503 -1.1124456487
H -0.5379728675 -0.7807444494 1.5282215977
H -1.3113940834 -1.7725611595 0.2919986264
H 1.0338844835 -2.0394213876 0.0153366773
H 0.4614984101 -1.0652772107 -1.3397251777
H 1.3112737915 0.9905396885 -0.2358401178
H 1.7849748701 0.0557234606 1.1755420492
H 3.4074923550 -1.2359423028 -0.2286749470
H 2.9115176879 -0.3311332069 -1.6450837755
H 5.0226342663 0.5663064475 -0.7170361604
28
CONF209
C -5.1035273170 0.0333269927 0.0217703641
C -3.6645295910 -0.1648057711 0.4842237104
C -2.7626782702 -0.6133217622 -0.6643285170
C -1.3270267807 -0.9203199359 -0.2343317172
C -0.5388133213 0.3276845392 0.1610468854
C 0.8921401668 0.0222910697 0.6066956761
C 1.7954584908 -0.4428927462 -0.5350126321
C 3.2311857484 -0.6669605957 -0.0638273416
C 3.9842653457 0.5896513358 0.2137699514
O 3.6017789457 1.7159172518 0.0078762699
H -5.1509547745 0.7900242327 -0.7582473262
H -5.5074670213 -0.8945195454 -0.3773929867
H -5.7313054354 0.3536239384 0.8497530184
H -3.6386867478 -0.9171051879 1.2759481178
H -3.2937282843 0.7721935713 0.9026240178
H -2.7494521641 0.1604554926 -1.4355293984
H -3.1933812266 -1.5139327302 -1.1092275447
H -0.8214796583 -1.4149198779 -1.0652743105
H -1.3455784510 -1.6165051829 0.6074782379
H -0.5117884724 1.0216791454 -0.6821416836
H -1.0515754838 0.8281754186 0.9841405777
H 1.3215318751 0.9294120713 1.0382978452
H 0.8684694934 -0.7417623475 1.3876114896
H 1.4124170281 -1.3726706781 -0.9549595834
H 1.7955561705 0.3155693598 -1.3204788307
H 3.2548348968 -1.2807957810 0.8395132046
H 3.8061296410 -1.2051391797 -0.8228926881
H 4.9936796292 0.4193205843 0.6348425153
28
CONF360
C -3.4394190131 1.2811809925 0.1185730757
C -3.2725048963 -0.0747777927 0.7952175014
C -2.8690261735 -1.1887584086 -0.1730967270
C -1.5244021952 -0.9836179219 -0.8738753257
C -0.3365118999 -0.9464364770 0.0853447124
C 0.9879783031 -0.8645124683 -0.6718751576
C 2.2153812636 -0.9105092568 0.2406623416
C 2.3865938764 0.3500903254 1.0865631576
C 2.7978554894 1.5524758589 0.3070336406
O 3.0875880088 1.5848647767 -0.8644607250
H -4.1376720669 1.2073360866 -0.7123553036
H -3.8250369785 2.0107971594 0.8269149746
H -2.4901239050 1.6488963110 -0.2621360019
H -4.2219384340 -0.3569074543 1.2567909958
H -2.5351298444 0.0052216699 1.5953110438
H -3.6446015266 -1.2820393665 -0.9373669117
H -2.8355606560 -2.1317362399 0.3782894748
H -1.5470898712 -0.0615103235 -1.4571820482
H -1.3804637170 -1.8067284480 -1.5786124665
H -0.4371935291 -0.0848932917 0.7456964679
H -0.3443358891 -1.8482234963 0.7023053593
H 1.0448282090 -1.7051425173 -1.3672709547
H 1.0167150412 0.0507413949 -1.2671199497
H 2.1407596340 -1.7775330596 0.8987377437
H 3.1057217342 -1.0291323441 -0.3802813522
H 1.4717754273 0.5954450682 1.6287187658
H 3.1615861392 0.1973702289 1.8432488505
H 2.8401413871 2.4798848265 0.9102286409
28
CONF39
C -4.7514477754 0.8741381476 -0.0789099995
C -3.7442061720 -0.2686749948 -0.1263764852
C -2.3089508212 0.2305557355 0.0254822047
C -1.2946264755 -0.9096078363 -0.0174674695
C 0.1389835329 -0.4089824493 0.1431159969
C 1.1492792191 -1.5522889744 0.0892547531
C 2.5869198961 -1.1027802860 0.3509718502
C 3.0959987400 -0.1206559715 -0.7050865505
C 2.7946072664 1.3086379769 -0.3991130272
O 2.4938729124 1.7600653490 0.6794593802
H -4.5600050100 1.5837330374 -0.8807655426
H -5.7649277775 0.4960870380 -0.1882043302
H -4.6814405163 1.4033015852 0.8688420577
H -3.8417208782 -0.7993764504 -1.0761419630
H -3.9637330688 -0.9792557874 0.6736044749
H -2.2102368323 0.7641013545 0.9739931989
H -2.0877988300 0.9415387930 -0.7744584483
H -1.3876996140 -1.4395283537 -0.9685314715
H -1.5195535192 -1.6212056810 0.7803635743
H 0.3537179368 0.3149287336 -0.6473624338
H 0.2376369190 0.1175533034 1.0956422500
H 0.8769958255 -2.2963485386 0.8407586143
H 1.0929432981 -2.0360811211 -0.8889897036
H 2.6450067835 -0.6213381372 1.3293747341
H 3.2287673840 -1.9841755822 0.3672437947
H 4.1873741545 -0.1702258139 -0.7720884387
H 2.7080940343 -0.3662564780 -1.6945717399
H 2.9061537451 1.9870818111 -1.2666065007
28
CONF14
C -5.6657665056 -0.2648762363 0.0584492153
C -4.3175876793 -0.9749668088 0.0234969526
C -3.1538487604 0.0137670827 0.0103054010
C -1.8000357494 -0.6916417749 -0.0200943510
C -0.6373470066 0.2983288908 -0.0343546745
C 0.7154103897 -0.4099634719 -0.0622892991
C 1.8753953578 0.5832365040 -0.0794771030
C 3.2275484152 -0.1338045232 -0.0907977873
C 4.3699519460 0.8139325190 -0.2121134188
O 5.4179121373 0.7338937415 0.3833372888
H -5.7466328686 0.3546965032 0.9488199948
H -5.7823316641 0.3740444929 -0.8140955346
H -6.4786795622 -0.9868107373 0.0670565088
H -4.2634017451 -1.6068003808 -0.8659244146
H -4.2275260517 -1.6253077333 0.8965336598
H -3.2109445322 0.6479195859 0.8981890851
H -3.2432835367 0.6624631021 -0.8642791838
H -1.7451323643 -1.3267839717 -0.9072423951
H -1.7122633754 -1.3396670928 0.8550338704
H -0.7260946194 0.9449022380 -0.9102157171
H -0.6950629320 0.9340369579 0.8520355951
H 0.8017488048 -1.0537183322 0.8153017906
H 0.7693594907 -1.0467285239 -0.9476519134
H 1.7946801102 1.2195241483 -0.9627826159
H 1.8146716240 1.2250345504 0.8014860298
H 3.3574696537 -0.7544102456 0.7968891979
H 3.2744800297 -0.7852051246 -0.9691537611
H 4.2025537542 1.6411518289 -0.9264226736
28
CONF316
C -3.6343800301 0.7536894438 1.0105190859
C -3.5924072027 0.0816188802 -0.3573429533
C -2.8936699584 -1.2794649526 -0.3411666693
C -1.4221725203 -1.2413101618 0.0755734939
C -0.5490076956 -0.4295110816 -0.8802396930
C 0.9474792393 -0.5906037526 -0.6108628328
C 1.3828248370 0.0115358851 0.7247822932
C 2.8951249833 -0.0775953166 0.9205192138
C 3.6749711708 0.8726725088 0.0766594980
O 3.2234828761 1.7299947712 -0.6433218945
H -4.2330341849 1.6605130832 0.9654329849
H -4.0757205405 0.0870101519 1.7482059850
H -2.6361068821 1.0254377623 1.3428236600
H -3.0978635636 0.7411322631 -1.0721907186
H -4.6165893059 -0.0681961092 -0.7081027990
H -2.9651131150 -1.7168383529 -1.3403406115
H -3.4310871174 -1.9382522027 0.3457130750
H -1.0507979659 -2.2689304467 0.1014016967
H -1.3444110682 -0.8379230602 1.0848459677
H -0.7547890679 -0.7540703959 -1.9033949725
H -0.8049794555 0.6290180419 -0.8113740290
H 1.2058068972 -1.6522862477 -0.6331530849
H 1.4995723246 -0.0941659138 -1.4123343418
H 1.0843621403 1.0615118585 0.7561576831
H 0.8886585682 -0.5119287968 1.5429235158
H 3.1635236458 0.1437369820 1.9574515467
H 3.2571492434 -1.0872078284 0.7128409553
H 4.7713835341 0.7492464147 0.1653042491
28
CONF310
C -4.6911931787 0.4662791138 0.1579555424
C -3.5409594040 -0.4314866351 0.5983614524
C -2.3037970393 -0.2403896827 -0.2768346391
C -1.1464615482 -1.1292509236 0.1734502395
C 0.0571048893 -1.0846309614 -0.7703701119
C 0.7065269743 0.2924516352 -0.9321795664
C 1.1971974557 0.9388300563 0.3651954303
C 2.3067517010 0.1488181957 1.0563784619
C 3.6066353062 0.1593560419 0.3271182725
O 3.8696934154 0.7962969121 -0.6641926621
H -4.9728270559 0.2473093335 -0.8696009048
H -5.5608979061 0.3138835952 0.7923507196
H -4.4017800575 1.5131106987 0.2168130323
H -3.8584706181 -1.4758142073 0.5521766904
H -3.2855888017 -0.2098189233 1.6371030037
H -2.0032857670 0.8079868693 -0.2381400897
H -2.5569615160 -0.4756013034 -1.3135270930
H -1.4992295647 -2.1628043944 0.2226311413
H -0.8426424985 -0.8438261296 1.1818287191
H 0.8026500621 -1.8016108150 -0.4199515645
H -0.2640418303 -1.4189632183 -1.7600348478
H 1.5537527070 0.1956746362 -1.6150282439
H -0.0081031532 0.9695015716 -1.4027658648
H 1.5824168739 1.9317118134 0.1227986075
H 0.3622139810 1.0626650469 1.0544590627
H 2.5104874582 0.5689367663 2.0457728599
H 2.0163609925 -0.8907535110 1.2176054041
H 4.3801638188 -0.4848913716 0.7881229955
28
CONF366
C -3.4145126392 1.2938184286 0.0702880177
C -3.2498892404 -0.0352714178 0.7987234141
C -2.8601983919 -1.1891074349 -0.1277605364
C -1.5222680366 -1.0175484115 -0.8500827240
C -0.3239080074 -0.9513211890 0.0943263422
C 0.9912568143 -0.8781229059 -0.6798522892
C 2.2306606859 -0.9211895766 0.2163476471
C 2.3984241553 0.3277188411 1.0801729587
C 2.7651027458 1.5530573093 0.3144504068
O 3.0217022618 1.6150064742 -0.8635741566
H -3.7896914527 2.0532664616 0.7523863804
H -2.4662910155 1.6403567956 -0.3324082960
H -4.1201754573 1.1916503300 -0.7513037888
H -4.1971711236 -0.2933375894 1.2784236327
H -2.5059666306 0.0722484472 1.5894567356
H -3.6439393569 -1.3099883488 -0.8796948084
H -2.8244529068 -2.1091534313 0.4609366915
H -1.5466291668 -0.1171788767 -1.4663422274
H -1.3899791976 -1.8665722751 -1.5257458917
H -0.4226815162 -0.0747693108 0.7348375621
H -0.3195354025 -1.8384672630 0.7321909174
H 1.0380390024 -1.7236804957 -1.3700468737
H 1.0141758205 0.0330253920 -1.2814648922
H 2.1753525349 -1.7985742146 0.8625799995
H 3.1137444303 -1.0201440584 -0.4182876004
H 1.4933220255 0.5437965415 1.6503607863
H 3.1954449192 0.1765280101 1.8139382897
H 2.8057195960 2.4688332817 0.9354068890
28
CONF265
C -3.4185725750 1.3309776862 -0.0829218352
C -3.5643294591 -0.1122262875 0.3871405251
C -2.2224757871 -0.8262957727 0.5564954885
C -1.4895722187 -1.0407305240 -0.7669246033
C -0.2839272604 -1.9743698497 -0.6442144491
C 0.8210912329 -1.4787235433 0.2902717183
C 1.4357502808 -0.1542099781 -0.1552932440
C 2.6460461035 0.2198321119 0.6958090771
C 3.2545974840 1.5253787429 0.3157567641
O 2.8641562919 2.2640116651 -0.5559764805
H -2.7824096909 1.8909656327 0.5993637584
H -2.9804374941 1.3751478593 -1.0764609226
H -4.3912509797 1.8160497602 -0.1199588563
H -4.1800366762 -0.6647288882 -0.3264219591
H -4.0862456103 -0.1184838523 1.3471341711
H -2.4014712182 -1.7998970865 1.0199030996
H -1.5989648685 -0.2422677803 1.2355517731
H -1.1654415206 -0.0822023845 -1.1722506758
H -2.1868624261 -1.4805812186 -1.4847430935
H -0.6288067949 -2.9474387007 -0.2857590929
H 0.1403360746 -2.1218276492 -1.6404270166
H 0.4275152451 -1.3763180186 1.3025086567
H 1.6051140265 -2.2392822558 0.3182483638
H 1.7433506060 -0.2224642972 -1.2010129467
H 0.7003367510 0.6483581652 -0.0848088793
H 2.3726046404 0.2826685043 1.7527042706
H 3.4270258183 -0.5415867880 0.6218224020
H 4.1421671135 1.8006672290 0.9163050239
28
CONF307
C -3.9902877079 0.9724232321 -0.1214928538
C -3.7479147727 -0.4317868409 0.4211755160
C -2.2638579568 -0.7660932835 0.5803730551
C -1.5241024984 -0.8520880267 -0.7540223096
C -0.1260366123 -1.4615004191 -0.6298541382
C 0.8395838709 -0.6859730379 0.2676422468
C 1.1272877342 0.7276693598 -0.2360186701
C 2.1995788925 1.4180462648 0.6047907242
C 3.5802117030 0.9066957748 0.3686704972
O 3.9138649393 0.0992164154 -0.4643019140
H -3.5073487797 1.7129319469 0.5123639492
H -3.5994051160 1.0720809973 -1.1304073795
H -5.0560991468 1.1871931075 -0.1482564796
H -4.2128064878 -1.1626560583 -0.2446576394
H -4.2315157565 -0.5209464577 1.3969639953
H -2.1761728418 -1.7282117341 1.0915215268
H -1.7997605340 -0.0084139432 1.2138628061
H -1.4505025621 0.1378962818 -1.2037835305
H -2.1050205011 -1.4786884186 -1.4357695768
H -0.2199327706 -2.4769346492 -0.2365686142
H 0.3114537228 -1.5365257308 -1.6284753509
H 0.4408212838 -0.6389522984 1.2825745964
H 1.7809082417 -1.2395312603 0.3070729394
H 1.4695591981 0.6749212449 -1.2716433082
H 0.2154645268 1.3236693672 -0.2047861632
H 2.2302070987 2.4895943066 0.3874832300
H 1.9828345877 1.3213553999 1.6712290533
H 4.3403710729 1.3531896017 1.0381102812
28
CONF361
C -3.4409158523 1.2737484892 -0.1838794774
C -3.2746909654 -0.1117314401 -0.7980098491
C -2.8710547495 -1.1807453400 0.2196972283
C -1.5264142281 -0.9441826286 0.9104737207
C -0.3385536176 -0.9476088736 -0.0495207917
C 0.9859203444 -0.8362293241 0.7039909750
C 2.2134433619 -0.9178650556 -0.2059029488
C 2.3885972120 0.3123257970 -1.0947004229
C 2.8020597999 1.5399594920 -0.3566136382
O 3.0946243252 1.6111307426 0.8124647281
H -4.1424875136 1.2390617620 0.6467813964
H -2.4921795295 1.6560585246 0.1835905376
H -3.8220395316 1.9715672224 -0.9259157039
H -2.5376658659 -0.0686083630 -1.6012579397
H -4.2245038436 -0.4142402913 -1.2457451693
H -2.8375938844 -2.1477116571 -0.2884862380
H -3.6464655894 -1.2394689518 0.9875568013
H -1.3816683752 -1.7358887632 1.6501865113
H -1.5497033165 0.0022755013 1.4533838918
H -0.3472749336 -1.8740279102 -0.6288282412
H -0.4381238536 -0.1138893277 -0.7448487350
H 1.0145934489 0.1014819150 1.2632379586
H 1.0424985965 -1.6491131105 1.4316291871
H 3.1033048639 -1.0175924375 0.4190465341
H 2.1362944355 -1.8069423000 -0.8335904120
H 3.1648895327 0.1317103318 -1.8439802404
H 1.4753624402 0.5407205014 -1.6468865586
H 2.8434629923 2.4467891380 -0.9903954616
28
CONF315
C -3.6816981167 0.7326176772 -0.9879890299
C -3.6103189962 0.0609696212 0.3787863616
C -2.8867331226 -1.2867690415 0.3527346507
C -1.4193959804 -1.2201320636 -0.0751282241
C -0.5570729655 -0.3815937529 0.8677780563
C 0.9423689186 -0.5503718039 0.6204439386
C 1.3934118773 0.0053473263 -0.7298883015
C 2.9055211286 -0.1110816611 -0.9128843730
C 3.6947465686 0.8481957748 -0.0881817529
O 3.2525068656 1.7356005351 0.6003930919
H -4.2977686929 1.6273074835 -0.9354850872
H -2.6929111193 1.0240506353 -1.3317762096
H -4.1182701692 0.0575045068 -1.7208394839
H -4.6270701095 -0.1078686761 0.7422240152
H -3.1187410594 0.7289231896 1.0877743494
H -3.4171665578 -1.9537599539 -0.3316823152
H -2.9418128865 -1.7282020200 1.3511682811
H -1.3570696882 -0.8240557439 -1.0884539210
H -1.0268867682 -2.2399909576 -0.0945893244
H -0.8127528185 0.6744820095 0.7671265786
H -0.7736001324 -0.6782430295 1.8971482545
H 1.4859261214 -0.0273772553 1.4108301348
H 1.1999207080 -1.6107636220 0.6815814162
H 0.8967146046 -0.5361003099 -1.5346966255
H 1.1096727955 1.0578133039 -0.7949307093
H 3.2508348444 -1.1206827265 -0.6785335557
H 3.1836646772 0.0810052635 -1.9531624176
H 4.7894333169 0.7006516990 -0.1601479969
28
CONF275
C -4.5911228080 0.5625641942 -0.4441682592
C -3.3391176957 0.1527040625 0.3228688760
C -2.7095547648 -1.1090284678 -0.2641870722
C -1.5425006046 -1.6530449628 0.5620340376
C -0.3472257838 -0.7079900189 0.7068262677
C 0.3311850700 -0.3868464783 -0.6237134651
C 1.5374101187 0.5395220507 -0.4724248338
C 2.7178560359 -0.1192206394 0.2366278807
C 3.9418321901 0.7294712859 0.2489314334
O 4.0465605965 1.8338268914 -0.2284821747
H -4.3520381269 0.7535127514 -1.4881416921
H -5.3394406720 -0.2260676560 -0.4042096772
H -5.0216978405 1.4664321281 -0.0198433421
H -3.5973177420 -0.0268470975 1.3691717290
H -2.6211019346 0.9736516603 0.2917415980
H -2.3817339217 -0.9076406588 -1.2853983444
H -3.4756620915 -1.8868897899 -0.3189430660
H -1.1988761578 -2.5830070451 0.1023857915
H -1.9106633991 -1.8969322718 1.5617671520
H -0.6669520550 0.2201277191 1.1830959100
H 0.3718530191 -1.1876664979 1.3733544561
H 0.6440108857 -1.3163297165 -1.1046115324
H -0.3874551423 0.1015005178 -1.2828118054
H 1.8699827566 0.8622787541 -1.4616098060
H 1.2464939546 1.4372316444 0.0769731851
H 2.4782731033 -0.3533396047 1.2763935697
H 2.9804648317 -1.0648353756 -0.2455382313
H 4.8089593717 0.2614782239 0.7522917513
28
CONF273
C -4.5963010332 0.5403589670 0.4896634218
C -3.3522354284 0.1468909853 -0.2985918964
C -2.7049548140 -1.1148027316 0.2687889317
C -1.5413812292 -1.6392551006 -0.5746861369
C -0.3559175731 -0.6820912953 -0.7203685675
C 0.3211859592 -0.3552151735 0.6094608271
C 1.5388550796 0.5553522882 0.4532875614
C 2.7197015312 -0.1310068317 -0.2284215049
C 3.9524480692 0.7046775771 -0.2475599363
O 4.0629692056 1.8199211317 0.2025439661
H -5.3381656475 -0.2546011089 0.4551146535
H -4.3435226849 0.7260594052 1.5313593479
H -5.0410426092 1.4433105520 0.0782240493
H -2.6400567958 0.9730251790 -0.2707432868
H -3.6238527932 -0.0258739299 -1.3426404953
H -3.4632288541 -1.9003295357 0.3233172103
H -2.3681934880 -0.9209218007 1.2885257498
H -1.9166716474 -1.8760162065 -1.5734845715
H -1.1850420991 -2.5708087838 -0.1281078530
H 0.3666732432 -1.1541161193 -1.3885594139
H -0.6851436500 0.2432959653 -1.1955493920
H -0.3945717823 0.1478260655 1.2606046097
H 0.6217149647 -1.2832310721 1.1009277376
H 1.2640346377 1.4447682150 -0.1174337649
H 1.8640742697 0.8945011462 1.4394161894
H 2.9675089709 -1.0681310511 0.2775566203
H 2.4884224443 -0.3863542630 -1.2651084274
H 4.8205830683 0.2150580355 -0.7281283913
28
CONF293
C -3.6468466859 0.0682662161 1.3667092571
C -3.5980280382 -0.6443474490 0.0198219790
C -2.7603654484 0.0954530378 -1.0254157384
C -1.2835740373 0.2624371519 -0.6626217739
C -0.5485836163 -1.0682186200 -0.5097564682
C 0.9684778576 -0.9049155154 -0.4134923475
C 1.4123205074 -0.2002849706 0.8679400521
C 2.9339293942 -0.1356618174 0.9825677094
C 3.5710482893 0.8257082586 0.0373335818
O 2.9996029749 1.5854685313 -0.7063280787
H -4.3350565149 -0.4411413499 2.0371883525
H -2.6669149842 0.0840267928 1.8359416428
H -3.9857101501 1.0943695696 1.2411234106
H -4.6158632653 -0.7374439978 -0.3669638742
H -3.2085345055 -1.6543490354 0.1555418196
H -3.1924126616 1.0873631905 -1.1806374533
H -2.8310286231 -0.4454189184 -1.9726863084
H -1.2011962335 0.8417331917 0.2568501132
H -0.7995559407 0.8396512328 -1.4549174469
H -0.9049356075 -1.5886257512 0.3809552226
H -0.7765638851 -1.6944175471 -1.3759351905
H 1.4286347953 -1.8959068539 -0.4498968286
H 1.3263334019 -0.3385965845 -1.2761540417
H 1.0207983722 0.8176022736 0.8779333737
H 1.0084664275 -0.7339498760 1.7298457649
H 3.2315576918 0.1791849420 1.9868338719
H 3.3829179977 -1.1178388851 0.8167798245
H 4.6774338967 0.8133284750 0.0685425213
28
CONF287
C -3.4529981241 1.5149467362 0.0157465415
C -2.4858488551 0.4546589630 -0.4979566289
C -2.3123769442 -0.6804712980 0.5093473990
C -1.5004111144 -1.8601164958 -0.0289108932
C -0.0744530418 -1.5138137288 -0.4615166783
C 0.7732563954 -0.9494334529 0.6777585422
C 2.2625974163 -0.8637818709 0.3378570853
C 2.5730377217 0.1208819081 -0.7885449112
C 2.3259038474 1.5493335870 -0.4421168684
O 1.9990798732 1.9834438374 0.6358387433
H -3.5609102486 2.3187113791 -0.7086828629
H -4.4339866194 1.0816037959 0.1981307814
H -3.0881842221 1.9404133862 0.9482881842
H -1.5203009728 0.9248872164 -0.6938006007
H -2.8600720671 0.0477608277 -1.4403812511
H -3.3015063571 -1.0504788499 0.7916357533
H -1.8420739243 -0.2898488438 1.4134939806
H -2.0280510740 -2.2858741167 -0.8862780570
H -1.4566312875 -2.6293764911 0.7460309200
H 0.3977224817 -2.4264616173 -0.8341116526
H -0.1179109669 -0.8023306554 -1.2866934920
H 0.4182913210 0.0443125675 0.9530472327
H 0.6587547181 -1.5944036526 1.5520509054
H 2.8036284352 -0.5475405769 1.2321433493
H 2.6247031497 -1.8530909347 0.0529036107
H 3.6283475480 0.0529824442 -1.0685587074
H 2.0012501395 -0.1121216109 -1.6885821282
H 2.4818094805 2.2439991461 -1.2902993684
28
CONF432
C -4.3486082586 -0.7015686619 -0.0125319239
C -3.1781731060 -0.2254373834 -0.8654463660
C -2.1953375726 0.6616347029 -0.0989832543
C -1.4972224811 -0.0170659872 1.0818885544
C -0.6910454014 -1.2687762025 0.7274858242
C 0.4132620449 -1.0544502656 -0.3086176631
C 1.4890561815 -0.0755013709 0.1546054062
C 2.6446715000 0.0026049812 -0.8391497911
C 3.7077917951 0.9644926534 -0.4346867989
O 3.7058996986 1.6481016073 0.5607038078
H -4.8575988897 0.1461658298 0.4412812191
H -5.0651483254 -1.2439724300 -0.6251139151
H -4.0108344337 -1.3644194449 0.7796460433
H -3.5685404051 0.3510516309 -1.7079638472
H -2.6545549534 -1.0892721864 -1.2775387306
H -2.7369569059 1.5306760464 0.2838736579
H -1.4432081646 1.0340581882 -0.7970261245
H -2.2450028890 -0.2943470163 1.8273347127
H -0.8362257330 0.7135450536 1.5526050485
H -0.2385766365 -1.6493693167 1.6467804544
H -1.3693315989 -2.0399585643 0.3578657520
H 0.8805254612 -2.0216806287 -0.5094616643
H -0.0222986987 -0.7006951582 -1.2441777361
H 1.0667753538 0.9229357711 0.2765757238
H 1.8764722257 -0.3851951306 1.1276973375
H 3.1172950006 -0.9749639904 -0.9670588198
H 2.2874958032 0.3066341338 -1.8269272657
H 4.5556038566 1.0231472207 -1.1432758185
28
CONF302
C -4.5353797598 0.0830569910 -0.2325787471
C -3.3203219708 0.6292504717 0.5092313223
C -2.1763492019 -0.3799782643 0.6267718023
C -1.4856344244 -0.6594742879 -0.7066599853
C -0.3953955806 -1.7290465894 -0.6125239438
C 0.7835177385 -1.3794334890 0.2974699518
C 1.5533467999 -0.1442938047 -0.1631569421
C 2.8081041706 0.0822234140 0.6754958137
C 3.5772538352 1.2927382438 0.2727432196
O 3.2827933707 2.0593883205 -0.6125135951
H -5.3408605795 0.8136595042 -0.2242697127
H -4.2946755260 -0.1415052033 -1.2682145301
H -4.8927072551 -0.8273081257 0.2437075452
H -3.6294068930 0.9230067135 1.5153050190
H -2.9573773612 1.5258222597 0.0012254437
H -2.5638925469 -1.3158550323 1.0363745580
H -1.4451026139 0.0160539718 1.3334710049
H -1.0623246442 0.2680059476 -1.0964111407
H -2.2276260053 -1.0065957375 -1.4279585223
H -0.8474464395 -2.6559029735 -0.2510358873
H -0.0137298144 -1.9194576834 -1.6186475615
H 0.4297909588 -1.2291462402 1.3183984161
H 1.4639849941 -2.2342639061 0.3094823983
H 1.8405232983 -0.2570223555 -1.2108274346
H 0.9236391559 0.7436370213 -0.0926782154
H 2.5532585820 0.1936915414 1.7329785002
H 3.4840229779 -0.7744106868 0.6074561272
H 4.4938853691 1.4630308218 0.8686113492
28
CONF262
C -4.9456609462 0.0354189916 -0.3389132162
C -3.5983950773 -0.6015345040 -0.0179630214
C -2.5203806206 0.4550717274 0.2172703139
C -1.1715052740 -0.1279938045 0.6431850094
C -0.4642318000 -0.8852331628 -0.4793592586
C 0.8648468953 -1.5082833673 -0.0459258430
C 1.9378293262 -0.5101002976 0.3891196856
C 2.3527226372 0.4465883236 -0.7251800815
C 3.5143350325 1.3040639740 -0.3595893622
O 4.0993222202 1.2970844147 0.6970367673
H -5.2753677981 0.6665916079 0.4835433504
H -4.8723204638 0.6505443176 -1.2330953601
H -5.6999059538 -0.7291105122 -0.5087228322
H -3.3076039139 -1.2515444002 -0.8445682495
H -3.6945182536 -1.2215931096 0.8763067642
H -2.8684273221 1.1344069594 0.9995990717
H -2.3886041402 1.0438097897 -0.6937639290
H -1.3215377018 -0.7986218747 1.4925893249
H -0.5369156685 0.6938110123 0.9798022541
H -1.1104037939 -1.6936689761 -0.8255298216
H -0.3045152493 -0.2125531383 -1.3235099895
H 0.6753015985 -2.1908974277 0.7851632916
H 1.2555927871 -2.1020767649 -0.8755666807
H 1.5939942638 0.0670708643 1.2482291029
H 2.8216134035 -1.0638159893 0.7144022671
H 2.6233431181 -0.1051946648 -1.6295567691
H 1.5338697208 1.1160470527 -0.9989110815
H 3.8339575370 1.9951731420 -1.1625431216
28
CONF396
C -4.2005023204 -0.2481974448 -1.0611745740
C -3.7834477352 0.1235212165 0.3574059621
C -2.7640916535 -0.8443889203 0.9619213888
C -1.4292237015 -0.9334097189 0.2190685569
C -0.6446529767 0.3773529620 0.2288372834
C 0.7012769155 0.2802116710 -0.4912626212
C 1.7226930285 -0.5845102102 0.2468232397
C 3.0766268703 -0.5862267563 -0.4605656483
C 3.8404032346 0.6862068284 -0.3158853263
O 3.5314783452 1.6352448641 0.3631838891
H -5.0040011986 0.4019252892 -1.3995962785
H -3.3687536837 -0.1437586651 -1.7526086938
H -4.5529579831 -1.2767701527 -1.0960942360
H -4.6694810986 0.1219744971 0.9970912446
H -3.3813952151 1.1378557009 0.3650653241
H -3.2096654328 -1.8420799087 0.9894592637
H -2.5697095364 -0.5423210893 1.9941655050
H -1.6017643928 -1.2437902882 -0.8125917516
H -0.8349441870 -1.7116171987 0.7011137706
H -1.2356640158 1.1519982434 -0.2626653805
H -0.4783675508 0.6940175182 1.2611693683
H 0.5424400109 -0.1206267890 -1.4955402880
H 1.1123002302 1.2873269261 -0.5936079878
H 1.8531418899 -0.1958440443 1.2588497589
H 1.3592639080 -1.6095248742 0.3164897808
H 3.7197213911 -1.3753631292 -0.0606349772
H 2.9598436403 -0.7893649266 -1.5276437598
H 4.7829275695 0.7075866995 -0.8957953026
28
CONF301
C -4.5093568410 0.7063296376 -0.2422909789
C -3.0064308717 0.4673940875 -0.3292788468
C -2.6361339042 -0.9522408434 0.0971443233
C -1.1510173490 -1.2712647952 -0.0813791329
C -0.2511272781 -0.4757468409 0.8634716072
C 1.2048904619 -0.9463484825 0.8523576348
C 1.9075567891 -0.8510921073 -0.5043478188
C 1.9943756510 0.5735309313 -1.0485243823
C 2.8977633985 1.4700575033 -0.2729011433
O 3.6197483880 1.1484071478 0.6396211765
H -4.8588042844 0.5618359701 0.7776200365
H -4.7543394980 1.7204488155 -0.5486946151
H -5.0443296762 0.0132859012 -0.8878237312
H -2.4949907882 1.1894095653 0.3092207029
H -2.6738264380 0.6320187868 -1.3567353307
H -3.2189472941 -1.6577366001 -0.5004184877
H -2.9155392548 -1.0985542646 1.1432650143
H -0.8730713662 -1.0717940767 -1.1175166226
H -0.9973987864 -2.3366090844 0.1065691818
H -0.2969267304 0.5854135834 0.6168070282
H -0.6307667640 -0.5850578034 1.8824945925
H 1.7694952356 -0.3587024960 1.5797455462
H 1.2385817193 -1.9885566256 1.1782441638
H 2.9224312679 -1.2367740809 -0.3857646623
H 1.3920787856 -1.4805550034 -1.2295286719
H 2.3828355144 0.5627596242 -2.0712574506
H 1.0106127120 1.0431360319 -1.0991674276
H 2.8816805643 2.5224210664 -0.6167705119
28
CONF259
C -4.9478116594 0.0269013127 -0.3370473270
C -3.6002498821 -0.6026665998 -0.0029409902
C -2.5208691775 0.4585884961 0.2031228919
C -1.1693971422 -0.1154599782 0.6332769756
C -0.4634328673 -0.8853866277 -0.4814543063
C 0.8637764678 -1.5079509261 -0.0416687753
C 1.9365819987 -0.5090718509 0.3922201483
C 2.3536196278 0.4444684252 -0.7239784865
C 3.5152152756 1.3021877475 -0.3588548840
O 4.1013973883 1.2943737218 0.6970065797
H -5.7034107563 -0.7410218387 -0.4840237551
H -5.2743985647 0.6804482148 0.4690376955
H -4.8763386979 0.6175957681 -1.2476982297
H -3.3116613940 -1.2739328191 -0.8131773282
H -3.6948687719 -1.1996398719 0.9070596469
H -2.8645847968 1.1545861433 0.9725735577
H -2.3944882949 1.0275401300 -0.7211440087
H -1.3157161867 -0.7753932520 1.4916460713
H -0.5357120433 0.7119959706 0.9575249631
H -1.1115184693 -1.6953575155 -0.8204386639
H -0.3015139050 -0.2211905094 -1.3319111245
H 0.6713207406 -2.1867148796 0.7919074939
H 1.2560390013 -2.1057762343 -0.8676984176
H 1.5916755470 0.0705553002 1.2492560265
H 2.8195681195 -1.0624074477 0.7203030942
H 2.6261981343 -0.1100272853 -1.6261363127
H 1.5354680057 1.1131719097 -1.0014936709
H 3.8339067830 1.9939305348 -1.1616099127
28
CONF298
C -4.5390709831 0.6814296226 -0.2325358319
C -3.0353945334 0.4550669185 -0.3392930100
C -2.6462133404 -0.9550508662 0.1014482328
C -1.1588128646 -1.2597962253 -0.0829908248
C -0.2621297011 -0.4484999798 0.8516378511
C 1.1933254393 -0.9210480620 0.8549347655
C 1.9047184744 -0.8424037992 -0.4981759389
C 2.0174238592 0.5788171014 -1.0463007488
C 2.9410627130 1.4586511518 -0.2753460134
O 3.6551303458 1.1254410474 0.6392634360
H -4.7987322452 1.6882479081 -0.5508088845
H -5.0773657960 -0.0268064673 -0.8585831783
H -4.8713089386 0.5495234598 0.7948581224
H -2.5210028579 1.1905440963 0.2813147567
H -2.7196794110 0.6080918451 -1.3738779745
H -3.2254387335 -1.6741852264 -0.4832269883
H -2.9166870309 -1.0916291521 1.1512828838
H -0.8878303431 -1.0654297077 -1.1219711890
H -0.9938417918 -2.3221166014 0.1122104156
H -0.3067361467 0.6083229105 0.5866484812
H -0.6459526246 -0.5404295067 1.8708091336
H 1.7549162590 -0.3266516196 1.5791727244
H 1.2226341485 -1.9595377640 1.1928976718
H 2.9129567103 -1.2431327366 -0.3728847423
H 1.3833359639 -1.4664514996 -1.2237258962
H 2.4012412965 0.5588963741 -2.0705971255
H 1.0428893517 1.0677887210 -1.0933819989
H 2.9480951801 2.5095539746 -0.6237678802
28
CONF289
C -3.4592557753 1.5157309074 -0.0012925676
C -2.5082215250 0.4361392798 0.5022241880
C -2.3039437517 -0.6621936161 -0.5395584135
C -1.5106137322 -1.8619349218 -0.0181001254
C -0.0932935041 -1.5367090710 0.4572338938
C 0.7915548590 -0.9683380227 -0.6511668426
C 2.2658894817 -0.8673159561 -0.2547876855
C 2.5268215332 0.1637727861 0.8421517143
C 2.3245781176 1.5768561783 0.4127777685
O 2.0701900665 1.9606958543 -0.7030925109
H -3.0671984020 1.9736670068 -0.9069777078
H -4.4347148561 1.0907744650 -0.2276423944
H -3.5880026957 2.2931541584 0.7480499699
H -2.9109878515 -0.0044459983 1.4173212441
H -1.5491179534 0.8976991818 0.7443799757
H -1.8055268714 -0.2405290290 -1.4142109070
H -3.2840084518 -1.0199749457 -0.8656812261
H -1.4525742496 -2.6086986434 -0.8138304771
H -2.0605310844 -2.3091479653 0.8139746147
H -0.1511701127 -0.8365414107 1.2910455739
H 0.3592299584 -2.4591379212 0.8300596594
H 0.7149098858 -1.6178156603 -1.5262634556
H 0.4389784614 0.0211658827 -0.9444541819
H 2.6164584320 -1.8438711773 0.0832488994
H 2.8436025519 -0.5844701057 -1.1372620453
H 1.8982093760 -0.0169992253 1.7158946717
H 3.5621336457 0.0948423184 1.1884455443
H 2.4424343752 2.3109143456 1.2333206946
28
CONF383
C -4.6342599071 -0.7850561915 0.0557812747
C -3.5364083992 -0.4253961382 -0.9393330027
C -2.3631740709 0.3248814011 -0.3057688304
C -1.5409885984 -0.5407315859 0.6472096406
C -0.3802299991 0.2133740472 1.3003828718
C 0.7168676867 0.6811601259 0.3424514251
C 1.4591444794 -0.4717610435 -0.3319626509
C 2.6169546504 0.0283352175 -1.1937507537
C 3.7874268897 0.5241468402 -0.4143729229
O 3.9273437536 0.4702943555 0.7834106276
H -4.9873524812 0.1062104036 0.5699099543
H -5.4764138791 -1.2391717432 -0.4611747895
H -4.2738967281 -1.4913057571 0.7988875173
H -3.9672351107 0.2035278680 -1.7221205656
H -3.1660226940 -1.3365239187 -1.4146278507
H -2.7427550660 1.1950083502 0.2352880211
H -1.7191184983 0.6882657525 -1.1082538922
H -1.1633163411 -1.4125405777 0.1106789313
H -2.1888187604 -0.9052470698 1.4463028857
H -0.7817360555 1.0877673989 1.8185684706
H 0.0744809377 -0.4334403342 2.0547547500
H 0.2897592948 1.3364416127 -0.4187695173
H 1.4371103970 1.2687242014 0.9167995958
H 1.8526363933 -1.1403841226 0.4365019104
H 0.7711599953 -1.0369582655 -0.9603545456
H 2.9952791263 -0.7741004419 -1.8336522725
H 2.2909692665 0.8311514042 -1.8591546591
H 4.5864884896 0.9621912064 -1.0428725820
28
CONF261
C -4.9476187796 -0.0037510876 0.3934859178
C -3.6017469108 -0.6054235541 0.0055490521
C -2.5266785325 0.4702914238 -0.1390270173
C -1.1769106261 -0.0710156245 -0.6147628477
C -0.4579680728 -0.9029846256 0.4458051958
C 0.8607656284 -1.5038465372 -0.0464030275
C 1.9295156601 -0.4853554790 -0.4430187660
C 2.3641810849 0.4085280178 0.7150521713
C 3.5259998584 1.2782421748 0.3802549329
O 4.0993802765 1.3218809940 -0.6817931007
H -5.7006942804 -0.7817974588 0.4924552018
H -4.8698813969 0.5220966740 1.3425435053
H -5.2818099140 0.7036247153 -0.3624359939
H -3.7034913793 -1.1403695399 -0.9415272650
H -3.3040769913 -1.3287373058 0.7662111119
H -2.3950908742 0.9788125871 0.8190973279
H -2.8778645765 1.2133413680 -0.8595439587
H -0.5491376179 0.7768799020 -0.8946787054
H -1.3286754020 -0.6792186888 -1.5095979180
H -0.2819545049 -0.2870570138 1.3291330446
H -1.1038627112 -1.7287615206 0.7489000687
H 1.2637933442 -2.1455526915 0.7406024881
H 0.6539891733 -2.1368993172 -0.9119025105
H 2.8066565706 -1.0223384597 -0.8115076469
H 1.5739071456 0.1382369430 -1.2640769638
H 1.5527584257 1.0661769502 1.0355031420
H 2.6441808737 -0.1920900033 1.5848499237
H 3.8581333234 1.9262296959 1.2134738172
28
CONF365
C -4.4894088965 -0.2742650383 -0.9734734282
C -3.2359169008 -0.7568942196 -0.2526919763
C -2.5557868773 0.3774215165 0.5115881902
C -1.3909907299 -0.0871886621 1.3879098233
C -0.2249323125 -0.7318213698 0.6352452937
C 0.4848717124 0.2332829813 -0.3126424813
C 1.6692685301 -0.4030385460 -1.0439467589
C 2.8653521362 -0.6799239528 -0.1348543768
C 3.5870428590 0.5473911341 0.3072220824
O 3.3728803046 1.6777362153 -0.0584804432
H -4.2418724671 0.5164558604 -1.6784132086
H -4.9542138943 -1.0903142489 -1.5215139044
H -5.2127111440 0.1177211626 -0.2616677671
H -2.5450275468 -1.1744777770 -0.9864702033
H -3.5034251690 -1.5521427646 0.4469964229
H -3.2960625522 0.8538266348 1.1597363068
H -2.2111382305 1.1350710812 -0.1942511166
H -1.7722166787 -0.8079454584 2.1159402769
H -1.0123033938 0.7739512679 1.9446554919
H 0.4831580323 -1.0983327286 1.3812790872
H -0.5827669843 -1.5948595484 0.0716689856
H -0.2253852908 0.5823046688 -1.0633742557
H 0.8314964177 1.1078531104 0.2422114979
H 1.3452818085 -1.3367141073 -1.5062873026
H 1.9935798136 0.2750670044 -1.8360854273
H 2.5714111984 -1.2379351531 0.7558492088
H 3.6033639185 -1.2970135506 -0.6554826238
H 4.4001687160 0.3479592715 1.0315897852
28
CONF373
C -3.8746909397 0.9416098916 0.5289991888
C -3.6560989049 -0.5277101757 0.1859642766
C -2.6548334212 -0.7398175970 -0.9515341518
C -1.2273603832 -0.2716826934 -0.6594641082
C -0.5364280177 -1.0865675349 0.4321282618
C 0.8637119516 -0.5726137223 0.7695843511
C 1.8712310170 -0.7705443493 -0.3622314832
C 3.2733857768 -0.3219811494 0.0447580684
C 3.4286806156 1.1578994327 0.1437018931
O 2.6042446709 1.9868704037 -0.1563564439
H -4.6643281654 1.0418240227 1.2700582598
H -2.9710146453 1.3868632472 0.9366795100
H -4.1633705912 1.5001932480 -0.3587874681
H -4.6106811487 -0.9632811928 -0.1193952376
H -3.3261756990 -1.0635794519 1.0772707805
H -3.0185222427 -0.2067183167 -1.8336065757
H -2.6288076325 -1.8042995478 -1.1979385670
H -1.2321560756 0.7817034008 -0.3747854566
H -0.6546412116 -0.3540367926 -1.5850245240
H -1.1380066482 -1.0484546767 1.3417872071
H -0.4741779484 -2.1314167106 0.1184038757
H 0.8059333462 0.4901861641 1.0150747600
H 1.2230390163 -1.1011044936 1.6566102796
H 1.8957309807 -1.8248603159 -0.6419335474
H 1.5624640153 -0.1903618738 -1.2325611184
H 3.5627252450 -0.7561441041 1.0046387463
H 4.0130701245 -0.6588557419 -0.6871560372
H 4.4190898402 1.4774655898 0.5207581379
28
CONF473
C -4.3056112968 0.0566408492 -0.2053389999
C -3.1494117431 0.1130051377 0.7866425914
C -2.1713988231 -1.0541735038 0.6408407737
C -1.4552759618 -1.1317393847 -0.7095532107
C -0.6315701643 0.1041508697 -1.0800429605
C 0.4584879134 0.4820784480 -0.0761831499
C 1.5227620467 -0.6010275128 0.0939243663
C 2.6575828748 -0.1383594890 1.0058707697
C 3.5745010085 0.8563422206 0.3786999422
O 3.5552540350 1.2251673064 -0.7705935519
H -3.9516771287 0.1823873906 -1.2251944666
H -4.8209880820 -0.8988531267 -0.1342642673
H -5.0209054270 0.8487975807 0.0041674617
H -3.5553849488 0.0905366371 1.8011773196
H -2.6177407215 1.0586834972 0.6702128253
H -2.7212342758 -1.9878591669 0.7853112342
H -1.4300643068 -0.9889808896 1.4392550089
H -2.1938399615 -1.2941969176 -1.4967857997
H -0.8039557813 -2.0077911740 -0.7006910174
H -0.1620890770 -0.0783840812 -2.0501288865
H -1.2998957162 0.9586080597 -1.2025043004
H 0.9441883753 1.3936840950 -0.4331874612
H 0.0076330100 0.7060121011 0.8923919815
H 1.0719896055 -1.4983448313 0.5174382275
H 1.9359181422 -0.8523499253 -0.8851683085
H 2.2658990376 0.2980559286 1.9276455303
H 3.2839739788 -0.9848510318 1.3019361219
H 4.3403010826 1.2543601764 1.0718787717
28
CONF347
C -3.3845153856 1.3258291219 0.0004064339
C -3.5646799529 -0.1819403849 0.1399418856
C -2.2532121410 -0.9206747877 0.4107837171
C -1.2790648408 -0.8606855709 -0.7647520853
C -0.0871276351 -1.8060229149 -0.6038982249
C 0.8025890473 -1.5212234163 0.6090666446
C 1.4122998923 -0.1202714485 0.6444561134
C 2.3298662266 0.1616452915 -0.5419916776
C 3.0696013907 1.4485727673 -0.4197155377
O 2.9873166090 2.2326097856 0.4952278264
H -4.3514350959 1.8138685828 -0.0975957553
H -2.8837452643 1.7314727106 0.8770019957
H -2.7929528587 1.5687250833 -0.8782325739
H -4.0218946382 -0.5777267369 -0.7700220803
H -4.2516340898 -0.3790710966 0.9664781925
H -2.4813888439 -1.9680277314 0.6245150437
H -1.7870275319 -0.4931000844 1.3002544502
H -0.9227780709 0.1612282012 -0.8954797153
H -1.8142045731 -1.1403620149 -1.6760893206
H -0.4633769965 -2.8279256475 -0.5115995825
H 0.5156014114 -1.7659052883 -1.5130310746
H 0.2219274826 -1.6679941054 1.5207518452
H 1.6108201142 -2.2565081439 0.6182714739
H 0.6266011034 0.6354095116 0.6779838961
H 1.9939343308 -0.0122545763 1.5629802741
H 3.0727148532 -0.6328637405 -0.6545075454
H 1.7682951676 0.2003431537 -1.4783011091
H 3.7451889059 1.6617501540 -1.2698984916
28
CONF206
C -4.6380486067 -0.7071139434 0.7697407009
C -4.0796990637 0.0760900501 -0.4133565692
C -2.5711476037 0.3103307788 -0.3209303374
C -1.7567685506 -0.9775381944 -0.4378923328
C -0.2547160868 -0.7245527705 -0.5776484687
C 0.3633993195 -0.1050953240 0.6756641898
C 1.8909102818 -0.0860141012 0.6424436330
C 2.4514059697 0.8359357007 -0.4372807483
C 3.9338009949 0.9705016075 -0.3821202577
O 4.6688181332 0.4237791491 0.4048972356
H -4.3841794962 -0.2134044787 1.7052106497
H -5.7212994447 -0.7742188801 0.7004546673
H -4.2372766362 -1.7168719488 0.7925913233
H -4.5799583985 1.0463631082 -0.4603737947
H -4.3064820598 -0.4568416935 -1.3397055643
H -2.3492319522 0.8022950419 0.6274730803
H -2.2746053000 0.9867358712 -1.1264574757
H -2.1006173452 -1.5297258244 -1.3162281806
H -1.9305838229 -1.6050362468 0.4377789718
H 0.2405665274 -1.6778720435 -0.7776860051
H -0.0867594062 -0.0732720983 -1.4371389244
H -0.0034412639 0.9142819813 0.8039855681
H 0.0454832692 -0.6846664723 1.5449223768
H 2.2691414212 0.2482674410 1.6111506217
H 2.2708418555 -1.0969410294 0.4808388431
H 2.1969855109 0.4756878109 -1.4367109488
H 2.0276851772 1.8399403682 -0.3476834164
H 4.3537748252 1.6438079733 -1.1532198527
28
CONF387
C -2.9486547162 1.4116550243 0.2253584620
C -3.1995728408 -0.0492697013 0.5826696649
C -2.7634973178 -1.0232114645 -0.5142260015
C -1.2600599749 -1.0388882089 -0.7981866031
C -0.4334646387 -1.5461480383 0.3820372696
C 1.0435646835 -1.7511508802 0.0389353664
C 1.7868364382 -0.4797607064 -0.3713498107
C 1.8241410993 0.5738236412 0.7321612822
C 2.6668666147 1.7533033208 0.3897476022
O 3.2725264909 1.9192865694 -0.6416901424
H -3.4319553912 1.6601496199 -0.7170750155
H -3.3496775373 2.0629554135 0.9984332089
H -1.8858148549 1.6173438039 0.1284431214
H -4.2698350308 -0.1884096054 0.7534308323
H -2.6890412773 -0.2906928344 1.5160444089
H -3.2887950849 -0.7637627948 -1.4368977538
H -3.0775032485 -2.0306317018 -0.2296181310
H -0.9369103079 -0.0369383672 -1.0802787742
H -1.0816057877 -1.6923561242 -1.6559534951
H -0.5203401537 -0.8560685902 1.2210329018
H -0.8431121015 -2.5060814986 0.7062877642
H 1.5451245075 -2.1871865097 0.9060941900
H 1.1179794007 -2.4703949887 -0.7795202988
H 2.8148322699 -0.7407908189 -0.6330822353
H 1.3336652844 -0.0480502797 -1.2645950845
H 0.8232249729 0.9504133256 0.9568582338
H 2.2143980115 0.1494472908 1.6612402384
H 2.7103546627 2.5213441120 1.1850442314
28
CONF374
C -4.8582607671 0.3089657728 0.1318125029
C -3.5060189510 -0.1834980729 -0.3710878961
C -2.5116815167 -0.3590669817 0.7751555610
C -1.1643852596 -0.9375307948 0.3380933186
C -0.3345153461 0.0396842322 -0.4931013844
C 0.9973767697 -0.5446186454 -0.9698430197
C 1.9739950309 -0.9458676176 0.1386595375
C 2.4274046465 0.2267267289 1.0061860702
C 3.3057126793 1.2030686056 0.3012724245
O 3.7542531611 1.0917391561 -0.8140441919
H -5.5536437780 0.4297882612 -0.6952746965
H -5.2841863102 -0.4001183810 0.8383327525
H -4.7509480127 1.2683338576 0.6332662565
H -3.1147995852 0.5320689757 -1.0960710881
H -3.6358507097 -1.1394786047 -0.8835738722
H -2.9549726578 -1.0294688818 1.5157338746
H -2.3495833989 0.6062234503 1.2608987505
H -1.3336766417 -1.8486357223 -0.2403324497
H -0.6063246237 -1.2116491668 1.2347144071
H -0.9018454345 0.3265466766 -1.3803174417
H -0.1616815361 0.9499028007 0.0844340024
H 0.7908991685 -1.4294708563 -1.5762927726
H 1.4889140220 0.1858092535 -1.6164759342
H 1.5203035909 -1.7071928978 0.7729137448
H 2.8555785870 -1.3849016022 -0.3334322816
H 1.5766613006 0.7713352181 1.4190716446
H 3.0035860530 -0.1375364665 1.8618776720
H 3.5558785717 2.0947049509 0.9081617730
28
CONF22
C -5.0566724970 -0.2214814817 0.7037658483
C -3.5892820103 0.1325116130 0.4909350232
C -2.9825568965 -0.6606140913 -0.6651547064
C -1.5450560189 -0.2566731845 -0.9952995716
C -0.5448182636 -0.6232542326 0.0993386019
C 0.8898574879 -0.3043419416 -0.3154263150
C 1.8940110073 -0.6687218735 0.7767491947
C 3.3246233369 -0.3271383011 0.3568228055
C 3.5255566816 1.1418665757 0.2091172030
O 4.1584916173 1.6841150705 -0.6654633981
H -5.4716154741 0.3474494398 1.5322203251
H -5.6363911017 0.0000068443 -0.1896980499
H -5.1636064264 -1.2808302195 0.9262239459
H -3.0376101487 -0.0725581903 1.4095152885
H -3.5011300441 1.2005638587 0.2788535727
H -3.5996530569 -0.5059056420 -1.5537199356
H -3.0119217622 -1.7260991191 -0.4257240862
H -1.5053838223 0.8203892843 -1.1751460257
H -1.2473747424 -0.7548052552 -1.9213048773
H -0.7807711452 -0.0746390979 1.0123451195
H -0.6275131001 -1.6900301667 0.3187057241
H 1.1328434083 -0.8528678696 -1.2283003073
H 0.9746848433 0.7617320068 -0.5439400548
H 1.6460707475 -0.1294392992 1.6929058908
H 1.8281035472 -1.7368540533 0.9864939584
H 4.0163590957 -0.6518227671 1.1394797869
H 3.5986638673 -0.8301794447 -0.5715416553
H 3.0468296978 1.7477705015 1.0009623238
28
CONF269
C -4.6752610945 -0.1331531880 0.8635235671
C -4.1370373399 -0.5289873954 -0.5071204169
C -2.6638631573 -0.1667346626 -0.7018947842
C -1.7271906033 -0.9641386142 0.2051809065
C -0.2499725501 -0.8066380743 -0.1608846381
C 0.2880737379 0.5968459381 0.1141907629
C 1.7572489571 0.7624048292 -0.2732582694
C 2.7074687610 -0.0416214701 0.6105604302
C 4.1439950976 0.2325600008 0.3279483686
O 4.5722810749 0.9946578584 -0.5053340327
H -4.5197342260 0.9289824287 1.0397552001
H -5.7416537181 -0.3380346794 0.9230957243
H -4.1785872675 -0.6909209491 1.6527308975
H -4.7243250088 -0.0215981823 -1.2763418204
H -4.2661710415 -1.6044378229 -0.6502104063
H -2.5382482575 0.9019157338 -0.5195357380
H -2.3929873988 -0.3609953850 -1.7428254228
H -1.9914635238 -2.0220246951 0.1307746665
H -1.8689817183 -0.6578909536 1.2428167011
H 0.3219311972 -1.5331067896 0.4190434150
H -0.1138994619 -1.0432384484 -1.2188349957
H -0.2954959935 1.3204379786 -0.4561295300
H 0.1631591085 0.8308097474 1.1737340393
H 1.8996186771 0.4647729735 -1.3141772188
H 2.0323179493 1.8170541879 -0.2005081653
H 2.5339818157 0.1793478627 1.6673666203
H 2.5547185551 -1.1160505176 0.4854022231
H 4.8450646692 -0.3379208038 0.9663256999
28
CONF384
C -3.9247838579 0.7549150578 -0.3891121574
C -3.0405979263 0.2319009372 0.7373559105
C -2.6207992672 -1.2269083392 0.5479484126
C -1.7862288733 -1.5032456714 -0.7053495829
C -0.4798255922 -0.7123444074 -0.7972011502
C 0.4842133059 -1.0151241882 0.3492286338
C 1.8801885361 -0.4360199472 0.1237945556
C 1.8995487622 1.0903264919 0.1331636838
C 3.2732987339 1.6605631778 0.0529468958
O 4.3010787594 1.0313225737 -0.0251749185
H -4.7925740549 0.1120056083 -0.5202039593
H -4.2740457735 1.7589040619 -0.1589919567
H -3.3801080248 0.7929857773 -1.3286962869
H -3.5897639281 0.3058696420 1.6793285648
H -2.1559890748 0.8637064516 0.8280549947
H -3.5218069169 -1.8436150753 0.4957667517
H -2.0611365224 -1.5468745610 1.4288544610
H -2.3874628886 -1.2877897515 -1.5905422048
H -1.5522432983 -2.5707828212 -0.7260083960
H 0.0063851412 -0.9707555952 -1.7414030791
H -0.7052704379 0.3537232363 -0.8245711738
H 0.0832129813 -0.6226490200 1.2849790368
H 0.5731296428 -2.0985702766 0.4546706740
H 2.5509926729 -0.7937911747 0.9081812063
H 2.2801910418 -0.7920394851 -0.8279054584
H 1.3317806787 1.4987504716 -0.7060606645
H 1.4371089906 1.4783340596 1.0449450454
H 3.3033676943 2.7665130314 0.0703144656
28
CONF385
C -3.9219863860 0.7539638976 -0.3947158163
C -3.0371258176 0.2362033322 0.7336504045
C -2.6206493721 -1.2245313943 0.5522936238
C -1.7863199963 -1.5094723594 -0.6992727344
C -0.4797969014 -0.7194044348 -0.7967144686
C 0.4822558148 -1.0114087386 0.3541566358
C 1.8786458813 -0.4343838998 0.1262456232
C 1.8977267961 1.0919973247 0.1187180824
C 3.2723573406 1.6613607118 0.0464155755
O 4.3007707057 1.0311819917 -0.0136421270
H -3.3779047920 0.7872967914 -1.3348176910
H -4.7900231139 0.1106516071 -0.5221159536
H -4.2708662711 1.7591201132 -0.1692244476
H -3.5846749219 0.3169948073 1.6759999314
H -2.1510800851 0.8667208755 0.8191345359
H -3.5230405589 -1.8394880156 0.5032043361
H -2.0619463296 -1.5410737173 1.4350486515
H -2.3876764668 -1.3001167194 -1.5858552571
H -1.5524293705 -2.5771527905 -0.7124811221
H 0.0078049879 -0.9866859340 -1.7377218768
H -0.7051118787 0.3463721676 -0.8344313118
H 0.0793971066 -0.6103363448 1.2854583080
H 0.5711166149 -2.0938063012 0.4698698430
H 2.5470955499 -0.7830793634 0.9167209206
H 2.2816916420 -0.8010078586 -0.8201222377
H 1.3384982138 1.4910881968 -0.7306946934
H 1.4262041154 1.4901470796 1.0214721755
H 3.3024888442 2.7673973739 0.0511781643
28
CONF367
C -4.8935487272 0.2626936989 -0.0539606394
C -3.5220132409 -0.2179121140 0.4062476739
C -2.5477809544 -0.3393156756 -0.7639731881
C -1.1809033563 -0.9019602749 -0.3685080404
C -0.3438717719 0.0787962882 0.4514408261
C 0.9840419461 -0.5104985071 0.9329822604
C 1.9584217035 -0.9224952163 -0.1733031794
C 2.4536715452 0.2514381109 -1.0156285354
C 3.3695090436 1.1772911891 -0.2906369026
O 3.8056298759 1.0293262339 0.8253894683
H -5.5743224117 0.3426020420 0.7900517881
H -4.8154370887 1.2395512952 -0.5259848995
H -5.3195095106 -0.4320030052 -0.7745751564
H -3.6233388599 -1.1914428231 0.8912497131
H -3.1298324601 0.4823058297 1.1455229862
H -2.4150174331 0.6422556661 -1.2251386132
H -2.9924310946 -0.9978138172 -1.5142946634
H -0.6417096944 -1.1588622752 -1.2816163793
H -1.3225530829 -1.8211737496 0.2045120919
H -0.1663654374 0.9817159258 -0.1360371381
H -0.9084991204 0.3781959872 1.3361499003
H 1.4798911667 0.2190571255 1.5773311003
H 0.7706443996 -1.3911604539 1.5431207331
H 2.8229929508 -1.3947495305 0.2981346111
H 1.4879464120 -1.6593003183 -0.8239000387
H 3.0125379618 -0.1132044057 -1.8824184777
H 1.6227754062 0.8382031201 -1.4110832126
H 3.6618640932 2.0665699383 -0.8819548162
28
CONF455
C -3.3890714560 0.6796293974 -1.0068644723
C -2.4397256403 0.8553624458 0.1731025820
C -2.2478496131 -0.4230909091 0.9910866487
C -1.6498638279 -1.6026688099 0.2200549271
C -0.2854348158 -1.3295246183 -0.4151226882
C 0.7890572155 -0.9770730300 0.6123749688
C 2.2007092706 -0.9421760963 0.0232823638
C 2.4077015842 0.1875353386 -0.9844527213
C 2.3821223905 1.5527207153 -0.3863383220
O 2.3140922875 1.8227908952 0.7883220371
H -3.5645575342 1.6358504317 -1.4944116901
H -2.9766309598 -0.0055529924 -1.7425288187
H -4.3451207297 0.2868346125 -0.6676852567
H -2.8417832119 1.6239030328 0.8381623900
H -1.4727235968 1.2155102150 -0.1832332856
H -3.2194458697 -0.7336914360 1.3840397102
H -1.6102803324 -0.1939840572 1.8472554575
H -2.3456214230 -1.9074931632 -0.5639487070
H -1.5533703742 -2.4428764797 0.9124326434
H 0.0243448612 -2.2288158268 -0.9538783773
H -0.3864756993 -0.5258453555 -1.1449919659
H 0.5735155161 -0.0084490044 1.0651251513
H 0.7684221061 -1.7243480723 1.4091431248
H 2.9133908835 -0.8098453402 0.8400192076
H 2.4128729709 -1.8959987814 -0.4626743132
H 3.3824891605 0.0863380781 -1.4706394109
H 1.6624210001 0.1525108376 -1.7809723416
H 2.4473164696 2.3661788090 -1.1347727964
28
CONF454
C -3.3720440030 0.7037051064 -1.0003888389
C -2.4413004188 0.8485480269 0.1984101159
C -2.2578211751 -0.4518795242 0.9829551506
C -1.6496761060 -1.6094129831 0.1869244975
C -0.2815038681 -1.3155970444 -0.4307237954
C 0.7813087751 -0.9729946294 0.6122700216
C 2.2005184930 -0.9419827036 0.0413384264
C 2.4219728056 0.1798267299 -0.9721343021
C 2.3873469049 1.5501853017 -0.3866542668
O 2.2931696221 1.8311893237 0.7835619160
H -2.9452573734 0.0428511821 -1.7500084375
H -4.3309829571 0.2964227861 -0.6874840618
H -3.5451814339 1.6733012034 -1.4616776499
H -2.8556905771 1.5970198221 0.8786534818
H -1.4700888055 1.2210479524 -0.1329529490
H -3.2336721659 -0.7738442257 1.3557363374
H -1.6304074220 -0.2459235509 1.8523996234
H -2.3382115171 -1.8968332191 -0.6099610458
H -1.5553934804 -2.4665014488 0.8586240847
H 0.0392661361 -2.2033701761 -0.9820391066
H -0.3817349775 -0.4998768810 -1.1472918927
H 0.5640230663 -0.0057000528 1.0670443952
H 0.7479189928 -1.7241251726 1.4049716724
H 2.9024864308 -0.8045024020 0.8664987242
H 2.4185082413 -1.8992801158 -0.4352085125
H 3.4032329154 0.0743402076 -1.4440606182
H 1.6877068391 0.1382178042 -1.7785971659
H 2.4722510232 2.3566013047 -1.1407234654
28
CONF414
C -4.3810678210 0.2079819051 -0.4808169173
C -3.3078086894 0.5119942963 0.5587868134
C -2.1871600075 -0.5290263233 0.5966572279
C -1.2831397061 -0.4808691956 -0.6336086291
C -0.2092262802 -1.5707984771 -0.6361437672
C 0.7943917549 -1.5013794670 0.5182381800
C 1.5695246148 -0.1882742332 0.6199935687
C 2.4362770070 0.0898400654 -0.6048913516
C 3.3018286620 1.2918573174 -0.4502437963
O 3.3451473049 2.0180530683 0.5138560565
H -5.1839598929 0.9386165625 -0.4167208371
H -3.9738718053 0.2417595736 -1.4879484467
H -4.8025692575 -0.7806369462 -0.3122217668
H -3.7784652789 0.5516433454 1.5440413703
H -2.8777621343 1.4965636779 0.3604670973
H -2.6263467957 -1.5256452944 0.6842169819
H -1.5858558269 -0.3506578011 1.4898744732
H -0.8180913760 0.5046224098 -0.6975644264
H -1.8919131223 -0.6125333297 -1.5300251956
H -0.7040327382 -2.5441163516 -0.5921691804
H 0.3286080367 -1.5261944096 -1.5849837688
H 0.2698926149 -1.6659389746 1.4604255681
H 1.5063812392 -2.3213938645 0.3979328279
H 0.8841247545 0.6465135269 0.7712599128
H 2.2171826660 -0.2280345418 1.4989507780
H 3.0899623547 -0.7601903612 -0.8186968370
H 1.8243867798 0.2466309572 -1.4963489603
H 3.9464650946 1.4982055314 -1.3256659161
28
CONF378
C -4.9062690743 0.2830213246 0.1733731914
C -3.5431906591 -0.1217971382 -0.3762690265
C -2.5736568948 -0.4925079762 0.7445492685
C -1.2212810815 -1.0027397744 0.2432376736
C -0.3729303045 0.0867083336 -0.4112170441
C 0.9697606359 -0.4275481543 -0.9361700873
C 1.9584299324 -0.8830394594 0.1400399833
C 2.4823171925 0.2647836354 1.0010110583
C 3.4254918266 1.1737742101 0.2894606859
O 3.8613341696 1.0256822667 -0.8266444256
H -4.8103052151 1.1426563999 0.8330048796
H -5.5829532562 0.5453183940 -0.6362925976
H -5.3479170163 -0.5343463597 0.7392758682
H -3.1364762857 0.7048185347 -0.9610289486
H -3.6617035334 -0.9767566421 -1.0459219370
H -3.0352240076 -1.2725208038 1.3552692442
H -2.4164745792 0.3775947893 1.3864570742
H -1.3848244478 -1.8104072462 -0.4739856358
H -0.6791431674 -1.4193893923 1.0936468975
H -0.9202879589 0.5041220037 -1.2580776564
H -0.2154196522 0.8975673473 0.3023823145
H 0.7786806188 -1.2691285050 -1.6057454801
H 1.4438858069 0.3576269182 -1.5294762326
H 1.4908302361 -1.6307418817 0.7800128831
H 2.8096174226 -1.3521317582 -0.3580493121
H 1.6668326769 0.8702773651 1.4004069569
H 3.0278293778 -0.1254004342 1.8650903893
H 3.7398014891 2.0482397461 0.8911622700
28
CONF13
C -4.9850637446 0.4379636053 -0.4598655558
C -3.8313828857 -0.0526014725 0.4068987539
C -2.5152947087 -0.0902958632 -0.3665176434
C -1.3545742211 -0.5836578370 0.4941621862
C -0.0407377783 -0.6208616311 -0.2836148035
C 1.1180196277 -1.1044020751 0.5863749035
C 2.4195503595 -1.3076261883 -0.1919020246
C 2.9809048888 -0.0027565650 -0.7632906330
C 3.2967166881 0.9813778573 0.3094930633
O 3.0522898087 2.1640116147 0.2767681152
H -5.1237533830 -0.2185657001 -1.3158537533
H -5.9103160953 0.4598675608 0.1105878645
H -4.7840447181 1.4415681949 -0.8279113616
H -4.0582779956 -1.0536491352 0.7804998878
H -3.7214236319 0.6056403287 1.2717417058
H -2.2881783129 0.9118734043 -0.7380812276
H -2.6264853116 -0.7464321723 -1.2329885197
H -1.5836524817 -1.5843156731 0.8684382199
H -1.2423154621 0.0743304783 1.3595152120
H -0.1509299174 -1.2859085404 -1.1430751596
H 0.1713894508 0.3822256133 -0.6583256858
H 1.2848822355 -0.3840266452 1.3915756855
H 0.8375066228 -2.0549201362 1.0457189346
H 3.1618184456 -1.7507639469 0.4744827766
H 2.2438794115 -2.0041191465 -1.0124759873
H 3.9259344908 -0.2184781853 -1.2699906942
H 2.3029921285 0.4465241174 -1.4886282960
H 3.8091799080 0.5471683040 1.1881915105
28
CONF415
C -4.3551888878 0.3090011246 0.4505947381
C -3.2953588505 0.4377915897 -0.6381755179
C -2.1943988358 -0.6204251262 -0.5437592225
C -1.2849859512 -0.4334112053 0.6690416324
C -0.2064995836 -1.5124850738 0.7864061117
C 0.8045381155 -1.5533706842 -0.3629592249
C 1.5715111891 -0.2515754243 -0.5927035756
C 2.4154696490 0.1645747762 0.6087276600
C 3.2792234512 1.3471583327 0.3377316078
O 3.3425759088 1.9587102606 -0.7018383145
H -4.7921126964 -0.6870638978 0.4384202273
H -3.9307661958 0.4875725902 1.4348727457
H -5.1495912886 1.0339876133 0.2892610944
H -2.8439885468 1.4316252861 -0.5898256051
H -3.7822535697 0.3453510568 -1.6119993512
H -1.5936557040 -0.5684449701 -1.4535565167
H -2.6518963559 -1.6118773884 -0.5030046815
H -1.8894432690 -0.4676391507 1.5773345781
H -0.8235351772 0.5546284707 0.6213764808
H 0.3254564490 -1.3708144745 1.7289924747
H -0.6967121785 -2.4877879663 0.8370679599
H 1.5210710194 -2.3516424456 -0.1551962568
H 0.2883405963 -1.8166618860 -1.2871785222
H 2.2340261904 -0.3795183235 -1.4519629778
H 0.8824471424 0.5556840801 -0.8439033199
H 1.7877597860 0.4141040161 1.4673773801
H 3.0691653723 -0.6529252195 0.9250736418
H 3.9024103631 1.6561051212 1.1984177421
28
CONF300
C -4.2309745323 0.0407034282 -0.8747112364
C -3.5961656994 0.4300456633 0.4557400415
C -2.0706971739 0.3200539797 0.4478944412
C -1.5736704226 -1.1210219840 0.3427088622
C -0.0591275713 -1.2437043952 0.5163339683
C 0.7220302372 -0.6151900824 -0.6372960321
C 2.2220466904 -0.9120822617 -0.5842154312
C 2.9323601330 -0.2122869325 0.5731823661
C 3.0406288003 1.2659508520 0.4132209851
O 2.7229981182 1.9086995401 -0.5580914705
H -5.3041139847 0.2141891721 -0.8455127198
H -3.8091172289 0.6337795633 -1.6832605265
H -4.0634447517 -1.0102543933 -1.0939599643
H -3.9999386113 -0.2026895185 1.2495874509
H -3.8683987177 1.4628644075 0.6861674581
H -1.6848847554 0.7567674560 1.3728741281
H -1.6786723320 0.9080201005 -0.3839405118
H -1.8540357195 -1.5380913795 -0.6257695866
H -2.0645860200 -1.7161203410 1.1170530345
H 0.2223925574 -0.7756898401 1.4616382595
H 0.1996129679 -2.3037355537 0.5770078475
H 0.3274867716 -1.0070794026 -1.5775129279
H 0.5773714130 0.4658826009 -0.6458917178
H 2.3740104193 -1.9893046247 -0.5000193433
H 2.6760866080 -0.5755022561 -1.5185466906
H 2.4393146336 -0.4155240455 1.5252027825
H 3.9566804833 -0.5837489220 0.6703207521
H 3.4749105760 1.7776917020 1.2936888341
28
CONF17
C -4.3786112575 1.1807744687 0.1306599418
C -3.7129029714 -0.1232862952 -0.2928943281
C -2.2732274732 -0.2160212250 0.2085140380
C -1.6042462096 -1.5200964770 -0.2216681514
C -0.1994867512 -1.7020196889 0.3543219418
C 0.8165483654 -0.7070534568 -0.2030005865
C 2.2282418705 -0.9978823936 0.3040110490
C 3.2329396111 0.0242015987 -0.2307782236
C 2.9663074824 1.3921228310 0.2965342208
O 3.0274737806 2.4185477759 -0.3377564481
H -5.4010122748 1.2258186208 -0.2363730868
H -4.3984111212 1.2633952964 1.2150974636
H -3.8327163825 2.0336351561 -0.2669305051
H -3.7191852272 -0.1962922952 -1.3828290791
H -4.2864717334 -0.9668274584 0.0981025451
H -2.2683362652 -0.1506951955 1.2992567053
H -1.7101759142 0.6353180039 -0.1785432794
H -1.5551147227 -1.5570204208 -1.3123861079
H -2.2267836912 -2.3554658603 0.1080105673
H -0.2418738239 -1.6058198096 1.4414811910
H 0.1422393333 -2.7139529153 0.1248252915
H 0.8064717112 -0.7556601037 -1.2941871113
H 0.5399113961 0.3099076118 0.0837983879
H 2.2334187318 -0.9755180941 1.3954068645
H 2.5299271571 -1.9966197058 -0.0135915683
H 4.2365605196 -0.2445175764 0.1110542666
H 3.2373197586 0.0456635417 -1.3214427967
H 2.7062285879 1.4218317167 1.3711383337
28
CONF18
C -5.3232082025 -0.6669383397 0.2589345593
C -3.8979894443 -1.0257521193 -0.1447571337
C -2.9162852333 0.0997712096 0.1741487766
C -1.4860133981 -0.2522333842 -0.2293098050
C -0.5106875107 0.8750594595 0.1052812462
C 0.9117167235 0.6163807193 -0.3926419660
C 1.5993721167 -0.5461838634 0.3228775075
C 3.0618799405 -0.6706269075 -0.1075142907
C 3.8753462565 0.4986279524 0.3300466818
O 4.7366674260 1.0429650938 -0.3192120296
H -5.3779882009 -0.4694588782 1.3271961600
H -5.6561639982 0.2231301583 -0.2703373753
H -6.0043316394 -1.4812614674 0.0243583923
H -3.8669831271 -1.2378054293 -1.2158798762
H -3.5900125095 -1.9323870357 0.3808832858
H -2.9472650854 0.3108920092 1.2457251824
H -3.2276627891 1.0071011493 -0.3490947334
H -1.4537261146 -0.4501123884 -1.3031856562
H -1.1891846265 -1.1657723757 0.2880408657
H -0.8749105809 1.7985015812 -0.3510460094
H -0.4930965468 1.0284389001 1.1866180880
H 0.8869617579 0.4172959252 -1.4662314583
H 1.5073766135 1.5214294606 -0.2423123709
H 1.5508427463 -0.3870720108 1.4017949846
H 1.0844741806 -1.4782531046 0.0930670930
H 3.5060463917 -1.5462531115 0.3749179810
H 3.1502244045 -0.7956873958 -1.1875949099
H 3.6463890635 0.8548733843 1.3518255817
28
CONF21
C -5.1041524055 -0.8744045084 0.3956835752
C -3.6553634408 -0.8803997371 -0.0785115023
C -3.0218533481 0.5049016931 0.0367149357
C -1.6089644778 0.5815766794 -0.5430021127
C -0.5849727442 -0.2372384568 0.2407972613
C 0.8325459820 -0.0194945605 -0.2839192439
C 1.8592808664 -0.8543998959 0.4794429935
C 3.2786714064 -0.5897252825 -0.0255618146
C 3.7200508103 0.8039157117 0.2631845759
O 4.3480522893 1.5158334870 -0.4840838897
H -5.5387403721 -1.8675810723 0.3124599235
H -5.1624702600 -0.5595138653 1.4351986081
H -5.6989263673 -0.1877025373 -0.2027501236
H -3.6163136247 -1.2075355424 -1.1199945320
H -3.0887443357 -1.5961943242 0.5187067383
H -2.9975504304 0.8036195937 1.0873691436
H -3.6537604200 1.2214592980 -0.4940046666
H -1.2907017487 1.6272575381 -0.5463685558
H -1.6263457703 0.2408005285 -1.5808360181
H -0.6280164240 0.0478561599 1.2944152671
H -0.8295032338 -1.2980767779 0.1707804046
H 0.8686049441 -0.2809200437 -1.3438566365
H 1.0943613146 1.0391468109 -0.2005849401
H 1.8022823082 -0.6160652809 1.5432384904
H 1.6273494947 -1.9130597839 0.3586445642
H 3.9768571392 -1.2460099151 0.5019870319
H 3.3649045393 -0.7878617264 -1.0948890244
H 3.4365909604 1.1711259994 1.2671959553
28
CONF15
C -5.1981026477 -0.1239264736 0.3016456287
C -3.7590251061 0.3634195382 0.4221501876
C -2.7687197262 -0.6350686172 -0.1733011689
C -1.3243777398 -0.1523649980 -0.0580571025
C -0.3418876590 -1.1600307234 -0.6523808147
C 1.1044762721 -0.6641301483 -0.6668246074
C 1.7160586084 -0.5490217696 0.7288145683
C 3.1803790763 -0.1119703236 0.6549174661
C 3.3189767461 1.2737146982 0.1253029805
O 4.1575801821 1.6504661830 -0.6585224999
H -5.8852321349 0.6011760753 0.7308036934
H -5.4633097064 -0.2726876235 -0.7427232511
H -5.3247254969 -1.0693689280 0.8242965553
H -3.5184773003 0.5256173919 1.4752700367
H -3.6565658054 1.3220017882 -0.0917342510
H -3.0129455601 -0.7987785424 -1.2256681525
H -2.8707813378 -1.5932660328 0.3415188388
H -1.0934336613 0.0167865374 0.9948744291
H -1.2214693278 0.8020082742 -0.5803131020
H -0.3969727071 -2.0941837947 -0.0893568881
H -0.6450916104 -1.3762732310 -1.6793765441
H 1.7065115939 -1.3594092377 -1.2564705330
H 1.1509518734 0.3087586760 -1.1638204379
H 1.1573233866 0.1761860627 1.3210537190
H 1.6559461349 -1.5160007528 1.2294579766
H 3.6019006305 -0.0960837423 1.6641144759
H 3.7725308148 -0.7981092836 0.0476673979
H 2.5745200302 1.9883991843 0.5233093947
28
CONF20
C -5.1020524990 -0.9221788873 0.3445092596
C -3.6580552147 -0.8715422297 -0.1414833296
C -3.0294922904 0.4982700011 0.1080766317
C -1.6167997797 0.6345360630 -0.4615018169
C -0.5860367586 -0.2322051302 0.2591986945
C 0.8268048169 0.0139311335 -0.2655353793
C 1.8581738730 -0.8644480671 0.4406567273
C 3.2714695432 -0.5947778537 -0.0785538833
C 3.7375421359 0.7787414894 0.2624830103
O 4.3606025379 1.5147227217 -0.4652496897
H -5.1514383424 -0.7162387792 1.4114443442
H -5.7059525513 -0.1809613546 -0.1744475625
H -5.5327613462 -1.9039604353 0.1635888375
H -3.6279063057 -1.0906403272 -1.2112129985
H -3.0825534171 -1.6416628894 0.3740582493
H -3.0057154634 0.6936269654 1.1827182114
H -3.6643374203 1.2604818720 -0.3505170743
H -1.3087069186 1.6803284670 -0.3838585719
H -1.6297584965 0.3744511599 -1.5225150760
H -0.6179521169 -0.0127505765 1.3287939737
H -0.8335397058 -1.2863378322 0.1265006002
H 0.8525561702 -0.1882341017 -1.3386524342
H 1.0912635100 1.0658913922 -0.1259259342
H 1.8233966174 -0.6731360226 1.5148346253
H 1.6114359397 -1.9140866889 0.2774842776
H 3.9699774671 -1.2823628663 0.4070313258
H 3.3359488659 -0.7470879810 -1.1568067789
H 3.4798263722 1.1043840036 1.2875529876
28
CONF24
C -4.5265779866 0.8826298000 0.0991320482
C -4.2059325371 -0.5562877538 -0.2902027692
C -2.9033743929 -1.0711776100 0.3239169622
C -1.6577756064 -0.3848917701 -0.2335390362
C -0.3753981164 -0.9927093005 0.3303704906
C 0.8730261743 -0.3067566261 -0.2195568467
C 2.1552535172 -0.9195565182 0.3409341523
C 3.3969192368 -0.2105699533 -0.2026339015
C 3.4820449091 1.2009610539 0.2670028630
O 3.8211186661 2.1487640302 -0.4009779308
H -3.7817709016 1.5691392166 -0.2944361069
H -5.4967239979 1.1727602104 -0.2973268424
H -4.5535714192 0.9857423064 1.1816909034
H -4.1454693695 -0.6325628859 -1.3781719560
H -5.0240848354 -1.2001522685 0.0409019614
H -2.8267244146 -2.1440127783 0.1306808247
H -2.9379648656 -0.9329497116 1.4070478260
H -1.6814896801 0.6787904214 0.0091294023
H -1.6530931129 -0.4773651735 -1.3222563675
H -0.3858945604 -0.9066413741 1.4192723156
H -0.3405543692 -2.0560707263 0.0829898768
H 0.8786672205 -0.3881670837 -1.3088063884
H 0.8432955234 0.7581768772 0.0273558208
H 2.1449204971 -0.8499323965 1.4302776623
H 2.1992183494 -1.9753790349 0.0716207887
H 4.2920926257 -0.7120774556 0.1762807964
H 3.4259406101 -0.2369919223 -1.2928076570
H 3.2157948562 1.3424460950 1.3311310956
28
CONF386
C -4.9077185822 0.3224979396 -0.1821825029
C -3.5493773562 -0.0597656043 0.3947345208
C -2.6052119156 -0.5766991916 -0.6891676718
C -1.2633259355 -1.0739896422 -0.1491446636
C -0.3892160878 0.0443990563 0.4171016013
C 0.9848339048 -0.4485544001 0.8782769952
C 1.9435330727 -0.8222279699 -0.2552100158
C 2.4661081630 0.3938369193 -1.0179257671
C 3.4637273731 1.1999607492 -0.2579489211
O 3.9319386110 0.9304216284 0.8217329094
H -5.5663217661 0.6911063231 0.6005317469
H -4.7962386421 1.1019419802 -0.9327540442
H -5.3793820588 -0.5383471775 -0.6511104291
H -3.6826267553 -0.8337052326 1.1541455555
H -3.1117889495 0.8129863266 0.8819154403
H -2.4291305880 0.2161843057 -1.4200421935
H -3.0970501361 -1.4014332500 -1.2111090553
H -0.7319618442 -1.5695967224 -0.9634509423
H -1.4420555511 -1.8190024146 0.6296968967
H -0.2766041265 0.8273467393 -0.3350372546
H -0.8930186600 0.4892204928 1.2768146787
H 1.4585922648 0.3233123337 1.4889072331
H 0.8414794563 -1.3229687227 1.5166466634
H 2.7983605356 -1.3469380828 0.1764015447
H 1.4491945688 -1.5001258897 -0.9505287523
H 2.9627703517 0.0829824439 -1.9414185033
H 1.6533997409 1.0596160949 -1.3144238133
H 3.7859210732 2.1195663846 -0.7833971736
28
CONF438
C -4.1707956674 0.5808425507 -0.3739594768
C -3.3141075921 -0.0015304245 0.7446371773
C -2.6763369928 -1.3433967424 0.3803406376
C -1.7202324859 -1.3029456404 -0.8145621887
C -0.5410560096 -0.3373973281 -0.6766842680
C 0.3949612997 -0.6924497289 0.4772043301
C 1.5875105247 0.2563396817 0.5947303654
C 2.5799035664 0.1214333380 -0.5573322591
C 3.8161517152 0.9293935529 -0.3639513332
O 4.0597430580 1.6422600638 0.5799598772
H -3.5626453277 0.8461250455 -1.2345984781
H -4.9220893000 -0.1393141884 -0.6910210656
H -4.6798508810 1.4783330498 -0.0299906797
H -3.9417341703 -0.1538298374 1.6263334087
H -2.5388836115 0.7150817864 1.0203722510
H -3.4730472371 -2.0552945463 0.1492354180
H -2.1462723199 -1.7260215708 1.2546044935
H -2.2835625123 -1.0362885356 -1.7106499243
H -1.3290804832 -2.3121212387 -0.9668039137
H 0.0156126984 -0.3620656986 -1.6154097382
H -0.9096952280 0.6806452111 -0.5416854952
H -0.1617099061 -0.6522747579 1.4142751026
H 0.7555275034 -1.7156320194 0.3494667633
H 1.2347431798 1.2886032744 0.6435823321
H 2.1180128231 0.0541177046 1.5279910653
H 2.8867458527 -0.9204438785 -0.6838862827
H 2.1360241201 0.4347757172 -1.5050457214
H 4.5493506149 0.8341023933 -1.1871450936
28
CONF393
C -3.8021395116 1.1108419473 0.3449242298
C -3.6029268393 -0.4001341982 0.3004810030
C -2.6731981035 -0.8506748496 -0.8283275117
C -1.2102410061 -0.4329599532 -0.6599933874
C -0.4881270980 -1.2153762481 0.4361264466
C 0.8946127455 -0.6516129881 0.7637928696
C 1.8852461919 -0.7670784897 -0.3938240670
C 3.2708811942 -0.2563060227 -0.0039103163
C 3.3491864799 1.2261610973 0.1377879516
O 2.4730906265 2.0176277253 -0.1132586615
H -4.5251871975 1.3733633630 1.1136372763
H -2.8702136832 1.6227820250 0.5699322106
H -4.1706269323 1.4738523140 -0.6120924298
H -4.5746946046 -0.8774526090 0.1532331955
H -3.2153181505 -0.7419833626 1.2614449188
H -3.0495330619 -0.4372785982 -1.7672068287
H -2.7167995900 -1.9397431256 -0.9073546148
H -1.1520657564 0.6340676324 -0.4394468456
H -0.7002666441 -0.5966379962 -1.6110209270
H -1.0867735978 -1.1913877376 1.3483507616
H -0.3929261966 -2.2602359295 0.1309644383
H 0.7945478314 0.3994339730 1.0438749989
H 1.2947731696 -1.1903734753 1.6268146502
H 1.9576854279 -1.8106673100 -0.7036979070
H 1.5263461137 -0.1802776541 -1.2400958599
H 3.6048918922 -0.7022319180 0.9359103057
H 4.0103683693 -0.5311566725 -0.7613637741
H 4.3308277924 1.5877873517 0.4993669312
28
CONF439
C -4.1995106894 0.5464226740 0.4125369006
C -3.3355155734 0.0052234631 -0.7210297991
C -2.6748297500 -1.3340579963 -0.3896697815
C -1.7104197509 -1.3038843778 0.7987331973
C -0.5413356816 -0.3252101750 0.6678144375
C 0.3835129255 -0.6474473934 -0.5046432761
C 1.5851187824 0.2928958907 -0.5957218683
C 2.5892660883 0.0970168040 0.5373207492
C 3.8359985409 0.8927085386 0.3610294436
O 4.0834591034 1.6327269602 -0.5606439712
H -3.5940190495 0.8017887397 1.2780551839
H -4.7246886385 1.4428833359 0.0908236962
H -4.9376310218 -0.1938186561 0.7139778541
H -2.5729280062 0.7410663555 -0.9808369899
H -3.9624922471 -0.1365415421 -1.6049560325
H -2.1454190238 -1.6904342870 -1.2753184050
H -3.4590899395 -2.0625038862 -0.1676951294
H -1.3083434978 -2.3115748050 0.9311609068
H -2.2692216887 -1.0576121322 1.7034367084
H -0.9196950799 0.6925066092 0.5596700188
H 0.0266032121 -0.3655771131 1.5991942418
H 0.7349453577 -1.6779474794 -0.4161755503
H -0.1791064883 -0.5683418223 -1.4357082221
H 2.1026717645 0.1252622372 -1.5430020329
H 1.2435830506 1.3300700909 -0.5958951817
H 2.1619508877 0.3766833897 1.5029417260
H 2.8821423822 -0.9536450331 0.6165257457
H 4.5743054296 0.7581366289 1.1741110621
28
CONF66
C -3.1808482029 1.6259566379 0.3315500103
C -2.2392510120 0.6469635507 -0.3604085013
C -2.2191960334 -0.7066282756 0.3484369678
C -1.4443885153 -1.7875952452 -0.4086368765
C 0.0275154336 -1.4597655903 -0.6643590897
C 0.8357526811 -1.3004493703 0.6216463925
C 2.3311337032 -1.0953523900 0.3705098978
C 2.6239541358 0.2006012064 -0.3959637045
C 2.0545336897 1.3799622038 0.3155403832
O 1.3492358319 2.2280123357 -0.1767366134
H -2.8727504128 1.7839337149 1.3629157081
H -3.1729953589 2.5864423967 -0.1779526904
H -4.1991598014 1.2430121085 0.3325329719
H -1.2365548917 1.0794817178 -0.3774693399
H -2.5597241400 0.5069216768 -1.3955041802
H -3.2499200231 -1.0509182782 0.4674986328
H -1.8034636938 -0.5824819810 1.3500783654
H -1.9321217241 -1.9534039824 -1.3724038136
H -1.5077851041 -2.7199915871 0.1579515943
H 0.4619855687 -2.2688582292 -1.2565482979
H 0.0869399870 -0.5460056435 -1.2556330739
H 0.4548418346 -0.4468402212 1.1862157176
H 0.7014939019 -2.1940693805 1.2354769756
H 2.8474670447 -1.0643470226 1.3316359193
H 2.7261659170 -1.9369617741 -0.1995782848
H 3.7060060972 0.3454910993 -0.4436300984
H 2.2341548942 0.1600459109 -1.4127596872
H 2.3265166484 1.4392281997 1.3860668715
28
CONF436
C -4.2644388584 -0.8667851514 -0.5726252744
C -3.6434573698 -0.2450201877 0.6731235903
C -2.5427034156 0.7701477384 0.3582360360
C -1.3295315375 0.2077928487 -0.3862956897
C -0.5631674763 -0.8415934009 0.4161529346
C 0.6664769057 -1.3840154024 -0.3163394281
C 1.7672102873 -0.3579287437 -0.5856077794
C 2.3644892869 0.2277619671 0.6908211998
C 3.5481960531 1.0960177255 0.4398539394
O 4.0228938752 1.3573489517 -0.6394855562
H -5.1092744918 -1.4944112623 -0.2985710096
H -4.6181325164 -0.0911581050 -1.2485531114
H -3.5438406269 -1.4838413139 -1.1025578358
H -3.2487117387 -1.0337599202 1.3152918476
H -4.4252639985 0.2703897957 1.2365315714
H -2.2030350170 1.2136181428 1.2978068056
H -2.9748891229 1.5723489227 -0.2454681207
H -0.6665447656 1.0444507957 -0.6150463748
H -1.6469301331 -0.2237191880 -1.3368603025
H -0.2699294971 -0.4183032616 1.3782387771
H -1.2234779793 -1.6861954561 0.6201970324
H 1.0883271191 -2.2012381607 0.2735087562
H 0.3465591714 -1.8018019873 -1.2733780088
H 2.5677835375 -0.8416916869 -1.1500439173
H 1.3881444055 0.4527837229 -1.2089460889
H 1.6321714026 0.8330207399 1.2302925403
H 2.6786902240 -0.5671735447 1.3726954264
H 3.9997514030 1.5177317820 1.3578586898
28
CONF469
C -3.2516091013 0.9645356804 -0.9805786754
C -3.2564540073 0.2791528156 0.3813533370
C -2.7559598028 -1.1661674444 0.3327069321
C -1.2938093680 -1.3254787147 -0.0889777297
C -0.3138982592 -0.6929832476 0.8982661149
C 1.1441123982 -1.0699401627 0.6265530843
C 1.6823976178 -0.6336232431 -0.7383944512
C 1.7156748127 0.8823764806 -0.9223401367
C 2.7398138547 1.5738021242 -0.0883278819
O 3.5761176270 1.0472671918 0.6050111101
H -3.6951849329 1.9546125653 -0.9050252387
H -2.2398661165 1.0755570544 -1.3606650604
H -3.8272062506 0.3845560826 -1.6985677737
H -4.2792380677 0.2704547679 0.7660141202
H -2.6521504091 0.8553042371 1.0838266682
H -3.3818971189 -1.7270374539 -0.3659319245
H -2.8867049591 -1.6122583794 1.3219581017
H -1.1570610105 -0.8950158981 -1.0806254791
H -1.0748757512 -2.3937498096 -0.1609087477
H -0.4219708611 0.3920363469 0.8879978026
H -0.5658147563 -1.0313354224 1.9066688222
H 1.7732815048 -0.6325950090 1.4052264147
H 1.2432958091 -2.1554897821 0.6992916817
H 2.7019211113 -1.0128507440 -0.8365528527
H 1.0808887336 -1.0798928804 -1.5300057509
H 1.9502490917 1.1325989470 -1.9612036460
H 0.7451934036 1.3339044204 -0.7090717268
H 2.6981862698 2.6779937087 -0.1576975027
28
CONF64
C -3.2329808956 1.5932991084 0.3635358867
C -2.2708346959 0.6476100925 -0.3463124418
C -2.2351067604 -0.7233090504 0.3276452697
C -1.4385785644 -1.7722320529 -0.4512260525
C 0.0325511150 -1.4207870377 -0.6786552398
C 0.8210820908 -1.2805263062 0.6219175395
C 2.3237307791 -1.0997949426 0.3974187922
C 2.6508986151 0.1836424172 -0.3764948300
C 2.0899495269 1.3784587381 0.3152657539
O 1.3981689057 2.2282970265 -0.1926353068
H -4.2453427752 1.1953985419 0.3439011531
H -2.9372283964 1.7267546194 1.4019527344
H -3.2352143190 2.5676302523 -0.1190075079
H -1.2744987904 1.0950595564 -0.3453642531
H -2.5817516762 0.5294218068 -1.3870287589
H -3.2612720972 -1.0860242592 0.4302020057
H -1.8278283559 -0.6191017291 1.3349495229
H -1.9126814256 -1.9154300501 -1.4253675590
H -1.4976646131 -2.7214933955 0.0871419718
H 0.4844536932 -2.2119216468 -1.2819663306
H 0.0899973940 -0.4933767799 -1.2487866101
H 0.4441208753 -0.4234811120 1.1840425481
H 0.6624817193 -2.1747215307 1.2290841181
H 2.8225417871 -1.0673766988 1.3677203771
H 2.7163559485 -1.9527338176 -0.1572726656
H 3.7358822286 0.3090639524 -0.4076439211
H 2.2761333845 0.1391545938 -1.3986845588
H 2.3537528036 1.4475402190 1.3872752213
28
CONF23
C -4.6435306637 0.3344628526 0.8380172328
C -4.1912664905 -0.1969283801 -0.5176920325
C -2.8932359299 -1.0025608320 -0.4473057499
C -1.6731014687 -0.1562448984 -0.0891707960
C -0.3843275472 -0.9743989392 -0.1294353413
C 0.8376958061 -0.1359117505 0.2381448137
C 2.1246499822 -0.9584520871 0.2080179975
C 3.3422818976 -0.1038071252 0.5642600961
C 3.6058093386 0.9442143163 -0.4615671800
O 3.9338097671 2.0852621949 -0.2381316199
H -4.7407404576 -0.4806049065 1.5517288027
H -3.9323467822 1.0555808878 1.2317311666
H -5.6086466073 0.8270690586 0.7461938334
H -4.0590280356 0.6386011547 -1.2088607885
H -4.9765892242 -0.8392692933 -0.9230134263
H -2.7205375480 -1.4710128811 -1.4194404336
H -3.0064219503 -1.8020877668 0.2884295073
H -1.7951213573 0.2628262259 0.9108054816
H -1.5938619284 0.6772058218 -0.7915616670
H -0.4687215929 -1.8122258373 0.5662013702
H -0.2510344708 -1.3886172678 -1.1314519309
H 0.9277640325 0.7027121152 -0.4579181188
H 0.6997785487 0.2837934910 1.2371091412
H 2.0444393377 -1.7810210560 0.9194699340
H 2.2594011406 -1.3858980594 -0.7873419889
H 3.2294375601 0.3619493908 1.5442300869
H 4.2327430582 -0.7386088815 0.5868750540
H 3.4923270279 0.5966462587 -1.5054138284
28
CONF63
C -3.2205502605 1.5957175997 0.3725607153
C -2.2681869686 0.6474083388 -0.3468519569
C -2.2359054991 -0.7260012012 0.3220584590
C -1.4380502398 -1.7730918003 -0.4579926203
C 0.0337812626 -1.4218726274 -0.6811860038
C 0.8181597113 -1.2815946287 0.6219026421
C 2.3212798351 -1.0992537268 0.4017290627
C 2.6491630078 0.1844229315 -0.3712882589
C 2.0825524658 1.3789734144 0.3163639234
O 1.3958134975 2.2295469405 -0.1971667696
H -3.2215283330 2.5713039380 -0.1074005852
H -4.2349640067 1.2028393741 0.3595657284
H -2.9162743271 1.7250033753 1.4090420544
H -1.2695509119 1.0896004388 -0.3503293208
H -2.5860148546 0.5347229463 -1.3860785220
H -3.2627937851 -1.0878498085 0.4203334682
H -1.8314473041 -0.6259231951 1.3309189619
H -1.9099131398 -1.9136750382 -1.4335847755
H -1.4988059956 -2.7236598019 0.0778891880
H 0.4874153399 -2.2129501725 -1.2832842533
H 0.0930285819 -0.4944683831 -1.2511289806
H 0.4387401967 -0.4251512373 1.1832699534
H 0.6585610626 -2.1762210292 1.2281414404
H 2.8170957347 -1.0661607514 1.3735186985
H 2.7166199113 -1.9518206922 -0.1516487252
H 3.7340061516 0.3126485892 -0.3974120177
H 2.2797930087 0.1383700531 -1.3953717180
H 2.3374019301 1.4476073783 1.3905732025
28
CONF45
C -5.3576224528 0.2608950888 -0.1582261862
C -4.1805867823 -0.6053175056 0.2746721901
C -2.8467769537 -0.0280705483 -0.1939730738
C -1.6631887014 -0.8916338325 0.2363082855
C -0.3302523287 -0.3149932535 -0.2370582769
C 0.8478251813 -1.1801691037 0.2064434250
C 2.1919852664 -0.7084485084 -0.3489719207
C 2.6317296802 0.6355666035 0.2390816555
C 3.9312870013 1.0938861294 -0.3234498389
O 4.8286220673 1.6077886532 0.3016481777
H -6.2957248757 -0.1687752631 0.1844477968
H -5.2663683259 1.2623058623 0.2565522121
H -5.3923149195 0.3419660820 -1.2423918028
H -4.3010712815 -1.6112810621 -0.1337328428
H -4.1736455869 -0.6898729115 1.3637445214
H -2.7282397172 0.9783872242 0.2144755332
H -2.8553307024 0.0567645334 -1.2832579280
H -1.7870016593 -1.8987348155 -0.1687054408
H -1.6546952860 -0.9739295450 1.3256640508
H -0.3374388224 -0.2441361786 -1.3270626924
H -0.2246063976 0.6945323514 0.1637924878
H 0.8925525951 -1.2003362532 1.2970649784
H 0.6765906298 -2.2033972396 -0.1343708036
H 2.9509739980 -1.4578708516 -0.1164338504
H 2.1255031701 -0.6239366355 -1.4351556054
H 1.8988390704 1.4013495333 -0.0303248389
H 2.6959975321 0.5914738047 1.3272036598
H 4.0365984717 0.9383542678 -1.4131594576
28
CONF42
C -4.2754647312 1.0835971951 -0.1106500521
C -3.0465941944 0.4998513885 0.5763677511
C -2.0493667603 -0.0725230743 -0.4280128246
C -0.8174654892 -0.6578500682 0.2581328586
C 0.1877289020 -1.2036221011 -0.7530038079
C 1.3733971475 -1.9204863194 -0.1073970635
C 2.3203506318 -1.0081918318 0.6742973222
C 2.9717277453 0.0502167218 -0.2189168663
C 2.1633126812 1.2979814716 -0.3603497203
O 1.3766458449 1.7281386476 0.4489936442
H -4.9698624707 1.4846100949 0.6235007977
H -3.9872111246 1.8860995798 -0.7859857719
H -4.7883326668 0.3176310957 -0.6881450089
H -3.3559984591 -0.2891975639 1.2656311210
H -2.5527221194 1.2777441100 1.1633346637
H -1.7344694260 0.7208803424 -1.1108392567
H -2.5394365539 -0.8475679528 -1.0229136688
H -1.1256428580 -1.4587094182 0.9343573475
H -0.3483590672 0.1257127616 0.8561936889
H -0.3259458012 -1.9084822831 -1.4116269996
H 0.5474277070 -0.3790090508 -1.3752733953
H 0.9928617554 -2.6881474938 0.5693854472
H 1.9445066220 -2.4252113035 -0.8905824985
H 1.7807609719 -0.5057855013 1.4779824766
H 3.0954726383 -1.6277945087 1.1265932714
H 3.9164823376 0.3782184435 0.2261482506
H 3.2019514404 -0.3534029391 -1.2049749703
H 2.3666611270 1.8717143249 -1.2847581316
28
CONF157
C -4.3622412404 -0.2601348325 0.8371608773
C -3.7797350314 0.2919780834 -0.4592756332
C -2.2901261365 0.6235903526 -0.3589145629
C -1.4057716917 -0.6066692927 -0.1664089109
C 0.0782115349 -0.2497116690 -0.2177484905
C 0.9646495504 -1.4721995948 0.0077279843
C 2.4552946364 -1.1786269712 -0.1630131709
C 2.9712985235 -0.1534945785 0.8477782983
C 2.8315723032 1.2629799359 0.3989772882
O 2.6582562667 1.6390019780 -0.7350696182
H -5.4362953012 -0.3981437572 0.7379397487
H -3.9189075481 -1.2205250393 1.0855802556
H -4.1790402454 0.4288634308 1.6587253190
H -4.3195024455 1.2029187125 -0.7286075405
H -3.9327496074 -0.4317911215 -1.2629458845
H -2.1303981685 1.3171206267 0.4703175810
H -1.9826845047 1.1336700251 -1.2755749662
H -1.6281350378 -1.3351495679 -0.9497214612
H -1.6250377588 -1.0726423809 0.7957048094
H 0.3143525489 0.1952091909 -1.1877438049
H 0.2885438509 0.5076202989 0.5421422526
H 0.7853520994 -1.8667093797 1.0109378517
H 0.6810883568 -2.2478055409 -0.7068832225
H 3.0083426264 -2.1115616994 -0.0493668015
H 2.6372803268 -0.7956373775 -1.1693396842
H 2.4858109826 -0.2732103376 1.8172525991
H 4.0444910236 -0.2923769644 1.0123402378
H 2.9415900316 2.0052443707 1.2127158452
28
CONF457
C -4.4604298176 0.2762069688 0.6105809786
C -3.2767742225 -0.0576473644 -0.2902543442
C -2.2233152013 -0.8796552019 0.4494063009
C -1.0805402167 -1.3577942943 -0.4477213396
C -0.2469390916 -0.2420459258 -1.0836849020
C 0.4059792240 0.7266809653 -0.0944859385
C 1.3315622082 0.0785401917 0.9376077159
C 2.5557767580 -0.5930313018 0.3185693515
C 3.5494881220 0.3604487401 -0.2516460961
O 3.5149011364 1.5649554216 -0.1768422632
H -4.1303183498 0.8451467699 1.4770930444
H -5.1969574054 0.8677936813 0.0720353434
H -4.9415005577 -0.6338119189 0.9626444886
H -2.8337299765 0.8713772383 -0.6527596670
H -3.6289682675 -0.6202273792 -1.1581845594
H -2.7086022541 -1.7598611982 0.8794801425
H -1.8250935989 -0.2917573470 1.2779830593
H -1.5015757737 -1.9642288787 -1.2538816071
H -0.4282077552 -2.0077984203 0.1381470248
H 0.5231127962 -0.7034900493 -1.7058939691
H -0.8819277990 0.3402479676 -1.7540583573
H 0.9787091351 1.4647023332 -0.6611101025
H -0.3744079932 1.2704071864 0.4403400483
H 1.6769863142 0.8591486507 1.6191394928
H 0.7765873683 -0.6553205315 1.5216701606
H 3.0918445947 -1.1742846255 1.0746877257
H 2.2722106494 -1.2967395536 -0.4659223037
H 4.3921769261 -0.1342028587 -0.7723413093
28
CONF91
C -4.9912123666 0.1400841145 -0.6783028654
C -4.4492527209 -0.7007566656 0.4723854621
C -3.0307266865 -1.2168523005 0.2265213160
C -1.9780890055 -0.1102233271 0.2063313568
C -0.5657733588 -0.6746701576 0.0674886400
C 0.4903013435 0.4282982678 0.0407319480
C 1.9009100090 -0.1411215072 -0.0940630429
C 2.9557272461 0.9680894788 -0.1000581746
C 4.3283849329 0.4406462928 -0.3357416234
O 5.3303603251 0.8050148750 0.2320476813
H -4.4179944692 1.0554923487 -0.7967776114
H -4.9469006212 -0.4190232719 -1.6102918896
H -6.0273051265 0.4116538330 -0.4903914851
H -5.1092920851 -1.5584425001 0.6221252850
H -4.4628883448 -0.1099678960 1.3910755074
H -3.0048721157 -1.7579045294 -0.7222278313
H -2.7763007182 -1.9269595938 1.0173843817
H -2.0467745418 0.4675818614 1.1310336809
H -2.1720826489 0.5679980773 -0.6258924544
H -0.3630355768 -1.3493304110 0.9024807352
H -0.5015138607 -1.2603499947 -0.8523153243
H 0.2883263975 1.0996930501 -0.7963496025
H 0.4215318562 1.0135117595 0.9599239807
H 2.0970565921 -0.8208388756 0.7373597381
H 1.9730171389 -0.7155789820 -1.0195089000
H 2.7431382165 1.6529387110 -0.9268948565
H 2.9365566490 1.5415793457 0.8276778473
H 4.3880229428 -0.3448297740 -1.1116397901
28
CONF341
C -4.5243868178 -0.0190252625 -0.5255782024
C -3.5292689644 0.4703946226 0.5210416797
C -2.0721068101 0.3751804087 0.0652188988
C -1.5807860048 -1.0639833296 -0.0825302652
C -0.1081587194 -1.1546266467 -0.4872624087
C 0.8463394950 -0.7340394934 0.6300103242
C 2.3160754617 -1.0043936565 0.3012248707
C 2.8638399902 -0.0930277014 -0.7956997865
C 3.0348695581 1.3267479228 -0.3743877204
O 2.8737942675 1.7709019717 0.7365988501
H -4.3869508697 0.5195276624 -1.4605934904
H -4.4000900305 -1.0813018564 -0.7170926216
H -5.5427071140 0.1455956062 -0.1814293001
H -3.6557023601 -0.1063963900 1.4400759225
H -3.7511135727 1.5145246109 0.7547180174
H -1.4496840064 0.8929384814 0.7975983334
H -1.9606169025 0.8943608548 -0.8899807910
H -2.1784739654 -1.5681807900 -0.8439073045
H -1.7290085387 -1.5932656369 0.8617723116
H 0.1139978800 -2.1888784996 -0.7614357939
H 0.0474610916 -0.5335158746 -1.3713318445
H 0.7259294271 0.3268540053 0.8532674862
H 0.5882817975 -1.2904863015 1.5339243498
H 2.9088953678 -0.8470461301 1.2046945985
H 2.4316022875 -2.0452302879 -0.0051821113
H 3.8507960123 -0.4368914588 -1.1184569335
H 2.2271717387 -0.1084300075 -1.6819296321
H 3.3556668083 1.9981060984 -1.1941146469
28
CONF92
C -4.9931900449 0.1913088032 -0.6240871681
C -4.4462555675 -0.7324267848 0.4587300474
C -3.0305827136 -1.2323074747 0.1672557050
C -1.9765724726 -0.1276888313 0.2124877572
C -0.5646872183 -0.6840853478 0.0404107627
C 0.4903827321 0.4199677036 0.0616779061
C 1.9015916287 -0.1405147003 -0.1011045157
C 2.9530448496 0.9715275960 -0.0751350283
C 4.3259868952 0.4579751502 -0.3380262715
O 5.3310905414 0.8103300430 0.2317455846
H -6.0284662374 0.4478904057 -0.4120672937
H -4.4204946420 1.1131887309 -0.6766081292
H -4.9529230370 -0.2970098838 -1.5952145156
H -5.1074864849 -1.5973459426 0.5501197250
H -4.4525939141 -0.2099164998 1.4179521698
H -3.0131657197 -1.7085131893 -0.8158230668
H -2.7709890328 -1.9941188909 0.9066484568
H -2.0444876555 0.3946902625 1.1696361339
H -2.1700290218 0.5985788307 -0.5783204880
H -0.3579191370 -1.3980789123 0.8409790605
H -0.5042686552 -1.2246567884 -0.9068686971
H 0.2860576265 1.1278163673 -0.7442305303
H 0.4225438922 0.9635087292 1.0061615968
H 2.1045886783 -0.8482629445 0.7048560532
H 1.9695547412 -0.6821027034 -1.0464478295
H 2.7331192336 1.6838373680 -0.8765431583
H 2.9379593640 1.5130110725 0.8717406298
H 4.3826680539 -0.3036184786 -1.1376537596
28
CONF354
C -4.1953004086 0.9548749546 -0.0107749468
C -3.9022004048 -0.5336017313 0.1417690346
C -2.4278921602 -0.8298025912 0.4208882445
C -1.5163511154 -0.4947178291 -0.7590202118
C -0.0852854375 -1.0049760797 -0.5809480476
C 0.6721979658 -0.2795160046 0.5303073956
C 2.1153812557 -0.7633229748 0.6909785495
C 3.0318012773 -0.3187083745 -0.4475785863
C 3.3534858140 1.1370152512 -0.4312800435
O 3.0396287113 1.9325268023 0.4207498938
H -5.2641455239 1.1191369638 -0.1258554059
H -3.8567948966 1.5000682888 0.8676611687
H -3.6937217692 1.3634108957 -0.8839181313
H -4.2107623812 -1.0585307161 -0.7653241444
H -4.4979886236 -0.9264036136 0.9691472904
H -2.3242199931 -1.8929042226 0.6521631592
H -2.1167415674 -0.2651102905 1.3013861648
H -1.4884599095 0.5860096824 -0.9090029542
H -1.9371589536 -0.9459242838 -1.6613586005
H -0.1088197421 -2.0749086123 -0.3607487224
H 0.4405257499 -0.8725184169 -1.5286038149
H 0.6731355682 0.7951007152 0.3354491917
H 0.1536876017 -0.4404358339 1.4763846947
H 2.5147552063 -0.3629350039 1.6250850687
H 2.1231957364 -1.8523184188 0.7562428445
H 3.9895781209 -0.8440989102 -0.3930393853
H 2.6045717602 -0.5582629533 -1.4229513541
H 3.9526513986 1.4694436009 -1.3008490932
28
CONF295
C -4.9553242792 -0.0755509519 -0.4111391544
C -4.0160381030 -0.9610879013 0.4005078907
C -2.6388538590 -0.3356912552 0.6295716818
C -1.8145832139 -0.2121330717 -0.6508626532
C -0.4161034526 0.3643067751 -0.4153307687
C 0.5327606363 -0.6238110410 0.2619483831
C 1.9062796816 -0.0260171279 0.5644916397
C 2.7123734203 0.2947127530 -0.6915834992
C 4.1116572754 0.7134480641 -0.3993731905
O 4.6108534198 0.8119742025 0.6958527935
H -5.9422344375 -0.5285800934 -0.4694350366
H -5.0537326115 0.9017482158 0.0563425573
H -4.5866208495 0.0617897563 -1.4240143552
H -3.8948365350 -1.9213481671 -0.1059451410
H -4.4734302330 -1.1571910601 1.3732588229
H -2.0986702015 -0.9544552122 1.3484449141
H -2.7640814554 0.6546920347 1.0738057021
H -2.3418681327 0.4403470832 -1.3486298715
H -1.7246606227 -1.1955630754 -1.1181672826
H -0.0002973208 0.6548490402 -1.3815226681
H -0.4981915149 1.2649431619 0.1973368199
H 0.0941518550 -0.9557878231 1.2038362880
H 0.6519167736 -1.5032966533 -0.3747123061
H 1.7901490094 0.8838059558 1.1568403439
H 2.4806816653 -0.7316248940 1.1690051506
H 2.7633651623 -0.5757224108 -1.3514796717
H 2.2490188848 1.0988175517 -1.2676802739
H 4.7100417003 0.9435321294 -1.3011907993
28
CONF518
C -4.2768678547 -0.5986854941 0.4279999911
C -3.2614599625 -0.4904548854 -0.7040817377
C -2.1828900844 0.5639246140 -0.4486648943
C -1.2968313633 0.3010725677 0.7712154557
C -0.5251475870 -1.0198947660 0.7372104614
C 0.4063232150 -1.1948999493 -0.4648313755
C 1.4704488087 -0.1085304358 -0.6171401589
C 2.4305586039 -0.0413617696 0.5671515434
C 3.5518927566 0.9164314175 0.3589440365
O 3.7289039072 1.6027849216 -0.6189462619
H -3.8099708620 -0.9637041554 1.3389548853
H -4.7214406178 0.3728685080 0.6334655187
H -5.0720692291 -1.2888911207 0.1557492997
H -3.7870649586 -0.2205505664 -1.6235497313
H -2.7972932599 -1.4637390639 -0.8703784548
H -2.6706682895 1.5324712599 -0.3096033483
H -1.5558770941 0.6438999407 -1.3387992130
H -1.9157234075 0.3115659220 1.6705114523
H -0.5924122549 1.1306496316 0.8610940435
H 0.0542536970 -1.0999547020 1.6590659628
H -1.2353416638 -1.8487650306 0.7376433332
H 0.9034448611 -2.1636099998 -0.3718770545
H -0.1884164140 -1.2236803994 -1.3789605350
H 2.0512304721 -0.3079337237 -1.5208461059
H 1.0010376855 0.8667140235 -0.7524856413
H 1.9135301414 0.2631429788 1.4802576502
H 2.8694942715 -1.0226243955 0.7675006407
H 4.2620677030 0.9692762459 1.2059651305
28
CONF297
C -4.9663531484 -0.0405838832 -0.3466147931
C -4.0044525688 -1.0541963775 0.2636561548
C -2.6393946831 -0.4608641696 0.6172788099
C -1.8269986554 -0.0527427379 -0.6105007343
C -0.4344526060 0.4817310066 -0.2669303393
C 0.5240577193 -0.6068882905 0.2142133821
C 1.9199532760 -0.0766040440 0.5401823790
C 2.6932229483 0.3766087796 -0.6956573921
C 4.1131983234 0.7209810750 -0.4064480456
O 4.6520541433 0.6705413442 0.6731363915
H -5.0851831593 0.8153426272 0.3141176556
H -4.6044642866 0.3131007470 -1.3082025218
H -5.9429466054 -0.4940397484 -0.4992861719
H -3.8650943989 -1.8854833662 -0.4312456940
H -4.4530143069 -1.4581175326 1.1744411167
H -2.0818365752 -1.2061204897 1.1873318499
H -2.7819539238 0.4103570579 1.2610630402
H -2.3689864071 0.7253748364 -1.1504617193
H -1.7271063017 -0.9123681419 -1.2774289706
H -0.0223203047 0.9524657882 -1.1610454383
H -0.5239540522 1.2509593067 0.5034440057
H 0.1188208876 -1.0700403659 1.1147384378
H 0.6013356138 -1.3830306368 -0.5504452866
H 1.8442569501 0.7567069737 1.2415082548
H 2.4967068925 -0.8614102512 1.0348100154
H 2.6975521572 -0.4077119158 -1.4577053518
H 2.2347056023 1.2559623289 -1.1535260003
H 4.6872058912 1.0453418609 -1.2950612951
28
CONF352
C -4.2066438852 0.9449253842 -0.0756754767
C -3.8995729575 -0.5456539009 -0.1678298913
C -2.4186820180 -0.8401511611 -0.4116186028
C -1.5280187200 -0.4417686299 0.7646763828
C -0.0965419056 -0.9671759874 0.6438329485
C 0.6818359520 -0.3207296255 -0.5012224818
C 2.1280740417 -0.8124536943 -0.5981153798
C 3.0229511044 -0.2790886328 0.5192558306
C 3.3498062877 1.1699334643 0.3914599712
O 3.0523662045 1.8950293095 -0.5266972442
H -3.8565199102 1.4602393731 -0.9674558783
H -5.2785961485 1.1044961550 0.0143941503
H -3.7238612526 1.3891116776 0.7905914670
H -4.4786149600 -0.9741236124 -0.9893560373
H -4.2190360713 -1.0387895666 0.7532329982
H -2.0990896105 -0.3139852150 -1.3127539203
H -2.3025398234 -1.9118312208 -0.5916889061
H -1.9676866260 -0.8391696993 1.6831699090
H -1.4978621021 0.6456860136 0.8531294823
H 0.4147101422 -0.7736105722 1.5889599558
H -0.1211977606 -2.0493811175 0.4952939870
H 0.1817395970 -0.5494419181 -1.4432430095
H 0.6787684788 0.7650287829 -0.3833572620
H 2.1378150766 -1.9031980878 -0.5790115025
H 2.5444808678 -0.4845040908 -1.5527795369
H 2.5745467936 -0.4372141346 1.5017466564
H 3.9795809483 -0.8092041677 0.5279692185
H 3.9349518686 1.5702091479 1.2417444804
28
CONF409
C -4.6947128191 -0.2789365634 -0.5729880400
C -3.8038584266 0.2066811264 0.5653797327
C -2.4303650411 -0.4667140105 0.5915177808
C -1.5392067278 -0.0573524350 -0.5798756906
C -0.1648432739 -0.7298733966 -0.5591916748
C 0.7417196336 -0.2117699734 0.5565391518
C 2.1247095418 -0.8676076353 0.5609931469
C 3.0139812202 -0.4079948287 -0.5930236967
C 3.5076868673 0.9919935158 -0.4545894925
O 3.3442617881 1.7207449425 0.4938494911
H -4.2768630351 -0.0106898573 -1.5395619502
H -4.8057377570 -1.3602560923 -0.5325155271
H -5.6818904574 0.1705686750 -0.4954842322
H -4.3070734356 0.0040015607 1.5138066108
H -3.6716591504 1.2882956081 0.4875659756
H -2.5625667207 -1.5512071670 0.5817458848
H -1.9371238593 -0.2001625282 1.5279553071
H -1.4082092589 1.0276095649 -0.5708023719
H -2.0367156462 -0.3240440330 -1.5139584516
H -0.2950888301 -1.8085694549 -0.4456671706
H 0.3116988113 -0.5528314883 -1.5253738618
H 0.8576165421 0.8703566457 0.4650214758
H 0.2704506069 -0.4093670331 1.5203025430
H 2.6264306709 -0.6163574040 1.4977515741
H 2.0076902860 -1.9513789877 0.5172466659
H 3.9034459567 -1.0404954201 -0.6641897243
H 2.5001996121 -0.4903488794 -1.5524559955
H 4.0874772553 1.3472178847 -1.3282302230
28
CONF502
C -4.5423504721 0.1455465276 -0.0563461540
C -3.4598180414 -0.6234338844 -0.8058018843
C -2.2016844019 -0.8700330827 0.0293537027
C -1.4034560485 0.4037681341 0.2995984351
C -0.1727426697 0.1697653442 1.1786108535
C 0.8779537063 -0.7801332526 0.5964716315
C 1.4106663021 -0.3962682020 -0.7858332003
C 2.1253621246 0.9533779736 -0.8099222365
C 3.4261867245 0.9671108029 -0.0825717768
O 3.9841629258 0.0169187168 0.4106896569
H -5.4374880431 0.2279031239 -0.6683920696
H -4.8035389423 -0.3691895793 0.8656697979
H -4.2100517957 1.1497645145 0.1923577552
H -3.1888701745 -0.0775399832 -1.7123543980
H -3.8673837115 -1.5896289241 -1.1125761913
H -1.5704963922 -1.5819604050 -0.5051334891
H -2.4854102367 -1.3273142355 0.9802322020
H -2.0431242922 1.1248373263 0.8118351290
H -1.1052418375 0.8494661716 -0.6507753217
H 0.2903081549 1.1352678300 1.3940910979
H -0.5014160416 -0.2442789250 2.1351666856
H 1.7185372813 -0.8301312744 1.2924855745
H 0.4558479323 -1.7844146544 0.5325913395
H 2.1189025404 -1.1661323214 -1.1000049392
H 0.5920157335 -0.3813400052 -1.5051499326
H 2.3508025675 1.2432145509 -1.8405224268
H 1.4976958040 1.7453542775 -0.3979922137
H 3.8953463282 1.9686313427 -0.0298138466
28
CONF446
C -3.8514615580 1.0192686532 -0.1258633447
C -3.6965866789 -0.4976829964 -0.1389121070
C -2.2533142711 -0.9518280220 -0.3628616575
C -1.3279457854 -0.5990495498 0.8003460959
C 0.0544311037 -1.2444090657 0.6835336439
C 0.8564784642 -0.8352939858 -0.5550829478
C 1.0857774960 0.6692240067 -0.7157792345
C 1.9027009239 1.2840621351 0.4189341381
C 3.3336313807 0.8671031011 0.4334810418
O 3.8977365873 0.2048421656 -0.4036131445
H -3.4514313186 1.4489672224 -1.0416831602
H -4.9020904418 1.2899529220 -0.0514005896
H -3.3287953034 1.4573276624 0.7200034020
H -4.3178586215 -0.9079905770 -0.9386156435
H -4.0623434799 -0.9078098348 0.8053021940
H -1.8812767746 -0.4985609744 -1.2832039390
H -2.2452216682 -2.0361854222 -0.4998739735
H -1.7870838159 -0.9467862702 1.7295060096
H -1.2218734491 0.4830598593 0.8731902691
H 0.6274990150 -1.0111482524 1.5835872667
H -0.0670088541 -2.3303377743 0.6575448801
H 1.8278822516 -1.3337873603 -0.5169444021
H 0.3440712850 -1.1999092327 -1.4468303188
H 1.6233823080 0.8303774363 -1.6528017477
H 0.1273766097 1.1831069356 -0.7871191474
H 1.9058974836 2.3749136574 0.3343488260
H 1.4709613191 1.0523318929 1.3940031042
H 3.8967779458 1.2400875959 1.3107923612
28
CONF61
C -4.8159485111 0.4776084940 -0.2726286593
C -3.5426427825 -0.2863450697 -0.6159769531
C -2.4044063361 0.0429764567 0.3475019011
C -1.1274231109 -0.7250088954 0.0135025365
C 0.0098147720 -0.3728468968 0.9704474487
C 1.2597965364 -1.2340337276 0.7791617617
C 1.8943734961 -1.1529202014 -0.6114294744
C 2.3031965614 0.2706891906 -1.0008623223
C 3.2840639130 0.8476435390 -0.0400417804
O 3.2518510277 1.9659971302 0.4156984523
H -5.1489966247 0.2301653132 0.7328594243
H -4.6407199219 1.5501172580 -0.3196122310
H -5.6121201539 0.2282695636 -0.9697603038
H -3.2357652285 -0.0392113680 -1.6347635000
H -3.7434508935 -1.3595134886 -0.5818603137
H -2.7156284869 -0.1968700943 1.3671639341
H -2.2002461190 1.1159853215 0.3108407954
H -0.8378176586 -0.4931211074 -1.0125668073
H -1.3272039061 -1.7975777187 0.0707430176
H 0.2673084689 0.6828776094 0.8634659141
H -0.3407725277 -0.5116968979 1.9963157500
H 1.9999332901 -0.9292522473 1.5239588278
H 1.0009428039 -2.2765911369 0.9768553513
H 2.7791853744 -1.7922082056 -0.6223847105
H 1.1981333916 -1.5358808600 -1.3567889051
H 2.8052370423 0.2370435253 -1.9719330686
H 1.4400732527 0.9303815110 -1.0874244009
H 4.1011440694 0.1584179263 0.2442237600
28
CONF62
C -4.8392624704 0.4511972277 -0.2720324114
C -3.5578135343 -0.2990730927 -0.6148377546
C -2.4232158604 0.0396893268 0.3497041035
C -1.1403077950 -0.7177941267 0.0144239897
C -0.0035249515 -0.3583268042 0.9692045717
C 1.2491022773 -1.2158333599 0.7776585009
C 1.8813759105 -1.1346027826 -0.6138638737
C 2.3090276904 0.2855157107 -0.9946906940
C 3.3162610447 0.8345633287 -0.0447129757
O 3.3180880089 1.9517446913 0.4150627628
H -5.6321200695 0.1937864538 -0.9700761657
H -5.1705622642 0.1996280261 0.7330242780
H -4.6755102808 1.5255950409 -0.3183237253
H -3.2524417030 -0.0472056604 -1.6329149880
H -3.7477944368 -1.3743046100 -0.5828078159
H -2.7326771134 -0.2037613844 1.3690002006
H -2.2281425890 1.1143802511 0.3140065371
H -0.8540441638 -0.4830304922 -1.0118970731
H -1.3320095610 -1.7918563236 0.0713130889
H 0.2493685998 0.6981517347 0.8593649133
H -0.3518779706 -0.4964477004 1.9958931352
H 1.9897413077 -0.9083513008 1.5208865335
H 0.9930679656 -2.2588384904 0.9768727299
H 2.7576454826 -1.7854674809 -0.6310448361
H 1.1784036053 -1.5038810332 -1.3597465492
H 2.7947634491 0.2541547463 -1.9741447602
H 1.4568532751 0.9616239040 -1.0603846995
H 4.1195617953 0.1239929486 0.2263527134
28
CONF504
C -4.5502037584 0.1387064118 0.1602361744
C -3.4614012304 -0.7402580316 0.7661685531
C -2.2186533424 -0.8643901495 -0.1177876887
C -1.4193993847 0.4336371607 -0.2136931721
C -0.2001391625 0.3250231582 -1.1322737997
C 0.8633813958 -0.6856343154 -0.6934013120
C 1.4289535044 -0.4690770332 0.7120225727
C 2.1597906625 0.8623530351 0.8741657233
C 3.4497304051 0.9419090579 0.1315569496
O 3.9920205560 0.0430403010 -0.4648545850
H -5.4346938967 0.1317097827 0.7928669593
H -4.2145585453 1.1674213726 0.0610724114
H -4.8301316805 -0.2289308902 -0.8245640688
H -3.8711211680 -1.7397745765 0.9302160168
H -3.1717841653 -0.3392054802 1.7401304299
H -2.5204684419 -1.1773860675 -1.1202315150
H -1.5816728380 -1.6480062327 0.2960675552
H -1.1084407632 0.7392983419 0.7865822089
H -2.0628832690 1.2210482443 -0.6103728542
H -0.5406417873 0.0372498411 -2.1301211905
H 0.2549315323 1.3135109525 -1.2258863182
H 0.4425031891 -1.6913017518 -0.7411186848
H 1.6874611830 -0.6496806651 -1.4098063538
H 0.6259427733 -0.5301868900 1.4463057534
H 2.1351068747 -1.2760779310 0.9196340737
H 1.5356899889 1.7018745829 0.5635346820
H 2.4052871396 1.0332568342 1.9266041204
H 3.9272043955 1.9399275485 0.1747485519
28
CONF130
C -4.1029966966 1.2710818489 -0.0970105024
C -2.8734410914 0.4509314945 -0.4703574936
C -2.4587746688 -0.4870179294 0.6617916764
C -1.3053050720 -1.4186871131 0.2891345990
C 0.0080078369 -0.6816975658 0.0342469414
C 1.1672361388 -1.6513696659 -0.1828623982
C 2.4701384951 -0.9534856846 -0.5742392974
C 2.9730461155 0.0001559006 0.5103898505
C 2.4068736074 1.3779584218 0.4173556933
O 1.8744227174 1.8684492713 -0.5487872239
H -4.3812317017 1.9354166858 -0.9114724118
H -4.9461706406 0.6184144189 0.1187407532
H -3.9030086396 1.8749075921 0.7854363665
H -2.0510034783 1.1283602909 -0.7074054379
H -3.0886638677 -0.1385510102 -1.3645528515
H -3.3215691377 -1.0955999678 0.9441680021
H -2.1751949106 0.1075148435 1.5337287471
H -1.5770877707 -1.9898920800 -0.6014700980
H -1.1550019738 -2.1303649157 1.1049023961
H -0.0879622451 -0.0415121366 -0.8445126203
H 0.2220632898 -0.0328004993 0.8876927402
H 1.3266658699 -2.2337765231 0.7280656815
H 0.8962946067 -2.3498589860 -0.9774059951
H 3.2273692477 -1.7136082685 -0.7692222373
H 2.3153947171 -0.3837426398 -1.4929055829
H 2.7843195609 -0.3994692720 1.5077357043
H 4.0559362097 0.1338586928 0.4230853233
H 2.5442487856 1.9825657432 1.3343740996
28
CONF530
C -4.2132094424 -0.4157574556 0.8356489934
C -3.6024275538 0.2835428247 -0.3735734500
C -2.5386808613 -0.5559524106 -1.0841739576
C -1.3033933428 -0.8905901498 -0.2448563821
C -0.4771931931 0.3388293332 0.1285969437
C 0.7453019226 0.0083413961 0.9884209750
C 1.8091137179 -0.8582120511 0.3098730053
C 2.4973546650 -0.1635052894 -0.8634305441
C 3.4116113068 0.9429366853 -0.4611716488
O 3.7129874875 1.2514213675 0.6664852832
H -3.4761878155 -0.5512673664 1.6226161101
H -5.0315110970 0.1762609492 1.2389254195
H -4.6018902361 -1.3919891038 0.5540003667
H -3.1767710608 1.2394206724 -0.0640620872
H -4.3963035366 0.5004629113 -1.0926229684
H -2.2178709668 -0.0205636154 -1.9814653727
H -2.9993181752 -1.4928216657 -1.4075549333
H -0.6860268854 -1.5769673715 -0.8269057864
H -1.6046662755 -1.4127850603 0.6643482185
H -0.1717728626 0.8594348776 -0.7811909552
H -1.1006017061 1.0292394478 0.6994673966
H 1.2137371728 0.9414368013 1.3100369889
H 0.4053847001 -0.5108751929 1.8875275770
H 2.5689451738 -1.1048973764 1.0546159837
H 1.3625604331 -1.7907276045 -0.0341573527
H 3.1102134753 -0.8775240366 -1.4212699741
H 1.7714998698 0.2379219725 -1.5726659362
H 3.8436446971 1.4966410180 -1.3170110159
28
CONF160
C -4.4695204655 -0.3695429344 0.5489229741
C -3.7413683397 0.3279645834 -0.5946427939
C -2.2842859826 0.6600382238 -0.2692768665
C -1.4008440098 -0.5757991443 -0.1125828030
C 0.0655162223 -0.2021914430 0.0931852427
C 0.9478518371 -1.4370674488 0.2584271031
C 2.4084699185 -1.1019651331 0.5611246866
C 3.0808652273 -0.3301457444 -0.5751304738
C 2.9164467403 1.1502499420 -0.4826703655
O 2.6086406367 1.7742697105 0.5039077230
H -4.0354008434 -1.3449546438 0.7502606564
H -4.4115675939 0.2283790395 1.4556399287
H -5.5178811970 -0.5104940386 0.2969726292
H -4.2642114187 1.2580804805 -0.8293280933
H -3.7754727955 -0.3036785767 -1.4851498585
H -2.2445490326 1.2498756924 0.6496110832
H -1.8791938830 1.2802379365 -1.0732302599
H -1.4922163830 -1.1990682421 -1.0055607699
H -1.7387401507 -1.1642362708 0.7417325651
H 0.4071340665 0.3871808161 -0.7619648102
H 0.1603545437 0.4323028126 0.9779660728
H 0.5548634421 -2.0419302091 1.0783461063
H 0.8953232421 -2.0407248954 -0.6510455281
H 2.4625822974 -0.4992655100 1.4701034485
H 2.9488328189 -2.0325677571 0.7375702473
H 4.1627844119 -0.4948347085 -0.5547771022
H 2.7282062324 -0.6713759283 -1.5492158125
H 3.1460941822 1.6876528605 -1.4228512228
28
CONF75
C -3.9620801095 1.3040012804 -0.1428575453
C -3.2947013977 -0.0135296558 -0.5199214618
C -2.0246018971 -0.2604952699 0.2917671374
C -1.3531898202 -1.5780146136 -0.0901651048
C -0.1595624943 -1.9356417430 0.7979209897
C 0.9992873440 -0.9380084741 0.7580391837
C 1.6534363721 -0.8262498138 -0.6180407769
C 2.8431643088 0.1351900457 -0.5845800959
C 2.4120803367 1.5364736797 -0.3196489896
O 2.9679626024 2.3225424209 0.4101260965
H -4.2346079832 1.3047754942 0.9102512274
H -3.2874613663 2.1386991206 -0.3208462752
H -4.8631709860 1.4592825526 -0.7310750778
H -3.0462814362 -0.0027949385 -1.5837390164
H -3.9951620374 -0.8350184721 -0.3530263131
H -2.2751683291 -0.2781804731 1.3552360221
H -1.3364013254 0.5708645634 0.1280552822
H -1.0421190446 -1.5372204544 -1.1351508881
H -2.0897649028 -2.3808372265 -0.0046105004
H -0.5069067999 -2.0177933801 1.8304084356
H 0.2141705577 -2.9170730597 0.4970033862
H 0.6545859019 0.0477962414 1.0776410513
H 1.7530283173 -1.2625181394 1.4795707124
H 1.9956147187 -1.8114458686 -0.9369572499
H 0.9274945410 -0.4657496083 -1.3473362821
H 3.5826992344 -0.1683153391 0.1577838197
H 3.3254154517 0.1445511012 -1.5662988366
H 1.5046538710 1.8440452383 -0.8729519161
28
CONF81
C -5.2776592553 0.2213142779 0.0261822489
C -3.8275289251 0.0070094770 -0.3921333667
C -3.1431814906 -1.0484587078 0.4747116556
C -1.7210283878 -1.3818916911 0.0222818396
C -0.7347696503 -0.2330965826 0.2254159592
C 0.6907285273 -0.6417491675 -0.1406366150
C 1.6772313477 0.5076866000 0.0542632610
C 3.1054351601 0.0878742748 -0.3017379162
C 4.0663632784 1.2223845551 -0.2153494624
O 5.1861152520 1.1645889192 0.2341107713
H -5.3300508378 0.5491356725 1.0620743612
H -5.7486820050 0.9771820376 -0.5975679389
H -5.8431009179 -0.7032378321 -0.0681672110
H -3.2916852857 0.9540774830 -0.3134880883
H -3.7952022668 -0.3103440978 -1.4369012711
H -3.7411797194 -1.9627015645 0.4447982128
H -3.1210236343 -0.7041018277 1.5113289016
H -1.7364265722 -1.6631491791 -1.0331763689
H -1.3698155020 -2.2477162626 0.5888265022
H -1.0291710933 0.6185332842 -0.3896195786
H -0.7632925880 0.0841744150 1.2703082208
H 0.9933008745 -1.4883876593 0.4789649163
H 0.7142086502 -0.9678184595 -1.1824965509
H 1.3802568531 1.3506766657 -0.5725149654
H 1.6468070476 0.8373978202 1.0945179541
H 3.4487208232 -0.7335221550 0.3287179461
H 3.1244040287 -0.2524379854 -1.3418457206
H 3.6810896883 2.1780128515 -0.6165404450
28
CONF131
C -4.1108732121 1.2625384293 0.1242274189
C -2.8791760233 0.4375784061 0.4794609308
C -2.4586829897 -0.4698146222 -0.6752489702
C -1.3049110515 -1.4088533181 -0.3225080930
C 0.0075753471 -0.6774601882 -0.0480331705
C 1.1650224501 -1.6521864516 0.1555064951
C 2.4677189386 -0.9633005466 0.5630344003
C 2.9775826244 0.0053380894 -0.5049329010
C 2.4146646847 1.3830714376 -0.3934492330
O 1.8804055894 1.8606088939 0.5781905655
H -4.3931210652 1.9052049429 0.9545501780
H -3.9113420746 1.8890273263 -0.7424005093
H -4.9512823014 0.6125092869 -0.1095453715
H -3.0943544106 -0.1752062967 1.3578652685
H -2.0597560776 1.1117005694 0.7355671032
H -2.1731657886 0.1475740038 -1.5305206199
H -3.3193249828 -1.0724994850 -0.9763120148
H -1.1525550391 -2.1011646577 -1.1543924076
H -1.5778923352 -2.0009477067 0.5539833876
H 0.2256776703 -0.0125328115 -0.8879962108
H -0.0917637385 -0.0540656846 0.8423407020
H 0.8907036839 -2.3641329034 0.9368245197
H 1.3264529387 -2.2187945426 -0.7649705401
H 2.3103222691 -0.4071528861 1.4895262212
H 3.2223273245 -1.7280736543 0.7497577302
H 4.0604149407 0.1349031074 -0.4109659600
H 2.7921037429 -0.3786474787 -1.5089870691
H 2.5568602963 2.0008723487 -1.3009116575
28
CONF73
C -3.9768713550 1.2970430703 0.1372269499
C -3.3010275132 -0.0074502878 0.5432084875
C -2.0373394236 -0.2717454502 -0.2730109005
C -1.3561115557 -1.5745454527 0.1406905719
C -0.1651185420 -1.9492822050 -0.7437348354
C 0.9902425210 -0.9468299526 -0.7334049540
C 1.6444703559 -0.7930249467 0.6385966451
C 2.8460608585 0.1519222076 0.5725515959
C 2.4339075475 1.5468241178 0.2505078703
O 3.0020545219 2.2957776924 -0.5081621428
H -3.3041963479 2.1387460948 0.2875361046
H -4.2581225740 1.2690144570 -0.9132074826
H -4.8736919854 1.4642302375 0.7286985836
H -3.9998560569 -0.8356319022 0.4048785820
H -3.0430318678 0.0327236950 1.6040787305
H -1.3516598802 0.5671229857 -0.1398683443
H -2.2975559388 -0.3213876442 -1.3331493880
H -2.0884661867 -2.3835913043 0.0809726692
H -1.0394982585 -1.5036307570 1.1824214795
H 0.2137870045 -2.9214688060 -0.4201160749
H -0.5163862068 -2.0585229566 -1.7723833406
H 1.7446940211 -1.2899777736 -1.4455370713
H 0.6423933930 0.0281174143 -1.0816093999
H 0.9220912088 -0.3980965298 1.3534570824
H 1.9748745479 -1.7700843751 0.9930183344
H 3.3243122240 0.1941303988 1.5553561310
H 3.5847519842 -0.1898428277 -0.1538197810
H 1.5294797820 1.8882787325 0.7885442175
28
CONF164
C -4.4490613242 -0.2597544216 0.6407990453
C -3.7491167491 0.2712494652 -0.6053173220
C -2.2783995858 0.6181116574 -0.3681971016
C -1.3976715418 -0.6054883701 -0.1247831983
C 0.0691381962 -0.2201054148 0.0541652751
C 0.9568998086 -1.4437505672 0.2680652990
C 2.4090182054 -1.0891861541 0.5891004293
C 3.0923051899 -0.3253517240 -0.5460364502
C 2.9091125963 1.1541992136 -0.4767278659
O 2.5708110374 1.7870654065 0.4940787801
H -4.3575334827 0.4518270988 1.4584637103
H -5.5059890865 -0.4183016083 0.4402798903
H -4.0187213011 -1.2058732023 0.9574792335
H -4.2678566319 1.1717931945 -0.9422233355
H -3.8194642748 -0.4693109444 -1.4051410584
H -2.2005519191 1.2934865036 0.4871919375
H -1.8985888841 1.1532433989 -1.2424675392
H -1.4911959377 -1.2902324175 -0.9712827479
H -1.7359036714 -1.1315734478 0.7691374021
H 0.4037247320 0.3319718532 -0.8282490345
H 0.1669470885 0.4530002195 0.9095970937
H 0.5534842223 -2.0298651267 1.0965117341
H 0.9255326234 -2.0715118811 -0.6258955721
H 2.4417865591 -0.4733399547 1.4902904142
H 2.9560432691 -2.0114099579 0.7876562139
H 4.1755413231 -0.4771190541 -0.5046646762
H 2.7608025841 -0.6838598549 -1.5214286784
H 3.1535182112 1.6821444943 -1.4183794175
28
CONF67
C -5.3252297401 0.0135219796 -0.0502539521
C -3.9040322653 0.2385821038 0.4522585645
C -2.8984568057 -0.6602454993 -0.2640984186
C -1.4722988830 -0.4428669665 0.2370798937
C -0.4737376821 -1.3402867771 -0.4919383231
C 0.9467743058 -1.2519262635 0.0675774780
C 1.6038613843 0.1055599913 -0.1766493262
C 3.0618162395 0.1068232665 0.2903044796
C 3.6938386734 1.4495328481 0.1669371065
O 4.8181486715 1.6665812170 -0.2179602034
H -6.0235910017 0.6629967859 0.4718723828
H -5.3901942888 0.2242149089 -1.1154290061
H -5.6276430161 -1.0185207274 0.1128148720
H -3.8635557840 0.0402463954 1.5257232433
H -3.6268063957 1.2839880809 0.2985477310
H -2.9382252410 -0.4600184057 -1.3374997773
H -3.1801915431 -1.7051454406 -0.1134695065
H -1.4324295735 -0.6539304571 1.3082480140
H -1.2048960936 0.6051840883 0.0927202350
H -0.8136311482 -2.3753751255 -0.4114652025
H -0.4619009734 -1.0801847807 -1.5527011502
H 0.9237335112 -1.4560473666 1.1399428137
H 1.5546746279 -2.0262606758 -0.4050425040
H 1.5663605783 0.3378847809 -1.2426775221
H 1.0578937830 0.8833258721 0.3581126129
H 3.0908822890 -0.1497945333 1.3539524684
H 3.6561059621 -0.6301740823 -0.2517383684
H 3.0433394349 2.2898684890 0.4726020663
28
CONF65
C -3.1904476274 1.5923805983 -0.4523259246
C -2.2513003734 0.6609605992 0.3055012093
C -2.2283052793 -0.7356651383 -0.3139563996
C -1.4503894693 -1.7634791693 0.5108067151
C 0.0203420807 -1.4153058621 0.7458495465
C 0.8261379072 -1.3215371686 -0.5481904755
C 2.3234451473 -1.1142459942 -0.3108473857
C 2.6260112299 0.2138172702 0.3936805888
C 2.0724564215 1.3646307957 -0.3744161060
O 1.3881959821 2.2513489083 0.0776291326
H -2.8788634209 1.6825513631 -1.4907787926
H -4.2087044413 1.2098776018 -0.4318213158
H -3.1845417367 2.5841572640 -0.0067753034
H -2.5757133316 0.5882076152 1.3462556772
H -1.2486484856 1.0939182294 0.2985989490
H -1.8132216880 -0.6758245022 -1.3217105867
H -3.2582108202 -1.0893976509 -0.4099029096
H -1.5102002694 -2.7300079614 0.0042155238
H -1.9381524061 -1.8698296781 1.4829236951
H 0.0767836216 -0.4709406438 1.2873629849
H 0.4590945958 -2.1896755734 1.3798239848
H 0.6851325907 -2.2423235396 -1.1187923529
H 0.4487595865 -0.4932069366 -1.1514553449
H 2.7147923071 -1.9310637166 0.2966020502
H 2.8373052629 -1.1311655124 -1.2736893968
H 2.2335063351 0.2258761016 1.4101337736
H 3.7093041076 0.3508429229 0.4385930053
H 2.3358616581 1.3620397315 -1.4487391943
28
CONF72
C -5.2984292434 0.0278518995 -0.1464633492
C -3.8743496032 0.3472154901 0.2928982253
C -2.8813852418 -0.7112486619 -0.1822563684
C -1.4529115772 -0.4004182372 0.2596050181
C -0.4661787872 -1.4585704105 -0.2307452693
C 0.9554916763 -1.2589647613 0.2965617059
C 1.6346002102 -0.0122267341 -0.2678610354
C 3.0841516207 0.0951823622 0.2123593370
C 3.7977382866 1.2498922194 -0.4004477260
O 4.5633518274 1.9891752741 0.1709598897
H -5.6160532311 -0.9301005487 0.2592146572
H -5.9873433804 0.7938331884 0.2011013480
H -5.3596331796 -0.0232258248 -1.2312703702
H -3.8371561669 0.4124136956 1.3827301097
H -3.5816591200 1.3211343538 -0.1061727225
H -2.9165988338 -0.7731814904 -1.2725424424
H -3.1789389975 -1.6854779437 0.2129477304
H -1.4170846293 -0.3511960172 1.3504703593
H -1.1704222413 0.5801592685 -0.1272210245
H -0.8205684254 -2.4397858772 0.0933071331
H -0.4507906987 -1.4587857138 -1.3228233379
H 0.9287208296 -1.1957592443 1.3861565478
H 1.5509748772 -2.1345994029 0.0293505578
H 1.6160785214 -0.0530984337 -1.3586215365
H 1.0906764633 0.8791427978 0.0461165525
H 3.1398051140 0.1636359810 1.2996871519
H 3.6284122779 -0.8020762036 -0.0989556759
H 3.5839765757 1.3998796897 -1.4749288251
28
CONF57
C -5.3167647977 0.3380823371 0.0877032661
C -4.1614977574 -0.6084365248 -0.2164191737
C -2.8116086260 0.0060917445 0.1470686516
C -1.6493286855 -0.9356586115 -0.1590216754
C -0.3004627765 -0.3209492534 0.2095242984
C 0.8567010826 -1.2643194775 -0.1139688203
C 2.2142993239 -0.7481415204 0.3637698418
C 2.6570746971 0.5225393828 -0.3666523819
C 4.0760550113 0.8713434567 -0.0783584927
O 4.5017937004 1.9847993379 0.1169883822
H -5.3388100402 0.5838961968 1.1470797576
H -5.2096948881 1.2626373610 -0.4752561082
H -6.2666071269 -0.1188019231 -0.1790369017
H -4.1683727579 -0.8591278608 -1.2796077188
H -4.2966633530 -1.5370620765 0.3427416525
H -2.8047391059 0.2547312143 1.2110193758
H -2.6793234290 0.9369269030 -0.4095935621
H -1.6558423887 -1.1806776470 -1.2236937180
H -1.7866047818 -1.8677769701 0.3941836641
H -0.1807114595 0.6164767320 -0.3355953704
H -0.2908674661 -0.0898527337 1.2771494904
H 0.6669284030 -2.2259825758 0.3676725590
H 0.8916091901 -1.4366905180 -1.1915431770
H 2.1680152212 -0.5484906646 1.4358437869
H 2.9623957641 -1.5265932433 0.2004868684
H 2.6003849288 0.3455035389 -1.4454229365
H 2.0199656404 1.3733054973 -0.1257917170
H 4.7650911020 0.0063842107 -0.0619606688
28
CONF532
C -4.1836070622 -0.4941070780 0.8390461358
C -3.6037387877 0.2901128803 -0.3327819008
C -2.5332747626 -0.4821543534 -1.1067937139
C -1.2852478806 -0.8522109234 -0.3018454612
C -0.4708491304 0.3622822107 0.1400739530
C 0.7403517757 -0.0013744000 1.0024548582
C 1.7976190286 -0.8707504568 0.3174817217
C 2.4831140345 -0.1784703037 -0.8587930624
C 3.3947899892 0.9319417435 -0.4616622055
O 3.7012052853 1.2418984592 0.6643009640
H -5.0149327257 0.0500469216 1.2812418562
H -4.5466197445 -1.4636676796 0.5050368953
H -3.4360840907 -0.6523667984 1.6117385918
H -3.1935269143 1.2341499155 0.0294754038
H -4.4114328311 0.5339805537 -1.0273391363
H -2.2295158332 0.1170949883 -1.9689646871
H -2.9820684279 -1.4028693095 -1.4880791256
H -0.6651142064 -1.4925753643 -0.9314845679
H -1.5713404493 -1.4338663189 0.5755665998
H -0.1545846383 0.9263765523 -0.7396681086
H -1.1054267917 1.0232615603 0.7330358588
H 1.2182382658 0.9194913885 1.3447582137
H 0.3866951802 -0.5327377136 1.8891260521
H 2.5596321488 -1.1212131314 1.0587762351
H 1.3453554376 -1.8010829830 -0.0250642148
H 3.0984936501 -0.8933362703 -1.4129244145
H 1.7558428428 0.2167613773 -1.5699254222
H 3.8192127968 1.4877819939 -1.3200036462
28
CONF517
C -4.0733491813 -1.1873899914 0.3574713312
C -3.2011100520 -0.5950151648 -0.7436498622
C -2.5503820560 0.7323411013 -0.3503542189
C -1.6019499836 0.6586850501 0.8489777336
C -0.4348123727 -0.3186572196 0.6975078588
C 0.4928041546 0.0288343288 -0.4655781490
C 1.7238891180 -0.8778973026 -0.5399605391
C 2.7587473368 -0.5734323956 0.5417088442
C 3.5082769999 0.6958138162 0.3174942417
O 3.4278448475 1.4163360163 -0.6477408364
H -4.8206414658 -0.4653725431 0.6794986975
H -4.5874573653 -2.0740920685 -0.0059968679
H -3.4754965286 -1.4719107747 1.2190810510
H -3.8196160447 -0.4189460371 -1.6273203628
H -2.4316926820 -1.3150559515 -1.0260186752
H -3.3399060606 1.4496575622 -0.1112057619
H -2.0084121397 1.1252923385 -1.2127755199
H -2.1725582330 0.3843254822 1.7383317865
H -1.1975721042 1.6600769282 1.0196464925
H 0.1288128291 -0.3045820829 1.6328780779
H -0.8158588082 -1.3322913655 0.5627883119
H -0.0586263460 -0.0682126702 -1.4017872954
H 0.8168651171 1.0686417056 -0.3830264815
H 1.4087822940 -1.9190866214 -0.4568938080
H 2.2000563224 -0.7425118955 -1.5132491718
H 2.3010626606 -0.5220443472 1.5313845797
H 3.5086475993 -1.3681549714 0.5890425694
H 4.2038017782 0.9525159156 1.1396258154
28
CONF74
C -5.2911325937 0.0589254403 0.1867708512
C -3.8731552288 0.3124895256 -0.3112733957
C -2.8774711963 -0.6880733177 0.2714841534
C -1.4535955986 -0.4346572822 -0.2191595783
C -0.4632990019 -1.4337238030 0.3764520370
C 0.9565804995 -1.2870538323 -0.1727964649
C 1.6347542159 0.0123721506 0.2582841954
C 3.0836759154 0.0712440697 -0.2322836475
C 3.7931903725 1.2886072031 0.2503182599
O 4.5527366678 1.9660833420 -0.4002959008
H -5.9813283792 0.7838386081 -0.2377924300
H -5.6218388366 -0.9378236544 -0.0965156191
H -5.3333889725 0.1378098568 1.2708365531
H -3.5685188623 1.3252025823 -0.0371595175
H -3.8543347224 0.2459463778 -1.4015097449
H -3.1818326479 -1.7003373500 -0.0051745674
H -2.9000753643 -0.6236078849 1.3619849548
H -1.1646248250 0.5823712346 0.0512031148
H -1.4303060391 -0.5090153091 -1.3089422827
H -0.4449030765 -1.3192804927 1.4624849042
H -0.8163202972 -2.4442419402 0.1581909635
H 1.5545185143 -2.1294271287 0.1815820688
H 0.9268811989 -1.3364831989 -1.2630129902
H 1.0894737172 0.8657509294 -0.1459697786
H 1.6174270624 0.0850303089 1.3474128744
H 3.6309948032 -0.7849986036 0.1744203503
H 3.1381926144 0.0212359305 -1.3206997887
H 3.5819439592 1.5522800554 1.3033047988
28
CONF95
C -3.7963253787 1.2832644610 -0.4326506914
C -2.9313871524 0.0345058385 -0.5603833901
C -2.3695875795 -0.3990258819 0.7921781226
C -1.6205032958 -1.7321298934 0.7458085221
C -0.3805295819 -1.7470673290 -0.1499521615
C 0.6996608587 -0.7630481170 0.2940030414
C 1.9838609618 -0.9310545120 -0.5165361267
C 3.0490699600 0.0793628162 -0.0866414980
C 2.6431496412 1.4790969905 -0.3970769737
O 2.8023319519 2.4373359782 0.3213313434
H -4.1815449439 1.5842188100 -1.4039344489
H -4.6395641369 1.0978688571 0.2291410306
H -3.2161745020 2.1073680067 -0.0226262134
H -2.1131791591 0.2404109891 -1.2522359882
H -3.5279958459 -0.7789490488 -0.9797365574
H -3.1992630717 -0.5012627342 1.4965343351
H -1.7131467292 0.3827833961 1.1789447615
H -2.3081999643 -2.5062108956 0.3965273494
H -1.3197849536 -1.9937356622 1.7633023200
H 0.0379138148 -2.7562884201 -0.1313697758
H -0.6672846209 -1.5329135215 -1.1805561000
H 0.3416287142 0.2625082623 0.1795709323
H 0.9166215068 -0.9197678153 1.3530976684
H 2.3717063548 -1.9408322203 -0.3776989482
H 1.7638465009 -0.7978940993 -1.5774998315
H 3.2762938902 -0.0096881413 0.9766505087
H 3.9680700867 -0.1043421157 -0.6505811880
H 2.1705863527 1.6054517486 -1.3892066766
28
CONF83
C -5.2592295794 0.2253592406 0.2261706339
C -3.8147949639 0.1210763454 -0.2498595474
C -3.1420957717 -1.1472636059 0.2720881758
C -1.7289063704 -1.3581189837 -0.2725846897
C -0.7241992863 -0.3223289467 0.2289494118
C 0.6946222522 -0.6402121849 -0.2390301503
C 1.6992332249 0.4012887802 0.2492543277
C 3.1165808142 0.0823397950 -0.2324263222
C 4.1266831399 1.0308505664 0.3134305790
O 5.0590332900 1.4958380920 -0.2979168583
H -5.7214240759 1.1353947014 -0.1486334388
H -5.8396297627 -0.6248477480 -0.1255584039
H -5.3011178283 0.2410895565 1.3130372098
H -3.2640429948 0.9988533766 0.0914621525
H -3.7928214101 0.1161486403 -1.3420392739
H -3.7554080119 -2.0065443619 -0.0104364603
H -3.1071602209 -1.1129652901 1.3635170204
H -1.7571207720 -1.3353030424 -1.3643925151
H -1.3858853442 -2.3512793683 0.0273132304
H -1.0041105274 0.6681142038 -0.1329689500
H -0.7483067797 -0.2978842507 1.3207413580
H 0.9842842791 -1.6256033146 0.1318841928
H 0.7124022608 -0.6779626581 -1.3300875005
H 1.4063758706 1.3864251529 -0.1188552768
H 1.6856848659 0.4343956621 1.3403060151
H 3.3986321419 -0.9102791614 0.1325137348
H 3.1745124726 0.0703738595 -1.3217168230
H 3.9749576832 1.2974431008 1.3757453016
28
CONF80
C -5.0068502225 0.6642025448 0.0080035892
C -4.1161522368 -0.5437739989 0.2740120287
C -2.6808728807 -0.3054068872 -0.1906510617
C -1.7882852763 -1.5153971058 0.0782015910
C -0.3708338360 -1.3618838197 -0.4751940071
C 0.4479725506 -0.2942141567 0.2484903905
C 1.8871574203 -0.2516951801 -0.2612015817
C 2.7027937252 0.8299261845 0.4515369940
C 4.1346004927 0.8196274107 0.0420845971
O 4.8143989184 1.7958051837 -0.1680757267
H -6.0224402175 0.4731628290 0.3459658311
H -4.6290410383 1.5391716633 0.5322928216
H -5.0353145318 0.8891067275 -1.0558923202
H -4.5236015270 -1.4153234281 -0.2436069152
H -4.1158237957 -0.7656651740 1.3436345888
H -2.2850500377 0.5702671544 0.3262179910
H -2.6817551773 -0.0890864256 -1.2616472923
H -2.2471462631 -2.3945638387 -0.3807598768
H -1.7386526843 -1.6952646468 1.1545340352
H 0.1442655476 -2.3208805339 -0.3820391941
H -0.4243497677 -1.1186419472 -1.5386685080
H -0.0109281929 0.6840066789 0.1012628760
H 0.4484048995 -0.5075090851 1.3194124029
H 2.3579316726 -1.2238874134 -0.1028716879
H 1.8841473174 -0.0527639759 -1.3346126771
H 2.2805001674 1.8221007952 0.2863551318
H 2.6894080534 0.6302049219 1.5276063988
H 4.5730474010 -0.1905029508 -0.0579672229
28
CONF79
C -5.0065321227 0.6611532475 -0.0819616024
C -4.1151022888 -0.5616938793 -0.2643759569
C -2.6820167719 -0.2937909194 0.1909505775
C -1.7879884521 -1.5177533845 0.0019172067
C -0.3741136022 -1.3309092290 0.5541324689
C 0.4475440519 -0.3042006835 -0.2235959716
C 1.8861258013 -0.2372221544 0.2852831397
C 2.7025441696 0.8088998102 -0.4776914592
C 4.1353131458 0.8147053744 -0.0714938740
O 4.8179086668 1.7982270168 0.0899976691
H -6.0211967413 0.4476696159 -0.4091070734
H -5.0378723799 0.9565439704 0.9644717494
H -4.6274197991 1.4992776907 -0.6624938062
H -4.1096625672 -0.8526507291 -1.3173089408
H -4.5255083303 -1.3976880549 0.3067959361
H -2.6877608430 -0.0110406281 1.2463435682
H -2.2840819882 0.5480814195 -0.3778640031
H -1.7313405858 -1.7624815969 -1.0612009280
H -2.2499526855 -2.3676460304 0.5102724653
H -0.4342697797 -1.0284347846 1.6019413388
H 0.1426755917 -2.2928406087 0.5180102273
H 0.4492270373 -0.5735692830 -1.2818181673
H -0.0100844542 0.6810788286 -0.1286992424
H 1.8819427521 0.0131337932 1.3478677377
H 2.3570429938 -1.2159139297 0.1744741811
H 2.6865698645 0.5602086146 -1.5434989905
H 2.2825519507 1.8084913373 -0.3574534748
H 4.5717854569 -0.1905533741 0.0754507131
28
CONF108
C -4.2547532492 0.5117350996 -1.0188308700
C -3.2119622998 -0.4764938533 -0.5091114746
C -2.4957207774 0.0537686168 0.7314698783
C -1.5573226986 -0.9658279224 1.3796874089
C -0.3983637623 -1.4332759854 0.4973234530
C 0.5590243118 -0.3092640644 0.1072246888
C 1.7733265944 -0.8412695975 -0.6521973125
C 2.7372726284 0.2867835891 -1.0244222244
C 3.3572698874 0.9076801801 0.1798646671
O 3.5467195342 2.0889269581 0.3478597189
H -3.7875176048 1.4607547624 -1.2729087057
H -4.7492938353 0.1236030051 -1.9060253892
H -5.0098230010 0.6969026115 -0.2578786595
H -2.4873876209 -0.6668881157 -1.3020989727
H -3.6986673904 -1.4237004423 -0.2656159022
H -3.2474591193 0.3393067210 1.4719681195
H -1.9404906960 0.9569421038 0.4721549414
H -2.1428626795 -1.8409757092 1.6719656739
H -1.1464965230 -0.5254332642 2.2917611525
H 0.1602241605 -2.1938455746 1.0484348112
H -0.7889231806 -1.9064664387 -0.4046093217
H 0.0401247440 0.4178823067 -0.5190551180
H 0.8954564648 0.2120959262 1.0078759140
H 2.2956347240 -1.5756749208 -0.0359839738
H 1.4398748358 -1.3420505472 -1.5618455554
H 3.5619436655 -0.1245490835 -1.6136645381
H 2.2418163548 1.0551166811 -1.6196572509
H 3.6677175146 0.1829141759 0.9554700526
28
CONF139
C -4.0359569635 1.3064843264 -0.2278915121
C -2.7525902896 0.5333104208 -0.5087906414
C -2.5218385995 -0.5665045642 0.5260437860
C -1.3210611584 -1.4593876744 0.2121634572
C 0.0152881910 -0.7234399067 0.2854910436
C 1.1953695032 -1.6729863120 0.0950554286
C 2.5521890817 -0.9823517032 0.2358033081
C 2.7778260758 0.0883643729 -0.8327822246
C 2.2529199796 1.4357046895 -0.4630876522
O 1.9857453091 1.8180290718 0.6505159307
H -4.8960494350 0.6410217766 -0.2543835488
H -3.9918738624 1.7695832711 0.7553899332
H -4.1822663643 2.0881777179 -0.9693436695
H -1.9104485355 1.2277380005 -0.5007833750
H -2.8095993647 0.0852868195 -1.5035701450
H -3.4170369030 -1.1915485757 0.5756573119
H -2.3830597571 -0.1100995567 1.5090523505
H -1.4421515506 -1.8892277505 -0.7850663945
H -1.3059668092 -2.2849460905 0.9278998749
H 0.0451224968 0.0519800615 -0.4824493539
H 0.1049185725 -0.2249655440 1.2539744097
H 1.1322229482 -2.4683784237 0.8407436846
H 1.1262290237 -2.1392770699 -0.8908871536
H 2.6207084014 -0.5121384084 1.2189836379
H 3.3359541890 -1.7371714339 0.1645582258
H 3.8498354848 0.2391644234 -0.9948048149
H 2.3530201167 -0.2130674735 -1.7912138787
H 2.1501745086 2.1284801698 -1.3204745812
28
CONF82
C -4.5965256659 -0.6338817339 0.4390411772
C -3.8582492976 0.5335605435 -0.2063230392
C -2.4976371092 0.1415141934 -0.7842758289
C -1.4713156234 -0.2362545534 0.2820700822
C -0.1010688120 -0.5231178050 -0.3285565568
C 0.9287635018 -0.8887431161 0.7388758876
C 2.2728174991 -1.3347046589 0.1598402372
C 2.9930006951 -0.2172793796 -0.6001194038
C 3.2911230706 0.9469409320 0.2800623484
O 3.1464796204 2.1097371616 -0.0138854054
H -4.7062721749 -1.4513098279 -0.2701699359
H -4.0603494466 -1.0010768866 1.3098997309
H -5.5877347949 -0.3213457697 0.7590501197
H -3.7200162416 1.3279454187 0.5306060828
H -4.4746834351 0.9364452997 -1.0132739365
H -2.1076546906 0.9845201016 -1.3605556021
H -2.6280401393 -0.6965770328 -1.4729562124
H -1.8111820173 -1.1196635046 0.8249310084
H -1.3806803347 0.5828042752 1.0000522785
H -0.1912493819 -1.3454018838 -1.0419795072
H 0.2310150354 0.3620534281 -0.8745633640
H 1.0837139948 -0.0281164248 1.3950373771
H 0.5278536594 -1.7016713504 1.3485340670
H 2.9114797235 -1.6765117717 0.9764116417
H 2.1125442105 -2.1741853375 -0.5176824326
H 3.9586008061 -0.5947080040 -0.9485747367
H 2.4246295985 0.1127513000 -1.4693890389
H 3.6872436730 0.6737670047 1.2760487366
28
CONF94
C -4.5751589096 0.7733400902 0.3408227431
C -3.6560463788 -0.4301357612 0.5144763344
C -2.3498526571 -0.2643431272 -0.2596705633
C -1.4233261596 -1.4639162077 -0.0729230261
C -0.1706088564 -1.4108219117 -0.9499254298
C 0.7515071969 -0.2186936862 -0.6879349086
C 1.3172008815 -0.1927423733 0.7314922292
C 2.3613177027 0.9140126130 0.8881618980
C 3.5769002011 0.6568122259 0.0657336209
O 4.1993923508 1.4864472148 -0.5539458908
H -4.0905118355 1.6784615305 0.7000736200
H -4.8247993040 0.9131990027 -0.7086522797
H -5.4984444474 0.6338345372 0.8978116999
H -4.1691370192 -1.3306154548 0.1690901461
H -3.4316111812 -0.5648674260 1.5750527182
H -1.8538091177 0.6459115139 0.0809253070
H -2.5744536169 -0.1437530636 -1.3222130433
H -1.9745237487 -2.3727414106 -0.3274062327
H -1.1387661053 -1.5429779696 0.9773491572
H 0.3966478499 -2.3323563348 -0.7986788885
H -0.4784985849 -1.3833180472 -1.9977929169
H 1.5838178700 -0.2663556469 -1.3964721887
H 0.2168859303 0.7117712280 -0.8841801863
H 0.5139259420 -0.0210238243 1.4470743769
H 1.7740082519 -1.1581827453 0.9576688099
H 1.9476884352 1.8913284951 0.6353006213
H 2.7001297184 0.9453467991 1.9278960147
H 3.9105734078 -0.3977226360 0.0651040064
28
CONF380
C -2.4999777488 1.7150233276 -0.1941519842
C -3.1677206192 0.3504815032 -0.0598948195
C -2.2216706357 -0.7098041121 0.5077929772
C -1.2532027733 -1.2571264291 -0.5406947935
C -0.1450573490 -2.1108285975 0.0817962468
C 0.9979543039 -1.2621274305 0.6439561300
C 1.9632001241 -0.8026049319 -0.4496751896
C 2.9260220922 0.2684216811 0.0578362038
C 2.2980356404 1.6167184821 0.1794501198
O 1.1955939980 1.9269056617 -0.2006684531
H -2.2188687029 2.0968925098 0.7853575962
H -1.5976875649 1.6583274506 -0.7978966277
H -3.1776915584 2.4279514898 -0.6579330353
H -3.5320485496 0.0217821073 -1.0358191977
H -4.0333511207 0.4494014716 0.5992660080
H -2.8065688871 -1.5404718360 0.9106610394
H -1.6609224390 -0.2707208219 1.3353517662
H -0.8042365080 -0.4264756699 -1.0858917101
H -1.8182720766 -1.8553809891 -1.2590011821
H -0.5771095987 -2.7192635189 0.8790790121
H 0.2602602703 -2.7922382720 -0.6690726083
H 0.5811713103 -0.3867771352 1.1452625600
H 1.5524822565 -1.8392162760 1.3872443216
H 2.5266418196 -1.6612643438 -0.8171745573
H 1.3969645027 -0.3876145348 -1.2852424977
H 3.3452223342 -0.0047071049 1.0285298035
H 3.7702400954 0.3877514937 -0.6273942397
H 2.9522658941 2.3742533182 0.6519298205
28
CONF146
C -4.6110452248 -0.0406978641 -0.9896467260
C -3.6952170023 -0.0885085689 0.2279059924
C -2.2203684132 -0.0768696327 -0.1688172714
C -1.3023775424 -0.1310331287 1.0509509592
C 0.1808694587 -0.0035020482 0.7009159953
C 0.7193089480 -1.2022327649 -0.0774012005
C 2.2370153885 -1.1647529828 -0.2589449627
C 2.6977900776 0.0333198919 -1.0906628402
C 2.9629820525 1.2638575328 -0.2894177222
O 3.1366858104 1.3159493302 0.9041419138
H -4.4290757495 0.8629371084 -1.5671515761
H -4.4341683698 -0.8996480832 -1.6330083837
H -5.6544145924 -0.0489642442 -0.6841919854
H -3.9047398398 -0.9920552221 0.8049156845
H -3.9023932449 0.7693044157 0.8720022792
H -2.0091610053 0.8319221978 -0.7377068367
H -2.0239002213 -0.9317165113 -0.8178501570
H -1.4672807381 -1.0687213082 1.5867142034
H -1.5709799960 0.6846359273 1.7270767411
H 0.3320331804 0.9129200822 0.1245137465
H 0.7538803880 0.1010086446 1.6258596808
H 0.4570836862 -2.1154980355 0.4608891876
H 0.2455099354 -1.2466119097 -1.0597572191
H 2.7207763818 -1.1158154060 0.7189059314
H 2.5512788554 -2.0877950170 -0.7473124923
H 3.6486189546 -0.1915552128 -1.5841205150
H 1.9815230570 0.2666467184 -1.8797315603
H 3.0341697083 2.1874002284 -0.8954009563
28
CONF156
C -4.8315153393 0.5850640600 0.0723440000
C -3.4996740825 0.2279206689 -0.5770259004
C -2.5149615181 -0.3604164231 0.4310822060
C -1.1793366219 -0.7247229251 -0.2137188740
C -0.1994290887 -1.3040906750 0.8046889369
C 1.0932984603 -1.8295700314 0.1778213400
C 1.9304019393 -0.7782305129 -0.5527967728
C 2.3957681437 0.3542540445 0.3664554948
C 3.4272929560 1.2121866388 -0.2796387071
O 3.4774688696 2.4178379471 -0.2221420100
H -4.6856783939 1.3209032081 0.8600537793
H -5.5169648426 0.9998149408 -0.6626911735
H -5.2903228341 -0.2984381781 0.5106242994
H -3.0640458569 1.1233025939 -1.0266629941
H -3.6693654890 -0.4948055742 -1.3784633140
H -2.9546697152 -1.2527165588 0.8831724096
H -2.3443795907 0.3641459268 1.2310747973
H -0.7559216629 0.1707374980 -0.6722482637
H -1.3509019219 -1.4559812344 -1.0072629875
H 0.0305286828 -0.5477527941 1.5565102885
H -0.6858214677 -2.1352267943 1.3210173866
H 1.7017929051 -2.2793889002 0.9653241687
H 0.8401600247 -2.6174837676 -0.5347462516
H 2.8078033704 -1.2724326527 -0.9754185130
H 1.3580904451 -0.3593102960 -1.3808545759
H 1.5648094722 0.9770474783 0.6973596864
H 2.8714713114 -0.0835658402 1.2498240921
H 4.1990818885 0.6540282838 -0.8418148742
28
CONF46
C -4.2290618948 1.1018580832 0.5337189727
C -3.5652421656 -0.1112880105 -0.1070095783
C -2.0417175463 -0.0292520728 -0.0376610914
C -1.3762521452 -1.2534417768 -0.6638534530
C 0.1443881662 -1.1286201415 -0.7648179760
C 0.8316607634 -1.0811746385 0.5992771895
C 2.3538531692 -1.2079141090 0.5099748224
C 2.9983778223 -0.0499771065 -0.2587986037
C 2.6899893919 1.2641437385 0.3718235021
O 2.3336427499 2.2604713945 -0.2108516984
H -5.3115771314 1.0262728142 0.4668473369
H -3.9533915207 1.1771182680 1.5832687154
H -3.9160583819 2.0152878101 0.0326743415
H -3.8751276229 -0.1840779109 -1.1520326871
H -3.8995069161 -1.0187616273 0.4010398089
H -1.7406800539 0.0617190904 1.0075780546
H -1.7047036873 0.8707638058 -0.5586775913
H -1.7805588039 -1.3934987028 -1.6694517703
H -1.6312205453 -2.1409707541 -0.0799580473
H 0.5274932588 -1.9858843411 -1.3233682081
H 0.3824095939 -0.2244887869 -1.3286656835
H 0.5822110763 -0.1428664065 1.0991444737
H 0.4506360004 -1.9000376245 1.2136039051
H 2.7642931415 -1.2355921616 1.5210197622
H 2.6122056589 -2.1445160211 0.0144452650
H 4.0851116107 -0.1656833063 -0.2234019766
H 2.6894602736 -0.0395180824 -1.3037354745
H 2.8204064723 1.2825161618 1.4700696762
28
CONF541
C -4.2382909922 -0.1063443778 0.8120421741
C -3.5873171594 0.2124701793 -0.5290734232
C -2.5649955553 -0.8371409410 -0.9698800547
C -1.3623634267 -1.0052982284 -0.0387103903
C -0.5080369365 0.2559014099 0.0784597693
C 0.7457573351 0.0499460892 0.9323389840
C 1.8314310222 -0.8112795849 0.2820240399
C 2.5327317478 -0.1101606887 -0.8799369011
C 3.4510092823 0.9860639864 -0.4585730439
O 3.7411171431 1.2838331131 0.6749109142
H -5.0244123359 0.6131599611 1.0291751103
H -4.6785521376 -1.1009119275 0.7939732436
H -3.5115809252 -0.0650416422 1.6189128470
H -3.1129823613 1.1938129059 -0.4790212898
H -4.3657863618 0.2673240810 -1.2940967979
H -2.2025309383 -0.5691647733 -1.9656120437
H -3.0730359160 -1.8011973739 -1.0536049858
H -0.7519027832 -1.8205941669 -0.4313170485
H -1.7024444086 -1.3038899124 0.9540811836
H -0.2336312528 0.5987932248 -0.9209297089
H -1.1009154708 1.0465447585 0.5413610926
H 1.1789256514 1.0227416833 1.1759262732
H 0.4494805215 -0.4169933459 1.8742941411
H 2.5811045129 -1.0479689037 1.0399627567
H 1.4005807926 -1.7487358124 -0.0686366541
H 3.1435831562 -0.8212668726 -1.4433960772
H 1.8143369749 0.3071029584 -1.5879666455
H 3.8965470844 1.5432696072 -1.3050610795
28
CONF143
C -4.9175168422 0.4814626081 -0.0626391919
C -3.5765423260 0.1771515442 0.5947934558
C -2.5720404315 -0.3977030778 -0.4015927224
C -1.2274672389 -0.7107221604 0.2517441065
C -0.2271126736 -1.2734067667 -0.7563851035
C 1.0807119084 -1.7491362929 -0.1215173032
C 1.8858003619 -0.6618535670 0.5920371759
C 2.3471613273 0.4469359280 -0.3579138795
C 3.1398854111 1.4908787994 0.3464471992
O 4.1389969669 2.0234835122 -0.0759571585
H -4.7930877342 1.2066721354 -0.8638293645
H -5.3484556963 -0.4235632162 -0.4850605928
H -5.6167557659 0.8884345740 0.6637516398
H -3.7254546170 -0.5365810619 1.4082590657
H -3.1703713268 1.0934533423 1.0294417768
H -2.4221379587 0.3180516891 -1.2136277707
H -2.9835090723 -1.3102117189 -0.8395692567
H -1.3782185392 -1.4364305907 1.0543538098
H -0.8349353432 0.2038388893 0.6994457020
H -0.6854019014 -2.1271526061 -1.2611591936
H -0.0207975838 -0.5227945620 -1.5212384020
H 0.8520766633 -2.5327101565 0.6038598326
H 1.7034122455 -2.1934310826 -0.9008745534
H 1.2916451272 -0.2279991238 1.3966686141
H 2.7647320123 -1.1265724387 1.0434278775
H 2.9248601828 0.0432856672 -1.1906968581
H 1.4699144312 0.9576062280 -0.7653414047
H 2.7373586695 1.7794367419 1.3353128093
28
CONF253
C -4.3473403325 0.3097118535 0.9418321342
C -3.9332976067 -0.0024979745 -0.4918587984
C -3.1660673895 -1.3194602077 -0.6264988531
C -1.8338966069 -1.3718827431 0.1237723470
C -0.8108080060 -0.3571415476 -0.3826805393
C 0.5466687418 -0.5398543794 0.2933699962
C 1.5713607455 0.4743695678 -0.2103677638
C 2.9350909808 0.2722569201 0.4549347437
C 3.9195515017 1.3143359998 0.0513496301
O 5.0835455065 1.1215689552 -0.2076530254
H -4.9732493778 1.1987272095 0.9674408791
H -4.9116523686 -0.5195554419 1.3630347115
H -3.4789556423 0.4901186425 1.5696176667
H -3.3310264783 0.8180779903 -0.8845079297
H -4.8314216356 -0.0704852383 -1.1106650802
H -2.9777180828 -1.5036297642 -1.6872057918
H -3.8008556971 -2.1300376447 -0.2598810410
H -1.4186124663 -2.3758973163 0.0055265175
H -2.0042935512 -1.2156308804 1.1899157218
H -0.6955045574 -0.4712898335 -1.4630873877
H -1.1684641929 0.6556512264 -0.1911811651
H 0.4280537882 -0.4305145199 1.3734513344
H 0.9121753786 -1.5506354419 0.1006087291
H 1.6791090717 0.3717912826 -1.2919388532
H 1.2136910686 1.4850608483 -0.0044301075
H 2.8160589648 0.3641871899 1.5390471851
H 3.3397138379 -0.7181011442 0.2415892541
H 3.5060413362 2.3388843133 0.0055055927
28
CONF90
C -4.1535147132 0.4965908671 -0.9367545590
C -3.7431468538 0.1907161155 0.4994313924
C -2.2374155633 -0.0231991767 0.6612331669
C -1.7309816448 -1.2780507272 -0.0489580501
C -0.2841551589 -1.6252219059 0.3036467349
C 0.7244268903 -0.6006385362 -0.2119753028
C 2.1630852669 -1.0391851529 0.0568129443
C 3.1653111331 0.0053365119 -0.4377454562
C 3.0600152460 1.2805939465 0.3256666224
O 3.1165771780 2.3922778710 -0.1439789870
H -5.2154681482 0.7258319875 -0.9844432875
H -3.6003195612 1.3536230740 -1.3147796509
H -3.9608195264 -0.3527527727 -1.5864125856
H -4.2732230606 -0.6993227431 0.8461240320
H -4.0458178037 1.0244885165 1.1374814609
H -2.0110805127 -0.1084601813 1.7271100354
H -1.7143588767 0.8556113176 0.2794108886
H -1.8099763089 -1.1471800673 -1.1292711457
H -2.3692032905 -2.1191009657 0.2329294079
H -0.1886464905 -1.7130004106 1.3883091060
H -0.0439950470 -2.5992083191 -0.1292029723
H 0.5820874059 -0.4648895199 -1.2864363777
H 0.5529061995 0.3655802401 0.2675560530
H 2.3003688876 -1.1954828028 1.1284502279
H 2.3545538032 -1.9864150357 -0.4486214041
H 4.1814474232 -0.3650240855 -0.2745308845
H 3.0406632074 0.2040021119 -1.5031055475
H 2.9324006993 1.1477932800 1.4162374440
28
CONF171
C -4.5870280614 -1.0934693234 -0.4334044021
C -3.5294984101 0.0006427750 -0.5218809783
C -2.2828166440 -0.3471199617 0.2891306829
C -1.2198026963 0.7452943408 0.1932472907
C -0.0104848560 0.4972845037 1.0967470233
C 0.7751476822 -0.7810437167 0.7926878084
C 1.3035966743 -0.8894807703 -0.6393126088
C 2.2460288656 0.2574516470 -1.0155166113
C 3.4412852997 0.3036972663 -0.1281199462
O 3.9155968295 1.2984874611 0.3668671408
H -5.4652257151 -0.8254655513 -1.0157251319
H -4.1954692357 -2.0339098023 -0.8147150640
H -4.8926974350 -1.2443532036 0.5995889558
H -3.9487028317 0.9405338564 -0.1552579035
H -3.2494217737 0.1503428727 -1.5671433704
H -1.8785332501 -1.2925155053 -0.0761810682
H -2.5624830249 -0.4867459955 1.3361369649
H -1.6700128972 1.6975284080 0.4854634073
H -0.8981120777 0.8470061762 -0.8443463910
H 0.6616273485 1.3558058621 1.0314649491
H -0.3547136564 0.4408748991 2.1324644043
H 1.6207450628 -0.8252572605 1.4847851812
H 0.1430113860 -1.6470810733 0.9949623966
H 1.8395577285 -1.8356043528 -0.7371246957
H 0.4703798370 -0.9057567962 -1.3410316487
H 2.6205321044 0.0855156343 -2.0286391981
H 1.7375117294 1.2212568578 -0.9996187421
H 3.9074766195 -0.6820869604 0.0578650670
28
CONF466
C -3.4715582116 1.5317054718 0.1354056411
C -2.3140671069 0.5957808423 -0.1946257274
C -2.6669723600 -0.8579515135 0.1120928955
C -1.5949716455 -1.8686590376 -0.3011152022
C -0.2731371238 -1.7276555708 0.4664842623
C 0.7884200103 -0.9414383687 -0.3013319732
C 2.0440334151 -0.7179585133 0.5399818192
C 3.0943856734 0.0977754730 -0.2106323805
C 2.7380618248 1.5374144634 -0.3692969991
O 1.7796200600 2.0950811074 0.1073536016
H -3.1998921119 2.5629910915 -0.0766756267
H -4.3497478667 1.2777590633 -0.4545144815
H -3.7331354733 1.4554487253 1.1885744444
H -1.4401857458 0.8984560997 0.3845445035
H -2.0638228358 0.6912581306 -1.2540507090
H -3.5940049946 -1.1069604863 -0.4115465709
H -2.8593920907 -0.9596680640 1.1830423576
H -1.4049449668 -1.7734572573 -1.3722623995
H -2.0022960735 -2.8675240881 -0.1305924477
H -0.4627731013 -1.2381460495 1.4237943018
H 0.1285583487 -2.7198341229 0.6844740881
H 1.0515350441 -1.4899730162 -1.2093417249
H 0.3864751302 0.0263341268 -0.6011893832
H 1.7707142926 -0.1837176551 1.4524070453
H 2.4673638117 -1.6824087416 0.8245928225
H 4.0519107214 0.0744545190 0.3172211972
H 3.2748327324 -0.3161284803 -1.2053695644
H 3.4611218423 2.1101808192 -0.9810162070
28
CONF144
C -4.8916395049 0.5080249133 -0.0662437196
C -3.5526295451 0.1969395705 0.5920252174
C -2.5600486009 -0.4095187971 -0.3975319688
C -1.2138806997 -0.7199989618 0.2537155826
C -0.2218222672 -1.3015231488 -0.7518599357
C 1.0909393169 -1.7673754379 -0.1197232971
C 1.8903998818 -0.6734432964 0.5899953403
C 2.3238476476 0.4482036143 -0.3582632272
C 3.1073633862 1.4995158325 0.3453548294
O 4.1001508668 2.0428530753 -0.0781739448
H -5.5828401461 0.9369270454 0.6551357946
H -4.7601389439 1.2176002532 -0.8802217715
H -5.3361651397 -0.3981452375 -0.4716713382
H -3.7080524423 -0.4994382773 1.4191960093
H -3.1322073681 1.1154887902 1.0079918922
H -2.4088960468 0.2868500322 -1.2260944767
H -2.9827141535 -1.3274991561 -0.8127595334
H -1.3635781690 -1.4329089914 1.0678843278
H -0.8147515158 0.1993615688 0.6854844283
H -0.6846019695 -2.1632410141 -1.2386849484
H -0.0205696343 -0.5642530096 -1.5309780399
H 0.8704197703 -2.5513129830 0.6077719105
H 1.7139930644 -2.2085046622 -0.9005979147
H 1.3006869139 -0.2529693500 1.4049431535
H 2.7813660061 -1.1286636885 1.0272407292
H 2.8989893008 0.0586955130 -1.1993134949
H 1.4340372741 0.9471767962 -0.7523341801
H 2.7040350262 1.7821952124 1.3355868724
28
CONF117
C -3.9808362271 0.8504702872 -0.6104077401
C -3.6926298582 -0.6452108002 -0.5460627691
C -3.0221808374 -1.0761345529 0.7599855292
C -1.6449511351 -0.4604208403 1.0143601595
C -0.5996382816 -0.8577030706 -0.0257495516
C 0.7898530485 -0.3438869625 0.3448967009
C 1.8396639154 -0.7380957093 -0.6926010459
C 3.2234158084 -0.2044673307 -0.3178395864
C 3.2750361351 1.2841138166 -0.3576202863
O 3.8344687164 1.9936068930 0.4443451259
H -4.5627832882 1.1627088050 0.2540925509
H -3.0594596226 1.4263093536 -0.6311441144
H -4.5469607704 1.0865170541 -1.5084573749
H -3.0696614073 -0.9333408037 -1.3940192299
H -4.6359350245 -1.1893145967 -0.6364371293
H -2.9229721219 -2.1644230602 0.7559494758
H -3.6783034925 -0.8086877927 1.5920268971
H -1.3026453626 -0.7911471092 1.9983366705
H -1.7264223814 0.6271393977 1.0505091610
H -0.5709456538 -1.9465051387 -0.1091567192
H -0.8773932483 -0.4549716482 -1.0009510605
H 0.7635248222 0.7456009007 0.4371130079
H 1.0759020640 -0.7455287737 1.3196799869
H 1.8836004545 -1.8252223738 -0.7670290501
H 1.5513995993 -0.3449104382 -1.6693496798
H 3.5329248704 -0.5562262370 0.6672912846
H 3.9546272003 -0.5543844028 -1.0522263278
H 2.7534096467 1.7337075480 -1.2231356860
28
CONF1
C -4.7084475424 0.8878460186 0.1763908195
C -3.6902578298 -0.1295401054 -0.3246221718
C -2.2943193848 0.1410441230 0.2323394824
C -1.2697152899 -0.8769654929 -0.2624740581
C 0.1269053462 -0.5978697533 0.2889843219
C 1.1514212905 -1.6131497017 -0.2084703435
C 2.5625793719 -1.3511929516 0.3168795214
C 3.1834297581 -0.0765463982 -0.2591453968
C 2.6343887783 1.1803974395 0.3214204921
O 2.4627906269 2.2168406112 -0.2794807783
H -4.7740559109 0.8580058518 1.2617037920
H -4.4188814235 1.8934252163 -0.1206633555
H -5.6930765425 0.6779089196 -0.2339646466
H -3.6538898115 -0.0992034966 -1.4159191086
H -4.0058900566 -1.1334134811 -0.0318234149
H -2.3315515441 0.1153305588 1.3240856780
H -1.9762879096 1.1443780174 -0.0623751768
H -1.2380515618 -0.8532286679 -1.3542685880
H -1.5830151496 -1.8796034314 0.0377680309
H 0.4312996172 0.4084530612 -0.0120228814
H 0.0923228285 -0.6199292694 1.3808520203
H 0.8398679713 -2.6105412969 0.1085119348
H 1.1652597773 -1.6036782541 -1.3004495577
H 2.5400711150 -1.2845609189 1.4061206768
H 3.1969166228 -2.1953220211 0.0443338742
H 4.2486819730 -0.0618854716 -0.0072141633
H 3.0974409553 -0.0477300194 -1.3465224836
H 2.4251347513 1.1306639903 1.4060803584
28
CONF194
C -3.7005278827 1.3063015539 0.0983285036
C -2.9414378859 0.0167236492 0.3894472168
C -1.9906433585 -0.3445357157 -0.7498910504
C -1.3092512681 -1.7019886230 -0.5690540085
C -0.4165269496 -1.8203107958 0.6692191456
C 0.7156505225 -0.7955624141 0.7518657163
C 1.7212711848 -0.9141278893 -0.3920892491
C 2.8682678335 0.0843200197 -0.2219124969
C 2.3963460669 1.4916378547 -0.3487780928
O 2.7356468850 2.4181345386 0.3482176941
H -3.0073589013 2.1340925564 -0.0366500315
H -4.2925588176 1.2052219069 -0.8087563496
H -4.3696859925 1.5507254866 0.9198019249
H -3.6539907630 -0.7983962095 0.5356058003
H -2.3785527209 0.1384148266 1.3163791309
H -1.2396672147 0.4409217406 -0.8531682211
H -2.5600125198 -0.3717787108 -1.6826830079
H -0.7188220374 -1.9174531122 -1.4613442087
H -2.0821037841 -2.4715877432 -0.5004078667
H -1.0338424649 -1.7278522625 1.5643262065
H 0.0187535800 -2.8224579750 0.6777789791
H 0.3049774110 0.2162925727 0.7702106374
H 1.2412195288 -0.9436198279 1.6985093953
H 2.1264100068 -1.9264859596 -0.4136321150
H 1.2252504297 -0.7258367431 -1.3446987392
H 3.3758439290 -0.0483601606 0.7345944776
H 3.5977898874 -0.0667410512 -1.0227112325
H 1.6820260486 1.6573330029 -1.1773902022
28
CONF226
C -4.3894660666 0.8981212568 0.5213834618
C -3.5285518093 0.0892220675 -0.4418032597
C -2.3125551833 -0.5182541994 0.2547103251
C -1.4437656516 -1.3174703262 -0.7143319291
C -0.3104752876 -2.0833841717 -0.0290439332
C 0.7183068148 -1.2121596684 0.6944695730
C 1.4777956140 -0.2752481255 -0.2430509545
C 2.5971144883 0.4612400522 0.4970512868
C 3.4087916838 1.3175788355 -0.4115766202
O 3.8281488361 2.4204522980 -0.1523742100
H -5.2506290868 1.3166964742 0.0062011674
H -4.7471002174 0.2682017955 1.3328460018
H -3.8154415374 1.7161029545 0.9510270599
H -3.1921690968 0.7343849880 -1.2568564464
H -4.1300151272 -0.7100194990 -0.8810562332
H -2.6511717933 -1.1738423623 1.0605746950
H -1.7271822344 0.2863883613 0.7028947227
H -1.0361176696 -0.6475995745 -1.4732200163
H -2.0767967474 -2.0429964554 -1.2316524230
H -0.7473138259 -2.7728900174 0.6970201612
H 0.2060885654 -2.6827660800 -0.7824099666
H 0.2253959226 -0.6288370583 1.4728628470
H 1.4345771481 -1.8742540739 1.1861806967
H 1.9055376799 -0.8536514502 -1.0642225088
H 0.7925945713 0.4588003411 -0.6681135286
H 2.2042807747 1.0643210555 1.3168385106
H 3.2871704899 -0.2755004852 0.9203774527
H 3.6294253742 0.8599362809 -1.3935737183
28
CONF128
C -4.8161116205 -0.4464989008 -0.1031676142
C -3.7466113099 0.5739658392 0.2710577604
C -2.3882649929 -0.0569946057 0.5834906435
C -1.7016101945 -0.6427056005 -0.6492012878
C -0.3587189858 -1.3039414153 -0.3344433106
C 0.7300992129 -0.3110878245 0.0679095595
C 2.0746713888 -1.0046954360 0.2810185956
C 3.1640324874 -0.0034667747 0.6696412919
C 3.4649827882 0.9476975067 -0.4370715239
O 3.6651500900 2.1328954717 -0.3156323743
H -4.5654942696 -0.9558207184 -1.0297617395
H -4.9211210245 -1.1911217533 0.6827613959
H -5.7755114516 0.0472807107 -0.2383306801
H -4.0833212837 1.1254731057 1.1521086105
H -3.6298070979 1.2934699173 -0.5426276157
H -2.5218540536 -0.8436269112 1.3297581940
H -1.7474127255 0.7112964200 1.0198560479
H -1.5499431888 0.1491440963 -1.3868689290
H -2.3542547549 -1.3934030202 -1.0976642860
H -0.4965641419 -2.0325933817 0.4673342986
H -0.0234143978 -1.8476001064 -1.2209205333
H 0.8350914031 0.4495180212 -0.7108689679
H 0.4442651640 0.1992433246 0.9888430488
H 1.9752426727 -1.7498468566 1.0710456005
H 2.3672722828 -1.5218470881 -0.6348481936
H 2.8925533161 0.5526842433 1.5680131526
H 4.0942228984 -0.5433966041 0.8687255670
H 3.5124022842 0.4794169946 -1.4379810437
28
CONF114
C -4.1993673972 -0.3924850448 1.2016145464
C -3.7377333308 -1.0459777796 -0.0961058663
C -3.0381663543 -0.0731500494 -1.0475530300
C -1.7448963843 0.5413280891 -0.5086302442
C -0.6479190316 -0.4875653242 -0.2433437547
C 0.6710610634 0.1789422490 0.1415968597
C 1.7625537455 -0.8474586962 0.4403787262
C 3.0890826194 -0.1683083058 0.7847109421
C 3.6584986804 0.5644706415 -0.3810498031
O 4.1965281288 1.6455222359 -0.3423788925
H -3.3520382327 -0.0667866059 1.7987903127
H -4.8248229028 0.4721140699 0.9899501526
H -4.7782824097 -1.0981021084 1.7929106079
H -4.6090272024 -1.4552756567 -0.6132503501
H -3.0740381316 -1.8812014738 0.1318882479
H -3.7310991422 0.7371093580 -1.2875890089
H -2.8134641760 -0.5998369758 -1.9784221740
H -1.9527400173 1.0956398156 0.4078135493
H -1.3785165599 1.2611338268 -1.2454043383
H -0.9543569849 -1.1547326866 0.5636127961
H -0.4991122225 -1.0934492945 -1.1401617796
H 1.0018529990 0.8323118229 -0.6707149210
H 0.5143737603 0.8076828581 1.0210545359
H 1.4521498681 -1.4723388173 1.2785165621
H 1.9006995440 -1.4937315364 -0.4285474794
H 2.9809735408 0.5132879457 1.6295913650
H 3.8251810605 -0.9317906945 1.0527281267
H 3.5711245167 0.0255496734 -1.3430196648
28
CONF232
C -4.4154294489 0.9106641781 -0.1005136266
C -3.3413444286 -0.0121621791 0.4640868309
C -2.7405220851 -0.9033810630 -0.6211022667
C -1.7683060966 -1.9542948111 -0.0819419793
C -0.5288616521 -1.3928971943 0.6176829189
C 0.3568207277 -0.5529979037 -0.3007038251
C 1.6551022945 -0.1462787475 0.3934679699
C 2.5314495413 0.7176042864 -0.5169786821
C 3.8487774652 1.0342092911 0.1011691198
O 4.4119102229 2.1017712497 0.0518530415
H -4.8276575990 1.5429667807 0.6822288318
H -3.9986476695 1.5507236529 -0.8751409221
H -5.2264319180 0.3314200892 -0.5366616941
H -3.7766044654 -0.6398676376 1.2451789584
H -2.5582076241 0.5944532939 0.9213323791
H -2.2401456876 -0.2809286334 -1.3646216370
H -3.5538687095 -1.4257368878 -1.1314455601
H -1.4449455146 -2.5843385234 -0.9140945018
H -2.3030401808 -2.5930245501 0.6253172939
H -0.8302059747 -0.7954126306 1.4793477413
H 0.0561892416 -2.2349828478 0.9956069015
H 0.5900150260 -1.1280943715 -1.1992762867
H -0.1785637487 0.3462647966 -0.6072655779
H 1.4196041278 0.4111172792 1.3022208192
H 2.2076355885 -1.0416415082 0.6848678803
H 2.7481189325 0.1578843871 -1.4322897549
H 2.0256752899 1.6424747875 -0.7978108553
H 4.3181800244 0.1864344586 0.6336659204
28
CONF233
C -4.4338165593 0.9000228447 -0.0927339897
C -3.3571832617 -0.0225758041 0.4673546082
C -2.7430648564 -0.8958167802 -0.6249457702
C -1.7663952771 -1.9462399363 -0.0929134228
C -0.5306614797 -1.3850431964 0.6134094926
C 0.3555505988 -0.5387305844 -0.2986283438
C 1.6567655361 -0.1424004107 0.3962279310
C 2.5353836534 0.7230777598 -0.5102112998
C 3.8584240387 1.0257736944 0.1026801479
O 4.4342584321 2.0862229623 0.0471489338
H -4.0159751485 1.5539113722 -0.8551361014
H -5.2368983357 0.3207118896 -0.5432673207
H -4.8570961473 1.5182353227 0.6953888737
H -3.7935185184 -0.6630868705 1.2373523483
H -2.5813346140 0.5833598335 0.9376723600
H -2.2430363206 -0.2606291375 -1.3578460137
H -3.5495748868 -1.4178850069 -1.1463273079
H -1.4382540215 -2.5674616894 -0.9298280649
H -2.2992046761 -2.5937731877 0.6077552170
H -0.8358091037 -0.7928460308 1.4773539548
H 0.0553548876 -2.2277515055 0.9884530384
H 0.5854305685 -1.1061408833 -1.2029750528
H -0.1779691405 0.3647948189 -0.5958825887
H 1.4255893068 0.4097200320 1.3092859995
H 2.2056502353 -1.0423665431 0.6803381566
H 2.7443511070 0.1698553923 -1.4314027549
H 2.0351040775 1.6536628745 -0.7819431268
H 4.3198555797 0.1744574033 0.6363883571
28
CONF84
C -4.5931005599 -0.7220140343 -0.3949774438
C -3.8790811559 0.5406547090 0.0749018629
C -2.5250043633 0.2603642776 0.7283146735
C -1.4773880120 -0.2684119752 -0.2494264935
C -0.1163304514 -0.4474941209 0.4201987876
C 0.9279463662 -0.9828682261 -0.5579332377
C 2.2617824058 -1.3303710151 0.1060553060
C 2.9865107908 -0.1019094336 0.6621661677
C 3.3165417801 0.8796816220 -0.4087539255
O 3.2014479219 2.0795387862 -0.3268208504
H -4.0357472313 -1.2136975581 -1.1876020199
H -4.7105166353 -1.4206609267 0.4303867592
H -5.5801280698 -0.4750024876 -0.7786465983
H -4.5143738138 1.0543514273 0.8003177383
H -3.7362254737 1.2141996016 -0.7732400119
H -2.6596980447 -0.4607273161 1.5379122210
H -2.1529205286 1.1878296333 1.1710368119
H -1.3788874722 0.4303824451 -1.0840084704
H -1.8028337932 -1.2278981264 -0.6545488436
H 0.2086435048 0.5156057304 0.8186078822
H -0.2175455547 -1.1416491800 1.2575758191
H 0.5327705175 -1.8838525608 -1.0325185118
H 1.0957780471 -0.2411927952 -1.3433728277
H 2.0860306569 -2.0345427699 0.9200635144
H 2.9045710407 -1.8177376465 -0.6293207729
H 2.4108990990 0.3876712429 1.4474435481
H 3.9414956303 -0.4202307863 1.0903217843
H 3.7088090345 0.4243636553 -1.3373639246
28
CONF288
C -3.5904755300 0.3908587296 -1.0807312084
C -2.8810166319 0.8809851360 0.1765193708
C -2.4414890658 -0.2548298730 1.1025989398
C -1.4188845781 -1.2186791684 0.4984602487
C -0.0946661690 -0.5479958267 0.1401047810
C 0.9501108967 -1.5656213360 -0.3111292275
C 2.2513089873 -0.9200040195 -0.7884023261
C 2.9530125494 -0.1310911066 0.3180156787
C 2.4925622260 1.2833915441 0.4400892711
O 1.9002498063 1.9171867114 -0.3995968728
H -2.9105950434 -0.1648076006 -1.7208751248
H -4.4252785773 -0.2554124897 -0.8180309705
H -3.9741942697 1.2349469060 -1.6489499075
H -3.5610698431 1.5289510619 0.7351690346
H -2.0156729649 1.4845491197 -0.1037283382
H -3.3254891785 -0.8263403362 1.3966182477
H -2.0160112864 0.1838888142 2.0089218546
H -1.8380594964 -1.6926934115 -0.3901990792
H -1.2248940984 -2.0093845760 1.2279309260
H -0.2472130076 0.1794320089 -0.6592450928
H 0.2727854997 0.0000102804 1.0120432289
H 1.1659259461 -2.2515357549 0.5119071222
H 0.5347259627 -2.1555626501 -1.1310182998
H 2.9159314608 -1.7038417343 -1.1531958157
H 2.0383789118 -0.2414668050 -1.6171273378
H 2.8509624981 -0.6275211380 1.2839624711
H 4.0253145441 -0.0613430291 0.1095952583
H 2.7763876030 1.7673632214 1.3943139842
28
CONF217
C -3.0451922678 1.0943686253 -0.8260992307
C -2.2074125930 0.8585251999 0.4254993687
C -2.1838748684 -0.6062074387 0.8683960551
C -1.6049792823 -1.5867649050 -0.1552138823
C -0.1804607884 -1.2700190191 -0.6122546847
C 0.8360570777 -1.3187941777 0.5266603723
C 2.2815615180 -1.1646787390 0.0491222954
C 2.5401204936 0.1966439845 -0.6083025450
C 2.1941912911 1.3105364919 0.3192249253
O 1.4877429249 2.2543035154 0.0562349073
H -4.0548921268 0.7149756963 -0.6840516362
H -3.1038933167 2.1586089290 -1.0421930119
H -2.6075064714 0.5989656420 -1.6884636925
H -2.6237680110 1.4513200519 1.2441427349
H -1.1908869266 1.2204690105 0.2565830735
H -3.2083478663 -0.9168086468 1.0897542852
H -1.6166947766 -0.6787328110 1.7985698383
H -2.2541706152 -1.6102721033 -1.0322649949
H -1.6210613768 -2.5860870385 0.2874132605
H 0.1061531126 -2.0006272486 -1.3728024427
H -0.1672579029 -0.2841183253 -1.0771540280
H 0.6156143921 -0.5256352636 1.2443596725
H 0.7387849354 -2.2753026524 1.0454335699
H 2.9486212618 -1.2784830100 0.9055167064
H 2.5155040884 -1.9509299908 -0.6695412686
H 3.6064900709 0.2836932614 -0.8307007920
H 1.9820745368 0.3040431300 -1.5380563033
H 2.6447803660 1.2200710471 1.3253121331
28
CONF69
C -4.6585795659 0.3450774447 -0.7607169588
C -3.3451674886 -0.3835883823 -0.5005291137
C -2.5975557457 0.2145638507 0.6899561456
C -1.3326226794 -0.5576766732 1.0667675269
C -0.2283544663 -0.4639129085 0.0151503174
C 1.0509518195 -1.1520140566 0.4887524986
C 2.1367276891 -1.2247815474 -0.5866947622
C 2.6663193943 0.1541498499 -0.9897719785
C 3.2840316800 0.8682585655 0.1625148698
O 3.1355618385 2.0367668979 0.4308345531
H -5.1745358393 -0.0882918628 -1.6140243204
H -5.3114103729 0.2770582039 0.1068044073
H -4.4749300196 1.3971093263 -0.9676545790
H -2.7231453277 -0.3245914454 -1.3947875988
H -3.5490104536 -1.4383875510 -0.3028414378
H -3.2686933855 0.2245082705 1.5524786948
H -2.3342294670 1.2514699220 0.4674780871
H -1.5880738875 -1.6070211146 1.2324284192
H -0.9494160088 -0.1588671907 2.0096581406
H -0.5620839511 -0.9325309257 -0.9118633459
H -0.0284785626 0.5899326922 -0.1878784891
H 1.4406071139 -0.6221276110 1.3621391053
H 0.8047021032 -2.1692076627 0.8016487701
H 2.9659379471 -1.8260431478 -0.2093336270
H 1.7356057032 -1.7205798562 -1.4713804981
H 3.4597670468 0.0235680078 -1.7312176183
H 1.8872060547 0.7736380141 -1.4333715033
H 3.9358336722 0.2349131350 0.7930403367
28
CONF77
C -4.7067807483 0.2582812277 -0.7585678260
C -3.3814618256 -0.4364021948 -0.4676623434
C -2.6159481380 0.2615278088 0.6552709017
C -1.3380186779 -0.4699040217 1.0681735506
C -0.2469006076 -0.4386701394 -0.0006682523
C 1.0326828552 -1.1125938263 0.4919434496
C 2.1179912568 -1.2164861242 -0.5815460650
C 2.6832881710 0.1476483103 -0.9854987309
C 3.3331301260 0.8389779620 0.1631589088
O 3.2301677573 2.0123909044 0.4313726405
H -5.3408054518 0.2564664503 0.1254313338
H -4.5376949667 1.2911975938 -1.0548229408
H -5.2361716158 -0.2477922470 -1.5621839954
H -2.7780720798 -0.4454832570 -1.3764876884
H -3.5714927471 -1.4732894020 -0.1812492128
H -3.2706561981 0.3362233971 1.5271845491
H -2.3658192496 1.2789032411 0.3449805854
H -1.5805552074 -1.5077327171 1.3089557695
H -0.9473883688 -0.0036776502 1.9764645623
H -0.5954709068 -0.9515876853 -0.8982974016
H -0.0424247015 0.6016273164 -0.2606077284
H 1.4236341437 -0.5579273036 1.3492923965
H 0.7853217592 -2.1198549559 0.8345731744
H 2.9315385196 -1.8370304351 -0.2012605825
H 1.7060896139 -1.7048108616 -1.4653995387
H 3.4656288090 -0.0025591208 -1.7350451172
H 1.9188073239 0.7917976517 -1.4193478072
H 3.9644997124 0.1820750470 0.7904318268
28
CONF71
C -4.5864491484 0.4604283316 -0.7594698202
C -3.2933979132 -0.3144313385 -0.5330216117
C -2.5680359099 0.1604748066 0.7247270461
C -1.3213522873 -0.6597844121 1.0579482392
C -0.2042893671 -0.5092583888 0.0264638670
C 1.0769165645 -1.2030837663 0.4864728100
C 2.1676942893 -1.2393293889 -0.5857294638
C 2.6482732794 0.1567131354 -0.9932255699
C 3.2089085301 0.9080932664 0.1644536752
O 2.9881477392 2.0662766549 0.4276051730
H -5.2627525160 0.3296319694 0.0824845502
H -4.3783957844 1.5226749341 -0.8678523359
H -5.0876769048 0.1146192769 -1.6601985782
H -2.6464262277 -0.1867712837 -1.4020457175
H -3.5201005098 -1.3786501588 -0.4367578949
H -3.2595043385 0.1013880805 1.5690637224
H -2.2865146641 1.2095086574 0.6042639801
H -1.5956108086 -1.7137234568 1.1456402075
H -0.9430111334 -0.3352540926 2.0308190737
H -0.5212558560 -0.9400350550 -0.9244947446
H -0.0125443479 0.5545661991 -0.1268420568
H 1.4586209030 -0.6944016027 1.3757761326
H 0.8369359869 -2.2302496196 0.7704013817
H 3.0162807307 -1.8101514870 -0.2043407319
H 1.7870440537 -1.7507163198 -1.4706055867
H 3.4620589929 0.0507166362 -1.7161160519
H 1.8528560790 0.7373471440 -1.4598340712
H 3.8881714264 0.3153115663 0.8052025897
28
CONF299
C -3.1990061522 0.6857697712 -1.2392483508
C -2.7846186336 0.8697260680 0.2163266970
C -2.5610631251 -0.4521267163 0.9538144661
C -1.4559740487 -1.3369509362 0.3741579484
C -0.0820127622 -0.6706831632 0.3810117458
C 1.0184937167 -1.6360475627 -0.0513546196
C 2.4144384392 -1.0140525802 -0.0041687241
C 2.5622375750 0.1618953677 -0.9711478945
C 2.1368421205 1.4738496658 -0.3999087354
O 2.0368777573 1.7433409253 0.7728088099
H -4.0744820542 0.0435937278 -1.3055290689
H -3.4433226530 1.6472183584 -1.6848919365
H -2.3973579050 0.2376313053 -1.8199546949
H -3.5704980737 1.4194824855 0.7401780869
H -1.8784255689 1.4764909476 0.2670806402
H -3.4960093120 -1.0180992932 0.9477498683
H -2.3178881523 -0.2274747857 1.9954308296
H -1.7126125458 -1.6287663005 -0.6455525395
H -1.4065866454 -2.2511330020 0.9710938355
H -0.0922606702 0.1897439377 -0.2910456899
H 0.1383085319 -0.2962218291 1.3840182710
H 1.0038969880 -2.5071647636 0.6071373633
H 0.8119202983 -1.9864101805 -1.0658129041
H 2.6213189576 -0.6600825478 1.0079204415
H 3.1472238816 -1.7825468394 -0.2522821179
H 3.6151878842 0.2996984607 -1.2367767846
H 2.0220892830 -0.0200429975 -1.9011090266
H 1.9418796835 2.2542183010 -1.1605774574
28
CONF89
C -4.3053217709 0.9934477147 0.5307390955
C -2.9171150978 0.6582035448 -0.0022676481
C -2.6940350110 -0.8510658880 -0.0809882633
C -1.3482158258 -1.2371931102 -0.6962934684
C -0.1554477612 -0.9001616024 0.1968017176
C 1.1616455652 -1.3373066719 -0.4421094797
C 2.3696535288 -1.1798534616 0.4835259432
C 2.6417469628 0.2776160859 0.8669639623
C 2.9114323576 1.1245701787 -0.3284662527
O 2.4688316779 2.2316271025 -0.5231382950
H -4.4458475523 2.0704819956 0.5802346626
H -5.0737212451 0.5757226964 -0.1161270341
H -4.4384843764 0.5828551010 1.5291652804
H -2.1677535421 1.1112768834 0.6487152852
H -2.7961564964 1.0913069276 -0.9980833815
H -3.4922475147 -1.2871963542 -0.6867081452
H -2.7693811255 -1.2797175100 0.9210422575
H -1.2336222969 -0.7294800149 -1.6572514790
H -1.3482268047 -2.3127948061 -0.8899613498
H -0.1328109290 0.1755543997 0.3729518046
H -0.2762218977 -1.4014568590 1.1597925241
H 1.0818121735 -2.3882599976 -0.7294834812
H 1.3243747356 -0.7564820655 -1.3538935114
H 2.2037704058 -1.7566869436 1.3941076305
H 3.2505349762 -1.5853626072 -0.0175686845
H 1.8216621873 0.7041244359 1.4441847973
H 3.5456554425 0.3160399752 1.4816463353
H 3.5901317710 0.6623091230 -1.0694441344
28
CONF216
C -3.0611245559 1.1083227136 -0.8046247090
C -2.2166601141 0.8518375596 0.4383925493
C -2.1859831942 -0.6210657576 0.8525171343
C -1.5959569603 -1.5776744678 -0.1872246011
C -0.1674223728 -1.2493728476 -0.6231666338
C 0.8369766157 -1.3186280937 0.5255070569
C 2.2884990476 -1.1675522708 0.0656526499
C 2.5574241234 0.1916595892 -0.5926036383
C 2.1886854926 1.3080743234 0.3229513614
O 1.4756285000 2.2425064775 0.0450283380
H -2.6227516163 0.6353865739 -1.6792575438
H -4.0672953964 0.7178242938 -0.6673743738
H -3.1290638246 2.1764816316 -0.9972219446
H -2.6313519175 1.4271386117 1.2702621322
H -1.2021974392 1.2205058784 0.2715219062
H -3.2095934660 -0.9421005108 1.0627791873
H -1.6227930226 -0.7086272763 1.7838184722
H -2.2367577811 -1.5823960119 -1.0707185052
H -1.6146794238 -2.5866204281 0.2329189271
H 0.1283528992 -1.9645270801 -1.3948270363
H -0.1511672924 -0.2544194508 -1.0683904924
H 0.6133065444 -0.5330874296 1.2505683554
H 0.7287197804 -2.2808687928 1.0313632889
H 2.9443432816 -1.2804128806 0.9307904280
H 2.5304589583 -1.9558031366 -0.6481684363
H 3.6278524239 0.2800017365 -0.7934960490
H 2.0176339104 0.2925894366 -1.5337743964
H 2.6269006114 1.2284588720 1.3353963371
28
CONF234
C -3.0179132904 1.4330052255 -0.2795632059
C -3.0109118552 0.2999301576 0.7406464364
C -2.7824491266 -1.0782724214 0.1160623759
C -1.4677398428 -1.2311236364 -0.6508768248
C -0.2292569620 -1.0232810450 0.2179707166
C 1.0529212452 -1.2878771680 -0.5687572135
C 2.3226545207 -1.1677077927 0.2766147742
C 2.5446061136 0.2496298335 0.8158676469
C 2.6229919307 1.2459179937 -0.2892679981
O 2.0401887175 2.3032342098 -0.3296229767
H -2.0305467462 1.5791344462 -0.7109061759
H -3.7186485834 1.2176419447 -1.0833795662
H -3.3162204145 2.3647466270 0.1955089121
H -3.9756233978 0.2808184239 1.2535818572
H -2.2473956007 0.4965652582 1.4949040548
H -3.6064360452 -1.2899625944 -0.5699526427
H -2.8150343471 -1.8274015330 0.9110722655
H -1.4446937802 -0.5269725581 -1.4845404739
H -1.4375224699 -2.2379104178 -1.0757344675
H -0.2209972363 0.0027742411 0.5858871269
H -0.2740827539 -1.6946025223 1.0785705807
H 1.0085072453 -2.2957611499 -0.9878549742
H 1.1074683533 -0.5847590637 -1.4045724439
H 2.2640884159 -1.8581458123 1.1187322131
H 3.1798774862 -1.4526645865 -0.3359726344
H 1.7649408432 0.5396043897 1.5197528673
H 3.5057066814 0.2810176788 1.3359618834
H 3.2884487457 0.9488660054 -1.1214992026
28
CONF286
C -3.5268037344 0.4656310900 -1.0863970000
C -2.8573676348 0.8799021030 0.2191098023
C -2.4506373546 -0.3089175024 1.0920395057
C -1.4248795845 -1.2510872700 0.4597031918
C -0.0986506885 -0.5682385116 0.1326378213
C 0.9596178083 -1.5745384805 -0.3127933282
C 2.2582986989 -0.9151073236 -0.7779314251
C 2.9382492419 -0.1124460814 0.3320934346
C 2.4596667271 1.2969858218 0.4419590491
O 1.8615085659 1.9168929276 -0.4038524178
H -3.8933786733 1.3424061179 -1.6150756476
H -2.8261975767 -0.0512605648 -1.7367016130
H -4.3687400460 -0.1945577242 -0.8891074415
H -3.5533814896 1.4977651642 0.7921180107
H -1.9816242581 1.4944365779 0.0016908997
H -3.3464358800 -0.8855428964 1.3361892065
H -2.0410349832 0.0763974660 2.0294228337
H -1.8391880877 -1.6928777628 -0.4477234938
H -1.2357402674 -2.0673550605 1.1618418365
H -0.2423191812 0.1678858787 -0.6603773249
H 0.2509816571 -0.0289715119 1.0172294678
H 1.1752278240 -2.2603242504 0.5103802815
H 0.5568528465 -2.1664520531 -1.1375274891
H 2.9363229128 -1.6924792715 -1.1316620258
H 2.0465305801 -0.2430615564 -1.6121785535
H 2.8308256927 -0.6048469804 1.2995451047
H 4.0120652132 -0.0313788412 0.1360424986
H 2.7348559714 1.7916738907 1.3931988604
28
CONF96
C -4.1693091509 0.9647540919 0.2256547663
C -3.8668994033 -0.3307332945 -0.5193606357
C -2.3699079078 -0.6216689294 -0.6356498856
C -1.7102667058 -0.9121868472 0.7120674174
C -0.2899553212 -1.4631261412 0.5797186481
C 0.6990376260 -0.4512546911 0.0043578219
C 2.1230462159 -1.0044146800 -0.0178598855
C 3.1105522895 0.0173528974 -0.5848697185
C 3.2395093298 1.2123408086 0.2957619665
O 3.3019844798 2.3603739437 -0.0751219165
H -3.8539477729 0.8999736537 1.2634850777
H -3.6523241550 1.8006820326 -0.2406076542
H -5.2372524367 1.1692768053 0.2079977495
H -4.2869287198 -0.2642654048 -1.5257893542
H -4.3582005774 -1.1637628305 -0.0112261174
H -1.8818096413 0.2313750681 -1.1104214842
H -2.2344647937 -1.4892809631 -1.2861692179
H -2.3183213209 -1.6460056685 1.2468686963
H -1.6821998315 -0.0016683065 1.3130628886
H 0.0577243466 -1.7696074271 1.5692195494
H -0.3056004892 -2.3520605977 -0.0548659895
H 0.4044793805 -0.1856216777 -1.0119281325
H 0.6754714006 0.4629365671 0.6041038386
H 2.4244011264 -1.2763903528 0.9955916763
H 2.1505351628 -1.9062651444 -0.6304270181
H 4.1056425798 -0.4339710991 -0.6342628212
H 2.8264074057 0.3309881233 -1.5902810203
H 3.2921170496 0.9770910303 1.3752620192
28
CONF236
C -4.4879966591 0.8468289809 0.0725408827
C -3.3828406141 -0.1051092939 0.5158261743
C -2.7605097306 -0.8344749860 -0.6731569886
C -1.7506262177 -1.9110815213 -0.2712102055
C -0.5241106099 -1.3994874701 0.4869370131
C 0.3278732763 -0.4261779226 -0.3255319664
C 1.6174652831 -0.0647715063 0.4087751377
C 2.4735094451 0.9079902247 -0.4061882137
C 3.6891506608 1.3463594264 0.3340228392
O 4.7927878453 1.4784448906 -0.1390273834
H -4.9151216177 1.3635511087 0.9286759564
H -4.0957682559 1.5908388056 -0.6174126350
H -5.2832543843 0.3011971425 -0.4307727935
H -3.7942759697 -0.8389801422 1.2127402118
H -2.6164904715 0.4637650354 1.0442604283
H -2.2859037317 -0.1088182532 -1.3355729197
H -3.5597168342 -1.3166360222 -1.2420335007
H -1.4137403299 -2.4233334788 -1.1757382358
H -2.2587517941 -2.6492013547 0.3542134979
H -0.8376172660 -0.9214214961 1.4161063423
H 0.0901152461 -2.2620718462 0.7570951081
H 0.5730276319 -0.8805378628 -1.2877249816
H -0.2379621178 0.4858027416 -0.5194473734
H 1.3717294102 0.3871892681 1.3717109167
H 2.1908317559 -0.9733448742 0.6030829112
H 2.7629033516 0.4767412037 -1.3655473940
H 1.8902593627 1.8129906904 -0.6030399358
H 3.5171376191 1.5661822235 1.4039559223
28
CONF306
C -3.9119895514 0.4824493818 1.1654838274
C -2.6975507426 0.5380712389 0.2456761224
C -2.4013552622 -0.8250255194 -0.3763957572
C -1.2794604186 -0.7927183790 -1.4162370645
C 0.0886374906 -0.3687577408 -0.8783908521
C 0.6371295903 -1.3178314089 0.1846542753
C 2.0875318978 -1.0169097536 0.5632031467
C 2.2502521828 0.3638701039 1.2010035558
C 2.4664785935 1.4654758436 0.2176068890
O 2.8395230766 1.3401929799 -0.9237259107
H -4.1058324505 1.4586519410 1.6034370155
H -4.7957212661 0.1726950108 0.6120163876
H -3.7468451207 -0.2298442175 1.9708564361
H -1.8338153233 0.8792410089 0.8184608781
H -2.8767353105 1.2649089760 -0.5501973850
H -3.3079137527 -1.1866926539 -0.8684544822
H -2.1550806889 -1.5380028463 0.4120330006
H -1.5634408478 -0.1043647739 -2.2163475589
H -1.1872937131 -1.7882622478 -1.8573400879
H 0.7910181911 -0.3335533861 -1.7155246370
H 0.0248558797 0.6449242664 -0.4775234430
H 0.0189748260 -1.2624779758 1.0826420426
H 0.5821732424 -2.3401230804 -0.1956995745
H 2.4304548858 -1.7812753291 1.2614515557
H 2.7160190578 -1.0642457316 -0.3285728130
H 1.3986456451 0.6095822647 1.8368925710
H 3.1382125936 0.3811038014 1.8410171649
H 2.2921601614 2.4776976468 0.6302020494
28
CONF172
C -4.6288363001 -0.8648206783 0.6703528005
C -3.5696093419 0.1831064296 0.3489671325
C -2.2867658099 -0.4515103853 -0.1843852018
C -1.2235396837 0.5969029041 -0.5056439651
C 0.0180498646 0.0135725364 -1.1828437696
C 0.7890601990 -1.0135809569 -0.3498029272
C 1.2860957894 -0.5046612759 1.0050398205
C 2.2433947371 0.6839184657 0.8797429085
C 3.4576413436 0.3343278489 0.0911557657
O 3.9659645768 1.0194766825 -0.7642647859
H -4.2628673102 -1.5582076348 1.4242849097
H -5.5328811578 -0.3928670591 1.0473007064
H -4.8842376290 -1.4331979725 -0.2213063679
H -3.3410265871 0.7561661245 1.2504809309
H -3.9637547667 0.8805698318 -0.3938403532
H -2.5167483025 -1.0194920675 -1.0890989776
H -1.9053353391 -1.1519381288 0.5603462894
H -0.9415374041 1.1196221483 0.4095917357
H -1.6579797521 1.3396218005 -1.1797621614
H -0.2884355695 -0.4714131672 -2.1130392195
H 0.6889607618 0.8307753545 -1.4565955642
H 0.1559844464 -1.8861230774 -0.1814851347
H 1.6494344311 -1.3430374808 -0.9390828596
H 0.4388793744 -0.2120269422 1.6242939028
H 1.8015819606 -1.3230034789 1.5115498898
H 1.7550450637 1.5529883684 0.4392815751
H 2.5937587570 0.9594446477 1.8785503432
H 3.9041011538 -0.6431424018 0.3537102732
28
CONF100
C -4.0735846609 0.5757333797 1.1194364485
C -3.9543182602 0.0044705778 -0.2893200631
C -2.8181607401 -1.0088802149 -0.4365578622
C -1.4294740879 -0.3867869311 -0.3006046251
C -0.3284854434 -1.4164591229 -0.5490676937
C 1.0789319711 -0.8187953433 -0.5302166937
C 1.5166320165 -0.3493660107 0.8565908603
C 2.9552188413 0.1710935465 0.8343619605
C 3.0842043972 1.4089415127 0.0152772753
O 3.9882529974 1.6626931601 -0.7449617403
H -4.9461873179 1.2207698854 1.1909000182
H -4.1795413482 -0.2265863251 1.8461925783
H -3.1972869585 1.1636428163 1.3784844262
H -3.8033103651 0.8200142501 -1.0003152258
H -4.8940164851 -0.4887258050 -0.5488528317
H -2.8968649361 -1.4799504017 -1.4197047821
H -2.9370003173 -1.7933239262 0.3144518340
H -1.3189938425 0.0313943325 0.6995068637
H -1.3292498991 0.4283773713 -1.0215793811
H -0.3949162460 -2.2052436768 0.2034275264
H -0.4963576514 -1.8780759905 -1.5250436486
H 1.7843512364 -1.5752346068 -0.8820772290
H 1.1275110738 0.0209705757 -1.2289068239
H 0.8563750833 0.4446173998 1.2065497161
H 1.4483378736 -1.1823651269 1.5571381285
H 3.2535640435 0.4453815659 1.8503606247
H 3.6490084601 -0.5863627506 0.4667340605
H 2.2635010863 2.1363754424 0.1593128620
28
CONF228
C -4.2822310129 0.9362926348 -0.5876956192
C -3.4736868282 0.1342798330 0.4254336268
C -2.2631502896 -0.5384199189 -0.2185444987
C -1.4359918796 -1.3166364474 0.8024635900
C -0.3007745707 -2.1302402789 0.1775294327
C 0.7329548611 -1.3114745551 -0.5984658586
C 1.4588298205 -0.2835438317 0.2671858003
C 2.5612384308 0.4261874618 -0.5228339337
C 3.3337005796 1.3810370261 0.3194745162
O 3.7147249279 2.4747660120 -0.0239007573
H -4.6441401400 0.2893242012 -1.3836986253
H -5.1388071211 1.4051058554 -0.1094966698
H -3.6685655276 1.7162105859 -1.0333463604
H -4.1127571045 -0.6271053480 0.8785897400
H -3.1341178085 0.7976775643 1.2244727964
H -1.6465486412 0.2294487422 -0.6887142499
H -2.6043883382 -1.2191942217 -1.0020322926
H -2.0959077320 -2.0086662434 1.3318784648
H -1.0336388675 -0.6252710253 1.5448932700
H 0.2094900252 -2.6773112490 0.9737425188
H -0.7339003470 -2.8670923347 -0.5027696336
H 1.4679590430 -2.0033139091 -1.0159647562
H 0.2487926375 -0.8063341256 -1.4349419167
H 0.7496316412 0.4613342287 0.6293899177
H 1.8963016112 -0.7832840948 1.1336099130
H 3.2790215374 -0.3190171088 -0.8799943067
H 2.1565077874 0.9474450628 -1.3916693847
H 3.5618099559 1.0111400378 1.3362540657
28
CONF237
C -3.0842047808 1.4141644858 -0.2822472241
C -3.0370731669 0.2866268837 0.7429566821
C -2.7895271506 -1.0892334693 0.1207491543
C -1.4750828014 -1.2244492860 -0.6499596758
C -0.2362690509 -1.0105179965 0.2171676124
C 1.0459884089 -1.2710457749 -0.5710460017
C 2.3150103696 -1.1658439500 0.2772347632
C 2.5529873344 0.2485427036 0.8163772047
C 2.6671094612 1.2413460580 -0.2887166247
O 2.1153243600 2.3149804510 -0.3332895957
H -3.3872066248 2.3435496496 0.1944735074
H -2.1088664235 1.5732804012 -0.7355244926
H -3.7984880475 1.1832901112 -1.0696718385
H -3.9930568616 0.2499397495 1.2711032966
H -2.2659839882 0.5028358023 1.4839907600
H -3.6125636872 -1.3147670806 -0.5619899317
H -2.8080563331 -1.8372294063 0.9172849468
H -1.4605900662 -0.5160971413 -1.4801978848
H -1.4360850512 -2.2287691206 -1.0799314321
H -0.2314226431 0.0154724160 0.5855655952
H -0.2772955215 -1.6822212950 1.0777106727
H 0.9977443835 -2.2743623735 -1.0005574561
H 1.1048110265 -0.5595070826 -1.3993681414
H 2.2459114176 -1.8557280120 1.1190140023
H 3.1704614229 -1.4611625247 -0.3330165102
H 1.7681960638 0.5543846337 1.5077782519
H 3.5064635993 0.2648248679 1.3512490434
H 3.3304143059 0.9254893764 -1.1156619695
28
CONF225
C -4.3119263878 0.9138457888 -0.5895625414
C -3.4852245153 0.1347832308 0.4268153335
C -2.2754045872 -0.5373907681 -0.2191823786
C -1.4372435901 -1.3004224156 0.8043649083
C -0.3029448645 -2.1158665158 0.1803727293
C 0.7307529602 -1.3001870244 -0.5988614516
C 1.4624575799 -0.2747264400 0.2649345945
C 2.5760336862 0.4196717209 -0.5234520312
C 3.3530928960 1.3710349113 0.3186384501
O 3.7367619911 2.4641715818 -0.0236982941
H -3.7100596458 1.6913074260 -1.0549313882
H -4.6778933050 0.2513062788 -1.3706546348
H -5.1666325692 1.3834202484 -0.1088783084
H -4.1127039142 -0.6252908638 0.8981088814
H -3.1434269660 0.8131942768 1.2122054652
H -1.6663917014 0.2287483309 -0.7020072165
H -2.6184735662 -1.2283759941 -0.9929308718
H -2.0904449401 -1.9895849493 1.3457850019
H -1.0327862976 -0.5992176503 1.5363182118
H 0.2080981101 -2.6607618608 0.9775832321
H -0.7372175135 -2.8546165342 -0.4971324748
H 1.4624882610 -1.9944282744 -1.0181465219
H 0.2459473110 -0.7935933417 -1.4340735877
H 0.7589785843 0.4790707414 0.6198693438
H 1.8910034639 -0.7741493654 1.1360299598
H 3.2879918103 -0.3350682837 -0.8720933943
H 2.1807795536 0.9403177837 -1.3969567136
H 3.5814502856 0.9989703418 1.3346070595
28
CONF224
C -3.7348181767 0.4788153374 -1.2888797185
C -3.7415619316 -0.2399239945 0.0560563894
C -2.4461714441 -0.0530187627 0.8476312864
C -1.2407408159 -0.7373980216 0.2059115784
C 0.0134289111 -0.5776119686 1.0629609131
C 1.2189898047 -1.3579307352 0.5349435233
C 1.6692560552 -0.9755837000 -0.8772855379
C 2.0277244525 0.5073794472 -1.0113341494
C 3.1247947997 0.8978063730 -0.0827169331
O 3.1528713842 1.8964800613 0.5966304020
H -4.7078742696 0.3920057594 -1.7665581440
H -3.5128672792 1.5350766100 -1.1529314695
H -2.9916652858 0.0522164049 -1.9569787062
H -3.9151367271 -1.3065407753 -0.1029443915
H -4.5711700779 0.1433499609 0.6547585206
H -2.5883328580 -0.4598913417 1.8521527470
H -2.2405300366 1.0150668579 0.9534364806
H -1.0674349544 -0.3066263788 -0.7796871490
H -1.4569123407 -1.8007490111 0.0780921302
H 0.2669959609 0.4810738454 1.1494580597
H -0.2029657582 -0.9353922155 2.0729854794
H 2.0524215088 -1.2035277615 1.2256133935
H 0.9775841632 -2.4231994316 0.5405195434
H 2.5436475058 -1.5771574893 -1.1327929200
H 0.8822724444 -1.2135745870 -1.5921492716
H 2.4012839929 0.6866911006 -2.0235238642
H 1.1620499625 1.1494305347 -0.8499170025
H 3.9706479381 0.1855601357 -0.0538442145
28
CONF99
C -4.1741720553 1.0135130671 -0.1154929210
C -3.8810094883 -0.4072490589 -0.5851574263
C -2.7955684755 -1.1024864721 0.2380401419
C -1.4104900579 -0.4828593332 0.0601479750
C -0.3423044502 -1.2764217925 0.8108363228
C 1.0427327061 -0.6303986604 0.7589659346
C 1.6709794970 -0.6660863117 -0.6335731857
C 3.0739960466 -0.0561712129 -0.6224995276
C 3.0414267748 1.4029017455 -0.3227170582
O 3.8128750791 1.9950528060 0.3940666580
H -4.4347598242 1.0177275167 0.9405906275
H -3.3122018832 1.6591418958 -0.2602137645
H -5.0073012287 1.4312287729 -0.6757686086
H -3.5796168114 -0.3871571318 -1.6348954046
H -4.7987350037 -0.9960409647 -0.5169232294
H -2.7491706226 -2.1523620183 -0.0617746689
H -3.0726365003 -1.0739478618 1.2945140246
H -1.4148709488 0.5427696234 0.4329928654
H -1.1737577177 -0.4546514592 -1.0047244329
H -0.6461058723 -1.3643112946 1.8565506596
H -0.2841053577 -2.2864663872 0.3992371606
H 0.9741962028 0.4067047332 1.0987841340
H 1.7011044187 -1.1570649507 1.4537443605
H 1.7324556289 -1.7001675260 -0.9744896406
H 1.0481019561 -0.1126150342 -1.3368099532
H 3.7254024089 -0.5633206492 0.0906983306
H 3.5151615320 -0.1527309491 -1.6187197065
H 2.2303756850 1.9535487558 -0.8350173858
28
CONF109
C -4.9132869215 -0.7048620777 0.5397730986
C -3.8414411908 0.1851467306 -0.0786313860
C -2.4625208572 -0.4697593077 -0.0331106540
C -1.3889239581 0.4212584379 -0.6555813341
C -0.0098877665 -0.2386686815 -0.7203065019
C 0.6636391965 -0.3487617425 0.6469430322
C 1.9676297156 -1.1487192915 0.6148833278
C 3.0570344588 -0.4860623646 -0.2330130096
C 3.4213876765 0.8616367965 0.2863134677
O 3.6057979928 1.8500741199 -0.3833757356
H -4.9769493874 -1.6503516972 0.0056762587
H -4.6798236558 -0.9150873283 1.5811920206
H -5.8853146405 -0.2195686635 0.4965837555
H -3.8057877286 1.1368580212 0.4564184575
H -4.1041104158 0.4006119389 -1.1168987915
H -2.4988790961 -1.4187486597 -0.5732403976
H -2.2110106740 -0.6877368093 1.0062100975
H -1.3161541863 1.3535673518 -0.0902522505
H -1.7001833694 0.6786901781 -1.6710300106
H -0.1107117397 -1.2347209942 -1.1570210644
H 0.6217876644 0.3570826383 -1.3821257807
H 0.8629695514 0.6568211707 1.0268722553
H -0.0171918739 -0.8391647801 1.3440618399
H 2.3349556588 -1.2622659108 1.6365587266
H 1.7688090498 -2.1438925533 0.2154163523
H 3.9648956043 -1.0933207762 -0.1744105561
H 2.7666805876 -0.4121149857 -1.2807396696
H 3.5325028474 0.9104058931 1.3857289402
28
CONF113
C -4.8611787567 -0.4752640503 -0.7034603756
C -3.7899012102 0.2375788922 0.1135325324
C -2.4402017182 -0.4718378085 0.0249575116
C -1.3630328939 0.2587666158 0.8244120097
C -0.0224293612 -0.4763686764 0.8674167675
C 0.6643020610 -0.5504526264 -0.4953635212
C 2.0400965879 -1.2192916914 -0.4390522243
C 3.0915346551 -0.3541328351 0.2601059947
C 3.3185178915 0.9307916113 -0.4593549421
O 3.4669118932 2.0128042421 0.0571398441
H -4.5768993774 -0.5138065703 -1.7526862337
H -4.9958977669 -1.4942178283 -0.3476536339
H -5.8123469776 0.0453701831 -0.6242247745
H -4.1038773800 0.2878750909 1.1586981334
H -3.6806355219 1.2630372581 -0.2472389364
H -2.1455980633 -0.5348590078 -1.0238437039
H -2.5437810659 -1.4905945958 0.4057227666
H -1.7196798848 0.3898179327 1.8492026427
H -1.2120879901 1.2551550373 0.4013268310
H 0.6264368306 0.0502330298 1.5695811847
H -0.1778009256 -1.4880008996 1.2488163919
H 0.0345658044 -1.1188821388 -1.1809912243
H 0.7710746668 0.4605028486 -0.8980725840
H 1.9570805658 -2.1719599555 0.0850709599
H 2.3752505761 -1.4228225154 -1.4577747449
H 2.8305085226 -0.1526477775 1.2989105761
H 4.0488310274 -0.8833282972 0.2497678625
H 3.3590746515 0.8341286519 -1.5605400625
28
CONF86
C -4.2332989650 0.8261643623 0.6145512664
C -3.9466612685 -0.3408462609 -0.3238522604
C -2.5131838142 -0.3483987321 -0.8566971069
C -1.4671425133 -0.6286977870 0.2205330740
C -0.0624782095 -0.7379391045 -0.3693073244
C 0.9848023473 -0.9984779424 0.7119566550
C 2.3817734793 -1.2747289933 0.1526445471
C 2.9800187625 -0.0679136070 -0.5756088140
C 3.1250317524 1.1076033615 0.3279133900
O 2.8536364721 2.2510125507 0.0480422720
H -5.2827026019 0.8314465064 0.8996168450
H -3.6370228225 0.7547131819 1.5202133396
H -4.0056026953 1.7709206594 0.1256488926
H -4.6318501408 -0.2851164664 -1.1729594780
H -4.1417193083 -1.2810690739 0.1968073787
H -2.2990300609 0.6149541657 -1.3256836471
H -2.4328870405 -1.1166473534 -1.6298530964
H -1.7192771020 -1.5607338867 0.7322485743
H -1.4767836189 0.1721853415 0.9619266316
H -0.0401399117 -1.5507937906 -1.0988307236
H 0.1694038294 0.1914272992 -0.8930537804
H 1.0268201657 -0.1369804490 1.3837187712
H 0.6711210466 -1.8629392057 1.3015157532
H 3.0412632798 -1.5540922093 0.9763784651
H 2.3327955934 -2.1151954268 -0.5406019324
H 3.9890924097 -0.3242633713 -0.9108010513
H 2.3925794605 0.2089696461 -1.4507272876
H 3.5302499632 0.8646667785 1.3280754806
28
CONF87
C -4.3563086773 0.8652202504 -0.6521691744
C -2.9466740985 0.6355688647 -0.1192097198
C -2.7097253991 -0.8334708931 0.2264518327
C -1.3482505243 -1.0984605362 0.8704772714
C -0.1748021607 -0.8943201785 -0.0862206741
C 1.1537571862 -1.2608783356 0.5730680387
C 2.3428234451 -1.2174303326 -0.3888257605
C 2.6363824189 0.1923628476 -0.9094027153
C 2.9691900045 1.1326543544 0.1971326057
O 2.5638108299 2.2653290460 0.3069964728
H -4.5238559789 0.2747509383 -1.5501763617
H -5.0968547005 0.5759469534 0.0903072287
H -4.5065424183 1.9138820115 -0.8969694666
H -2.7926974051 1.2445730566 0.7747528246
H -2.2253974045 0.9611100963 -0.8703819613
H -2.8036658468 -1.4364432610 -0.6797151407
H -3.4908421451 -1.1563409916 0.9192345038
H -1.3299561378 -2.1293003192 1.2331769912
H -1.2255465913 -0.4426753638 1.7360368190
H -0.3228282476 -1.5155923257 -0.9724321553
H -0.1478565338 0.1488709286 -0.4019108967
H 1.3373893429 -0.5798317347 1.4083739769
H 1.0761485500 -2.2712780334 0.9811482541
H 3.2268996236 -1.5949911758 0.1282408661
H 2.1433987894 -1.8717934791 -1.2381921886
H 3.5186468881 0.1522634284 -1.5546398299
H 1.8070862598 0.5893436622 -1.4944246778
H 3.6595083423 0.7166387192 0.9546868639
28
CONF161
C -4.9270282787 0.2916755695 -0.7772395081
C -4.0301459993 -0.5452781002 0.1274652187
C -2.5591129988 -0.1598754051 -0.0148009393
C -1.6608848696 -1.0073030909 0.8841927666
C -0.1934560072 -0.5769826870 0.8553834989
C 0.4734111555 -0.8195030381 -0.4984228942
C 1.9932740476 -0.6578044321 -0.4556931438
C 2.4264035910 0.7781742224 -0.1463619202
C 3.8903070371 0.9736893803 -0.3382158623
O 4.6208328379 1.5941627040 0.3970376020
H -4.6503632542 0.1546831735 -1.8202593692
H -5.9682990130 0.0025619493 -0.6572215107
H -4.8334529301 1.3478516097 -0.5342318844
H -4.1504454100 -1.6024531446 -0.1201955296
H -4.3393896054 -0.4130606551 1.1669410732
H -2.4380257585 0.8944607443 0.2449483689
H -2.2618345217 -0.2838952567 -1.0573053944
H -1.7372815511 -2.0553409783 0.5849959574
H -2.0257674640 -0.9323774829 1.9116386996
H -0.1322053155 0.4806071001 1.1165723326
H 0.3475899762 -1.1414130869 1.6186259168
H 0.2468741941 -1.8379408935 -0.8213020286
H 0.0621227039 -0.1347267850 -1.2410272608
H 2.4079781240 -1.3280877304 0.2996144897
H 2.4054941803 -0.9493164275 -1.4239356761
H 1.9317861905 1.4533729038 -0.8516062669
H 2.1508464095 1.0754525950 0.8652321338
H 4.2986845031 0.4991089135 -1.2499822979
28
CONF159
C -4.9132905195 0.3432505935 0.7388349430
C -4.0242353976 -0.5362547234 -0.1326180310
C -2.5485353174 -0.1679586012 0.0064205689
C -1.6564802365 -1.0577271715 -0.8572217072
C -0.1858293400 -0.6377137664 -0.8431373129
C 0.4756289345 -0.8258742769 0.5217675399
C 1.9943291112 -0.6528125437 0.4814113748
C 2.4166908588 0.7760298489 0.1290026619
C 3.8756600931 0.9974555570 0.3298173191
O 4.6003855989 1.6256575256 -0.4046628533
H -5.9580757511 0.0653171133 0.6234072771
H -4.6434256305 0.2375221374 1.7872396951
H -4.8033295990 1.3892000198 0.4611018067
H -4.3255353199 -0.4333683457 -1.1777142834
H -4.1619341903 -1.5828434936 0.1486170546
H -2.2600929850 -0.2611046370 1.0546218564
H -2.4104401271 0.8752149983 -0.2877144204
H -2.0193519783 -1.0202258672 -1.8874253830
H -1.7417415838 -2.0925268260 -0.5171982847
H 0.3531515745 -1.2383933705 -1.5797149987
H -0.1163476595 0.4071160198 -1.1496357337
H 0.0549508082 -0.1178870188 1.2368286272
H 0.2548925095 -1.8336797187 0.8800596509
H 2.4034481934 -0.9096707296 1.4607255156
H 2.4188211199 -1.3434327557 -0.2496956938
H 2.1485077346 1.0381588002 -0.8942798190
H 1.9075349702 1.4697926706 0.8056258667
H 4.2855728256 0.5379264379 1.2485578791
28
CONF88
C -4.3833600814 0.8904103851 0.5744400953
C -2.9594426758 0.6321009954 0.0952617555
C -2.7201862748 -0.8514988266 -0.1792771491
C -1.3482349923 -1.1484704260 -0.7858522744
C -0.1894700347 -0.8741510247 0.1711574555
C 1.1473343471 -1.3010317210 -0.4326859270
C 2.3236600151 -1.1611428117 0.5357557021
C 2.6291116251 0.2960235623 0.8927439964
C 3.0027365371 1.0933036986 -0.3090129739
O 2.6255848461 2.2134789460 -0.5584722267
H -5.1026109141 0.5730379855 -0.1773972619
H -4.5815041504 0.3394135710 1.4910874740
H -4.5351362800 1.9491613983 0.7698104521
H -2.2597676037 0.9861350889 0.8538929516
H -2.7749184116 1.2013954655 -0.8188287309
H -3.4892387363 -1.2045178958 -0.8708605074
H -2.8321140316 -1.4123777353 0.7515515157
H -1.2170323457 -0.5498826024 -1.6907310527
H -1.3194666291 -2.2006436729 -1.0802235388
H -0.1607350245 0.1910499799 0.4014125758
H -0.3563840297 -1.4203003692 1.1023487417
H 1.0748321495 -2.3465236213 -0.7410280942
H 1.3418094365 -0.7045965954 -1.3281267319
H 2.1037184697 -1.7103987796 1.4518786745
H 3.2098602926 -1.6062022994 0.0796251293
H 1.7939544033 0.7718903141 1.4061635766
H 3.4957951272 0.3211016804 1.5595144462
H 3.6969555371 0.5774004534 -0.9985016239
28
CONF223
C -3.7765752941 0.4434388062 -1.2884911964
C -3.7605710940 -0.2542093428 0.0673349456
C -2.4594607494 -0.0398584255 0.8423413827
C -1.2527169120 -0.7234578614 0.2020669839
C 0.0030556271 -0.5522828369 1.0547766427
C 1.2077526871 -1.3396555213 0.5354624451
C 1.6674229922 -0.9647129976 -0.8756158721
C 2.0506934056 0.5120771930 -1.0082607073
C 3.1574141762 0.8819969168 -0.0827020631
O 3.2061269513 1.8797782562 0.5966461756
H -3.5717672675 1.5052048160 -1.1707110595
H -3.0315332047 0.0192714564 -1.9558038202
H -4.7517706257 0.3326627151 -1.7566038622
H -3.9225990258 -1.3251846916 -0.0734099391
H -4.5886517457 0.1281770775 0.6687652210
H -2.5881459989 -0.4307054488 1.8549724125
H -2.2640208151 1.0318777457 0.9277463151
H -1.0839931623 -0.2999629949 -0.7875518378
H -1.4646637631 -1.7887335001 0.0835121711
H 0.2563601589 0.5073640408 1.1278883892
H -0.2119678325 -0.8975657787 2.0694326208
H 2.0386966874 -1.1869679123 1.2294739346
H 0.9608411065 -2.4036275809 0.5436796297
H 2.5328039509 -1.5802027149 -1.1288855249
H 0.8785029884 -1.1900572709 -1.5923686390
H 2.4242054343 0.6868485549 -2.0212388173
H 1.1967563575 1.1687216602 -0.8431067385
H 3.9897434907 0.1539224964 -0.0558853005
28
CONF162
C -4.9010268981 0.3666734962 0.7323822563
C -4.0203319077 -0.5310147983 -0.1289780133
C -2.5419323083 -0.1715063411 0.0034688363
C -1.6561138280 -1.0773324422 -0.8498439166
C -0.1836636105 -0.6634159459 -0.8434910774
C 0.4793283395 -0.8385497577 0.5223405773
C 1.9968989155 -0.6564155526 0.4806008233
C 2.4097337254 0.7737126459 0.1226207968
C 3.8654355482 1.0098963515 0.3300450352
O 4.5862052459 1.6481976217 -0.3996665313
H -4.7833696092 1.4080203923 0.4406879409
H -5.9482118686 0.0954837829 0.6226613288
H -4.6298228619 0.2727048422 1.7815952689
H -4.3224738075 -0.4393987783 -1.1748631659
H -4.1653984097 -1.5727863895 0.1660683853
H -2.2531120681 -0.2536415554 1.0524656035
H -2.3972367932 0.8670449677 -0.3035822123
H -2.0206051471 -1.0517246551 -1.8798243305
H -1.7455781770 -2.1071029536 -0.4959788039
H 0.3518992032 -1.2742700275 -1.5741437375
H -0.1108444709 0.3776317395 -1.1618217160
H 0.0548368373 -0.1280804838 1.2326488825
H 0.2642301317 -1.8450543412 0.8875665720
H 2.4078346022 -0.9067089718 1.4608702300
H 2.4256126042 -1.3472644192 -0.2477892273
H 2.1446685682 1.0286326293 -0.9033068834
H 1.8912781143 1.4671588306 0.7925981951
H 4.2765158625 0.5526459727 1.2494004611
28
CONF175
C -4.7290126170 -0.0016430058 -0.9124437546
C -4.2729573528 -0.5056097381 0.4524683214
C -2.8482004771 -0.0781957885 0.8078457712
C -1.7828367479 -0.7322722532 -0.0699710627
C -0.3711342147 -0.3617843106 0.3811629619
C 0.6914058708 -1.0047780849 -0.5080565034
C 2.1208455891 -0.7532631054 -0.0272727104
C 2.5365510013 0.7143574800 -0.1645428822
C 3.9234651662 0.9508902106 0.3210158223
O 4.7458380013 1.6587444859 -0.2107124308
H -5.7716601185 -0.2610263192 -1.0803515321
H -4.6314454663 1.0802640602 -0.9695007406
H -4.1381479756 -0.4443089922 -1.7096864249
H -4.3383314693 -1.5957134631 0.4768833315
H -4.9521681358 -0.1173882711 1.2151444091
H -2.6545504203 -0.3441505776 1.8500828338
H -2.7689202813 1.0083115110 0.7248475153
H -1.9161756614 -0.4194393073 -1.1066348048
H -1.9027573444 -1.8175698868 -0.0311957240
H -0.2713667004 0.7247541718 0.3570315295
H -0.2256995864 -0.6888733895 1.4133152170
H 0.5219469731 -2.0833773309 -0.5293082799
H 0.5821392834 -0.6347590495 -1.5293778120
H 2.2111835860 -1.0591779550 1.0165746116
H 2.8036182169 -1.3675850456 -0.6174010396
H 2.4431035072 1.0592424709 -1.1952866229
H 1.8870886832 1.3308752833 0.4633601825
H 4.1757945414 0.4192483227 1.2571771666
28
CONF248
C -4.3011554972 0.0976047504 -0.8113276638
C -3.0766583515 0.6621196594 -0.1003978043
C -1.9985469178 -0.3992997074 0.1073582037
C -0.7645445039 0.1775345099 0.7973479269
C 0.2763678565 -0.8748154313 1.1835399436
C 0.8535093065 -1.6774328532 0.0168077778
C 1.6743212057 -0.8580367506 -0.9800649827
C 2.9284098997 -0.2547194324 -0.3429943323
C 2.7165550743 1.0968728373 0.2536032976
O 1.8617409373 1.8880511713 -0.0659348739
H -4.0281170933 -0.2892980727 -1.7905109050
H -4.7367347064 -0.7133747917 -0.2318480929
H -5.0555055587 0.8691270818 -0.9446694390
H -3.3746809297 1.0688437299 0.8689050285
H -2.6603591353 1.4842047864 -0.6873765598
H -1.7227785580 -0.8114278001 -0.8646505099
H -2.4053598529 -1.2122815801 0.7141310403
H -1.0815561559 0.6867485581 1.7119220145
H -0.3070518107 0.9345475141 0.1574976347
H 1.0905912592 -0.3696725183 1.7113136420
H -0.1822642930 -1.5757234180 1.8857034007
H 1.4907669633 -2.4650601631 0.4272323857
H 0.0393283025 -2.1669911865 -0.5184501591
H 1.9656221356 -1.5137316354 -1.8014810674
H 1.0680061745 -0.0514498743 -1.3940091281
H 3.3509472339 -0.9232680824 0.4075296029
H 3.6976228336 -0.1033566568 -1.1071040347
H 3.4585023962 1.3745224808 1.0263457786
28
CONF241
C -4.3020657191 0.7604947880 -0.4845668210
C -3.2733807240 -0.0306034255 0.3155312208
C -2.3133165232 -0.7893184800 -0.5986793328
C -1.3672374725 -1.7265163776 0.1535987190
C -0.4191518508 -1.0378617336 1.1387818386
C 0.5082890033 0.0085070353 0.5189878888
C 1.4489258853 -0.5705000729 -0.5373810274
C 2.4842420306 0.4644424887 -0.9810047006
C 3.4270050265 0.8176327881 0.1175303089
O 3.8438819933 1.9248323321 0.3627382505
H -4.8965639207 0.0946438897 -1.1064202009
H -4.9729114308 1.2989464068 0.1805366280
H -3.8085186747 1.4821378953 -1.1318866912
H -3.7891048354 -0.7416711459 0.9652964167
H -2.7135733095 0.6567652380 0.9519411676
H -1.7394535595 -0.0749419366 -1.1911066109
H -2.9010291520 -1.3907370550 -1.2970917419
H -0.7813404809 -2.2897224164 -0.5747372799
H -1.9668243839 -2.4483287856 0.7139032782
H -1.0050723496 -0.5600182786 1.9257232129
H 0.1923838359 -1.8087512497 1.6143072310
H -0.0820049549 0.8135750502 0.0789515869
H 1.1091607686 0.4516262329 1.3189317552
H 1.9613184499 -1.4429761075 -0.1271093841
H 0.8764817348 -0.8908789579 -1.4072408605
H 3.0974696832 0.0402385332 -1.7815567414
H 2.0073137452 1.3693024344 -1.3604392989
H 3.7582874417 -0.0442237244 0.7266161702
28
CONF119
C -4.7330335610 -0.2606688115 -0.2080793051
C -3.6116728653 0.6499739782 0.2802418029
C -2.2326602296 0.2527968237 -0.2501931312
C -1.7181125001 -1.0591867607 0.3398533663
C -0.3461464526 -1.4656095310 -0.2005551619
C 0.7872368635 -0.5561708919 0.2699831952
C 2.1494674466 -1.0616244646 -0.2026652271
C 3.2751626060 -0.1271421535 0.2442167936
C 3.1731271695 1.2116539857 -0.4019824610
O 3.3610471207 2.2746399310 0.1405463399
H -4.6092809192 -1.2721235433 0.1692172782
H -5.6954815624 0.1121821371 0.1342256530
H -4.7459686818 -0.2965559973 -1.2951795364
H -3.5906011194 0.6472878447 1.3724058887
H -3.8255921305 1.6718516138 -0.0421086148
H -1.5308006626 1.0540546550 -0.0107515190
H -2.2788849943 0.1654054382 -1.3383414894
H -2.4262479144 -1.8560844869 0.1074080155
H -1.6652762378 -0.9677409580 1.4272866769
H -0.1309896320 -2.4851077478 0.1280055759
H -0.3777326466 -1.4700876820 -1.2923540910
H 0.6361414329 0.4577104697 -0.1073297836
H 0.7784409131 -0.5054193405 1.3611168918
H 2.3285296284 -2.0578184589 0.2034429273
H 2.1505155120 -1.1365582566 -1.2917404052
H 3.2897534932 -0.0110454418 1.3288086414
H 4.2360094284 -0.5452632355 -0.0692171161
H 2.9130310474 1.1785509615 -1.4765058571
28
CONF204
C -4.8338269995 -0.9616161776 0.5208177431
C -4.2411472075 -0.0046333648 -0.5078171074
C -2.8448676644 0.4938446151 -0.1322405787
C -1.7759374761 -0.5955092252 -0.1931750489
C -0.3877411721 -0.0452740606 0.1287316406
C 0.6819050830 -1.1336692554 0.0563539942
C 2.0580617366 -0.6660757811 0.5309305762
C 2.6673675405 0.4057504655 -0.3766262330
C 4.0915145453 0.6832123122 -0.0403043995
O 4.6102340016 1.7738920736 -0.0182414911
H -5.8536407082 -1.2229928456 0.2483710895
H -4.2544267046 -1.8788716118 0.5810200237
H -4.8499459399 -0.4978943482 1.5047056622
H -4.9034036184 0.8588225052 -0.6060731090
H -4.1974097338 -0.4991037507 -1.4808664479
H -2.8739613665 0.9156883126 0.8751804916
H -2.5647224780 1.2978281314 -0.8174779105
H -1.7679029416 -1.0351497425 -1.1933751133
H -2.0169382202 -1.3880133743 0.5169850798
H -0.1532263690 0.7552935830 -0.5745931334
H -0.3975257161 0.3851366089 1.1327911407
H 0.3700768778 -1.9708266479 0.6846848276
H 0.7553649578 -1.5007249469 -0.9692926532
H 1.9749428480 -0.2723401541 1.5456032458
H 2.7301663897 -1.5261826144 0.5599355439
H 2.6637576623 0.0374793286 -1.4074488309
H 2.1008227278 1.3361924467 -0.3444112792
H 4.6900140763 -0.2171005822 0.1926714290
28
CONF191
C -4.8001756974 0.6895097961 -0.2617971514
C -3.4751633622 -0.0140751087 -0.5323176260
C -2.8911688480 -0.6203503450 0.7424270042
C -1.6183267082 -1.4336994823 0.5045049925
C -0.4273127743 -0.5827430599 0.0657826440
C 0.8505842316 -1.4160250458 -0.0181041028
C 2.0438012925 -0.6453267377 -0.5838083801
C 2.4922785284 0.5035048010 0.3238051801
C 3.8013685921 1.0748886827 -0.0980253499
O 4.0821946484 2.2495378546 -0.1219986630
H -4.6645886619 1.4907573818 0.4612968150
H -5.2008562082 1.1175866556 -1.1774465531
H -5.5299169597 -0.0111498335 0.1380305065
H -2.7717028770 0.7043626688 -0.9557298825
H -3.6290558451 -0.8057780826 -1.2691534996
H -3.6431052751 -1.2737914656 1.1917213437
H -2.6812455320 0.1788054386 1.4572592712
H -1.8159883539 -2.1982926563 -0.2504193241
H -1.3565952837 -1.9476080601 1.4326940428
H -0.6292376234 -0.1429178307 -0.9121683142
H -0.2948112860 0.2306072404 0.7808605521
H 1.1010512255 -1.7953633896 0.9747717387
H 0.6623763036 -2.2777275336 -0.6622789339
H 2.8782864886 -1.3375161461 -0.7138724779
H 1.7842065790 -0.2465336885 -1.5661505849
H 1.7490077940 1.2992001907 0.3701586845
H 2.6422613353 0.1134617477 1.3355852370
H 4.5539742579 0.3213135026 -0.3963137525
28
CONF208
C -4.4484486159 0.7767939224 -0.6052239362
C -3.5668093032 0.0868701054 0.4292905062
C -2.3389541495 -0.5589828296 -0.2095861112
C -1.4500717724 -1.2392536804 0.8295377410
C -0.2944256990 -2.0345916725 0.2187964289
C 0.7007296242 -1.2082493693 -0.5981572085
C 1.4183410909 -0.1433652206 0.2291100676
C 2.5151623253 0.5454633420 -0.5870557274
C 3.1538859857 1.6661676098 0.1569553632
O 4.3344921290 1.9219271498 0.1688554459
H -3.8940269348 1.5595310998 -1.1182445334
H -4.7954404367 0.0611497140 -1.3472928328
H -5.3166702796 1.2265382132 -0.1296919774
H -4.1487143143 -0.6781381195 0.9485808822
H -3.2433386592 0.8169410173 1.1749814049
H -1.7734386746 0.2106835426 -0.7372369275
H -2.6640704396 -1.2981813110 -0.9455630171
H -2.0633826364 -1.9301621978 1.4136524613
H -1.0617667001 -0.4906370585 1.5220686197
H 0.2451556654 -2.5348716288 1.0264825466
H -0.7096387009 -2.8102604790 -0.4287546435
H 1.4446839257 -1.8908765378 -1.0147336563
H 0.1867428601 -0.7347728479 -1.4354450951
H 0.7037440237 0.6071863407 0.5683773884
H 1.8630157710 -0.6095461560 1.1105519270
H 3.2789146646 -0.1635895399 -0.9097216617
H 2.0641307799 0.9876742786 -1.4810393392
H 2.4470818243 2.2970811473 0.7272772442
28
CONF445
C -3.8242219993 1.4356852810 0.1354773192
C -3.1900283518 0.2044964706 -0.5008029293
C -2.0483296734 -0.3490053224 0.3494013004
C -1.4140217626 -1.5869519409 -0.2840181618
C -0.2393023459 -2.1543510971 0.5256912217
C 1.1391272404 -1.7314792122 0.0139056687
C 1.4007482865 -0.2319250820 0.1192170433
C 2.8350262936 0.1199249598 -0.2667100401
C 3.1177441399 1.5813201688 -0.2052617065
O 2.3294060914 2.4442250690 0.0982592363
H -4.6323251604 1.8152203564 -0.4851434810
H -4.2281537662 1.1922795533 1.1156896276
H -3.0842970322 2.2238900685 0.2570790131
H -2.8082073749 0.4654414359 -1.4906700099
H -3.9502933221 -0.5689250923 -0.6334969406
H -2.4342183529 -0.6115326286 1.3376066729
H -1.2978776192 0.4306699302 0.4866955062
H -1.0779651159 -1.3447891717 -1.2943113093
H -2.1894586331 -2.3507232264 -0.3782757396
H -0.3430625917 -1.8540920240 1.5702392136
H -0.2804940324 -3.2450844635 0.4954951770
H 1.8965379234 -2.2625301730 0.5956407615
H 1.2433252457 -2.0437724989 -1.0276462859
H 0.7219659249 0.3159332315 -0.5354573399
H 1.2161568077 0.1048752364 1.1415552148
H 3.5517806600 -0.3824611093 0.3883072109
H 3.0566543100 -0.2135678783 -1.2842062578
H 4.1571998074 1.8514721208 -0.4710678044
28
CONF499
C -3.4242176631 1.5223274651 -0.3843950283
C -2.6798317622 0.2206904122 -0.6584104554
C -2.4160622801 -0.5583298130 0.6298505239
C -1.6320287073 -1.8598795960 0.4077507740
C -0.1404707280 -1.7530729943 0.7311935771
C 0.6217752063 -0.7894629190 -0.1743156082
C 2.1211759025 -0.8108828964 0.1198144003
C 2.8920487090 0.1595768568 -0.7727405135
C 2.6884498518 1.5952525440 -0.4246284867
O 2.0672327846 2.0236625837 0.5174349761
H -3.6199443164 2.0549495880 -1.3119524590
H -4.3748253177 1.3225977206 0.1053974130
H -2.8345987168 2.1671969137 0.2639908515
H -1.7359837484 0.4456258946 -1.1566570336
H -3.2729165619 -0.3991474337 -1.3351871539
H -3.3809960236 -0.7895982765 1.0869407661
H -1.8725836908 0.0789256666 1.3307022308
H -1.7535271548 -2.1832837669 -0.6282237012
H -2.0515969007 -2.6425455889 1.0432509171
H -0.0220698810 -1.4363820507 1.7701662778
H 0.3038653228 -2.7475946918 0.6382974911
H 0.4519710995 -1.0661847022 -1.2178982777
H 0.2506973141 0.2252004504 -0.0243383711
H 2.2837051734 -0.5355011368 1.1639338058
H 2.5051819702 -1.8212729360 -0.0293078573
H 3.9680386282 -0.0233098186 -0.7028337627
H 2.6198288707 0.0262095647 -1.8223769803
H 3.1867254738 2.2968259214 -1.1208182018
28
CONF199
C -4.7209805444 -0.1463550461 0.9434143497
C -4.2514762425 -0.3931959739 -0.4860802915
C -2.8185995295 0.0772793557 -0.7399371866
C -1.7691551141 -0.7434224439 0.0072508732
C -0.3498034342 -0.3074114773 -0.3517168957
C 0.6989249448 -1.1137640695 0.4121770570
C 2.1342027584 -0.7983861568 -0.0100754997
C 2.5534417707 0.6329599211 0.3362605250
C 4.0164652479 0.8486201317 0.1596501492
O 4.5307208195 1.8309912711 -0.3194616057
H -5.7663737994 -0.4263640840 1.0498321564
H -4.1404794837 -0.7312889339 1.6516389675
H -4.6201248340 0.9061196277 1.1991878918
H -4.9172975014 0.1372558694 -1.1709329837
H -4.3258453522 -1.4590017987 -0.7134355317
H -2.7296314079 1.1272558532 -0.4514002263
H -2.6148873611 0.0122448913 -1.8117549174
H -1.8975680704 -1.8001266706 -0.2392082396
H -1.9119008888 -0.6325366051 1.0832226014
H -0.1935786622 -0.4370048708 -1.4252370521
H -0.2410806536 0.7542849043 -0.1250986109
H 0.5864142263 -0.9305986220 1.4826870620
H 0.5159754824 -2.1764038086 0.2383825374
H 2.8087290955 -1.4941718830 0.4931607109
H 2.2366807356 -0.9523813363 -1.0858073676
H 2.0063338708 1.3703661294 -0.2507305036
H 2.3449249548 0.8132875090 1.3956170130
H 4.6481051420 0.0164224930 0.5222186622
28
CONF201
C -4.8386480501 -1.0306504027 0.4049708854
C -4.2361861894 0.0554675030 -0.4794782203
C -2.8480996629 0.5055954447 -0.0217108825
C -1.7780809462 -0.5730611594 -0.1789675074
C -0.3893740172 -0.0499375503 0.1835437824
C 0.6792399583 -1.1303060843 0.0271000357
C 2.0659710011 -0.6863515225 0.4937171247
C 2.6561799970 0.4276268690 -0.3751282137
C 4.0929640558 0.6763232336 -0.0718099162
O 4.6211886836 1.7606589808 -0.0054735829
H -4.8667189794 -0.7031738870 1.4419199193
H -5.8548429839 -1.2532354363 0.0881253815
H -4.2582245018 -1.9474399586 0.3477657586
H -4.9011597403 0.9223670540 -0.4736765233
H -4.1757870853 -0.3067798422 -1.5082340360
H -2.8980209908 0.8153117625 1.0248450308
H -2.5541024658 1.3788876798 -0.6094805342
H -1.7724635178 -0.9249983388 -1.2133237699
H -2.0159420779 -1.4239271335 0.4612866143
H -0.1549857215 0.8014499531 -0.4573403890
H -0.3974677510 0.3031854605 1.2173279964
H 0.3825328419 -2.0015779869 0.6150536059
H 0.7293181821 -1.4399379483 -1.0187548150
H 2.0061995455 -0.3420563685 1.5277691138
H 2.7374498792 -1.5469751812 0.4659579630
H 2.6165057036 0.1139699140 -1.4231874637
H 2.0997174461 1.3594346397 -0.2759409900
H 4.6915415689 -0.2397708188 0.0884528460
28
CONF165
C -3.8835061153 0.1672666175 -0.8810016342
C -3.0270743967 1.0065462013 0.0606492316
C -2.0194786917 0.1785531080 0.8587164515
C -0.9260758324 -0.4412089608 -0.0092744520
C 0.1410780266 -1.1252024134 0.8419789735
C 1.1793306564 -1.8890129052 0.0202542471
C 2.0986083014 -1.0048488729 -0.8243296841
C 2.9356512900 -0.0540642583 0.0345725130
C 2.2572046571 1.2426761049 0.3322289691
O 1.4173410273 1.7764359088 -0.3523101179
H -4.6355296154 0.7894491618 -1.3604406536
H -3.2753561596 -0.2879433080 -1.6578404545
H -4.3902958306 -0.6220744389 -0.3300942968
H -3.6821539280 1.5281514434 0.7627062283
H -2.4879944700 1.7639926913 -0.5132268902
H -2.5476197134 -0.6103771929 1.4001917175
H -1.5463620371 0.8292956403 1.5991849226
H -0.4677822622 0.3493915470 -0.6065953127
H -1.3631566555 -1.1729960652 -0.6903867009
H 0.6390627994 -0.3720555436 1.4597764743
H -0.3497578123 -1.8288292431 1.5191956684
H 1.7958290823 -2.4816850113 0.7007331385
H 0.6601242197 -2.5838688914 -0.6429325283
H 2.7612723555 -1.6524905102 -1.3994600324
H 1.5105447214 -0.4156340745 -1.5289739774
H 3.2432686602 -0.5307272202 0.9654132550
H 3.8472920287 0.2245146513 -0.5035346920
H 2.6174429787 1.7467191030 1.2493850107
28
CONF410
C -4.7775988770 0.5478466212 -0.0364827801
C -3.3060526448 0.5570774156 -0.4331594773
C -2.5168274075 -0.5364611689 0.2837036333
C -1.0425280922 -0.5381585623 -0.1166587112
C -0.2591423548 -1.6235784372 0.6181775469
C 1.1849129009 -1.7907347964 0.1401930216
C 2.0767441254 -0.5687319027 0.3922395647
C 2.1943205278 0.3537125335 -0.8192951050
C 3.0120946501 1.5696863615 -0.5539355536
O 3.5321778091 1.8620195751 0.4963313944
H -5.3197867919 1.3331672888 -0.5574956583
H -5.2328790414 -0.4081088647 -0.2854911912
H -4.8842411525 0.7083669948 1.0340712585
H -2.8726599539 1.5309237573 -0.1934856352
H -3.2214239542 0.4135704502 -1.5128006225
H -2.9570886511 -1.5088073041 0.0500513136
H -2.5976789490 -0.3894933980 1.3634557214
H -0.6192971197 0.4415679607 0.1122984294
H -0.9667159243 -0.7022397542 -1.1941914246
H -0.2583152068 -1.4021222131 1.6879956629
H -0.7757368186 -2.5771959943 0.4830347022
H 1.6070032145 -2.6479599722 0.6676828895
H 1.1865774364 -2.0310853852 -0.9245041456
H 1.6947586423 0.0023726953 1.2403679938
H 3.0831407712 -0.8956676117 0.6612673838
H 2.6520752601 -0.1709443590 -1.6621025198
H 1.2133956063 0.6913935441 -1.1610068785
H 3.1225042184 2.2379492370 -1.4289635158
28
CONF239
C -4.3235592096 0.7531195359 0.3896958177
C -3.1335980431 -0.1777003416 0.1867150406
C -1.9421581548 0.5594648871 -0.4223183557
C -0.7553447722 -0.3466305619 -0.7529795511
C -0.0721851973 -0.9167686132 0.4879753915
C 1.1075325003 -1.8328413754 0.1603991620
C 2.3295065009 -1.1209398523 -0.4230677068
C 2.9104923216 -0.0854851557 0.5423046815
C 2.2896956823 1.2671253356 0.4173398596
O 1.7694092763 1.7196713756 -0.5741494431
H -5.1599257128 0.2154398843 0.8297405948
H -4.0546407089 1.5735291514 1.0515211167
H -4.6455991989 1.1734675566 -0.5605081318
H -3.4228204324 -0.9979299817 -0.4742118894
H -2.8517576826 -0.6073544104 1.1492257447
H -1.6107858563 1.3451728761 0.2616312432
H -2.2699787342 1.0484441941 -1.3431999800
H -0.0317189049 0.2447379224 -1.3173887292
H -1.0923303831 -1.1663529023 -1.3918201771
H 0.2650802682 -0.0883532355 1.1175352465
H -0.7982953929 -1.4930149179 1.0640051055
H 1.4118226274 -2.3487420217 1.0745639219
H 0.7748412946 -2.5919080841 -0.5504956089
H 3.0866437265 -1.8728666767 -0.6481571272
H 2.0660003460 -0.6212734635 -1.3560784006
H 2.8430818267 -0.4271843459 1.5753190835
H 3.9710896492 0.0723897023 0.3224059824
H 2.3749530441 1.8935903082 1.3259128194
28
CONF516
C -4.0986255971 0.3726098153 0.3900827458
C -2.8038358076 1.0045947820 -0.1095893413
C -1.5546288393 0.1937402736 0.2419288560
C -1.4512311150 -1.1113204536 -0.5445166438
C -0.2455629343 -1.9719235594 -0.1604007411
C 1.1096638354 -1.3113468135 -0.4496088145
C 1.7528277917 -0.6987628915 0.7954761954
C 3.0218616326 0.0779295864 0.4504280970
C 2.7601384927 1.3851691151 -0.2177974142
O 1.6803523915 1.8952857267 -0.3939035032
H -4.2801935271 -0.5838793822 -0.0929351973
H -4.0517807687 0.2129193117 1.4650909235
H -4.9423943975 1.0246022580 0.1762445248
H -2.7055755952 1.9989044258 0.3326367186
H -2.8549512042 1.1320500424 -1.1934159910
H -1.5633328089 -0.0277179839 1.3121380054
H -0.6800701270 0.8115192794 0.0295950329
H -1.3985779348 -0.8786015564 -1.6112820172
H -2.3539030254 -1.7031895780 -0.3802423063
H -0.3079991072 -2.2238192432 0.9002073537
H -0.3158305427 -2.9064273053 -0.7210692331
H 1.7970432689 -2.0546582167 -0.8603038433
H 0.9773339403 -0.5357132594 -1.2062438056
H 1.0485482578 -0.0209395793 1.2780347056
H 1.9957433088 -1.4950616113 1.5007101639
H 3.5938595971 0.3061004508 1.3543642808
H 3.6787529057 -0.5082390851 -0.1963768865
H 3.6766363786 1.9068982324 -0.5534403504
28
CONF345
C -4.2470239725 0.1787979781 0.9825490430
C -2.9446710417 0.4411621009 0.2348841611
C -2.4544586359 -0.8087370628 -0.4929632301
C -1.2264774917 -0.5634891636 -1.3717083703
C 0.0236226523 -0.0875508359 -0.6281759291
C 0.5473577996 -1.1032680443 0.3837766193
C 1.8126314568 -0.6350346862 1.1034971622
C 2.9932766983 -0.4349629760 0.1517899643
C 3.0760686342 0.9370945222 -0.4296700142
O 2.5398061263 1.9287018070 0.0027591147
H -4.5781036135 1.0755955469 1.5005994755
H -5.0291844831 -0.1276835498 0.2913845919
H -4.1109420288 -0.6120223130 1.7169932175
H -2.1878695400 0.7758879714 0.9460085872
H -3.0969456587 1.2437135667 -0.4907311033
H -3.2598906278 -1.1768873686 -1.1338473116
H -2.2397141496 -1.5910360626 0.2368314433
H -1.4825022631 0.1852626601 -2.1256602745
H -0.9874044622 -1.4913405150 -1.8975902457
H 0.7988227733 0.1122467927 -1.3733484731
H -0.1780614529 0.8589571114 -0.1232487437
H -0.2192264663 -1.2887423907 1.1369612783
H 0.7485264000 -2.0483059255 -0.1269510411
H 1.6131917839 0.3111397849 1.6112283047
H 2.0761346936 -1.3761895062 1.8588390149
H 3.9374768567 -0.5696235539 0.6889074412
H 2.9818706840 -1.1688181321 -0.6550862605
H 3.7318581488 1.0108959766 -1.3183301105
28
CONF240
C -3.1059417176 1.4239441437 0.1377203887
C -3.0438307558 0.2166613139 -0.7913743686
C -2.7935478757 -1.1018392066 -0.0563917837
C -1.4844097578 -1.1653685547 0.7323687689
C -0.2397460592 -1.0190295833 -0.1405065845
C 1.0370003175 -1.2175910583 0.6743655962
C 2.3118364415 -1.1814669213 -0.1709561327
C 2.5609904695 0.1879730419 -0.8109910568
C 2.6830932028 1.2581752436 0.2183632076
O 2.1480312777 2.3404627582 0.1788029849
H -3.4147517483 2.3083227269 -0.4148503518
H -3.8222216985 1.2517607878 0.9382434369
H -2.1343865145 1.6284692887 0.5808046963
H -2.2678853019 0.3762734332 -1.5416176752
H -3.9952359894 0.1306444190 -1.3220374859
H -2.8017783541 -1.9128892627 -0.7888199351
H -3.6206599141 -1.2755379889 0.6365136543
H -1.4445108878 -2.1301417138 1.2448901151
H -1.4792395929 -0.3902129260 1.5007070008
H -0.2751475661 -1.7560311659 -0.9461102944
H -0.2321712174 -0.0250510324 -0.5881844070
H 1.0916520592 -0.4432063045 1.4445522801
H 0.9841453170 -2.1839884688 1.1810752346
H 3.1619252045 -1.4351056352 0.4650286412
H 2.2442162415 -1.9314500887 -0.9597994664
H 3.5149499187 0.1582917082 -1.3445785136
H 1.7794432316 0.4490461619 -1.5240949191
H 3.3360017944 0.9947589107 1.0715397448
28
CONF106
C -4.5858071714 0.5357132335 0.5094253731
C -4.0273335603 -0.8825792664 0.4717676439
C -2.8433747751 -1.0389305774 -0.4837277143
C -1.5936603283 -0.2867865848 -0.0290575223
C -0.4069158573 -0.5709034363 -0.9486427881
C 0.8308343114 0.2643142172 -0.6191023684
C 1.4561968904 -0.0903094332 0.7297261760
C 2.7597137470 0.6786930146 0.9520378542
C 3.8193453260 0.2738348218 -0.0141989949
O 4.5982217545 1.0177959896 -0.5615763371
H -3.8555639768 1.2327338908 0.9115299701
H -4.8603263277 0.8621204710 -0.4913691124
H -5.4725206382 0.5744281202 1.1377681191
H -4.8205422590 -1.5642081893 0.1556072921
H -3.7201136884 -1.1782645939 1.4773999687
H -3.1351421439 -0.6899117875 -1.4770878183
H -2.6004832517 -2.1011995247 -0.5668896532
H -1.3532985141 -0.5892742588 0.9913507883
H -1.7901805172 0.7863520396 -0.0269307462
H -0.1521581047 -1.6318484036 -0.8946967557
H -0.7047739062 -0.3573469955 -1.9779279013
H 1.5784668337 0.1106254474 -1.4026412638
H 0.5637342065 1.3233069913 -0.6274701711
H 0.7629851872 0.1529302176 1.5340525862
H 1.6565914736 -1.1628235579 0.7653514444
H 2.6015616451 1.7564681120 0.8928675741
H 3.1507130167 0.4446966393 1.9465659386
H 3.8692064243 -0.8146924768 -0.2045077087
28
CONF284
C -4.5769202951 0.2018049464 -0.7911889314
C -3.4739476783 0.3153504173 0.2546996965
C -2.3099489973 -0.6278350788 -0.0426376008
C -1.1986739068 -0.5054207944 0.9978997181
C -0.0830908866 -1.5373692990 0.8207164871
C 0.6662412258 -1.4612426072 -0.5117089538
C 1.3276668085 -0.1141645705 -0.8050030367
C 2.4091629728 0.2436762843 0.2186111486
C 3.0493866180 1.5526136313 -0.0826990199
O 4.2307676926 1.7953179671 -0.0064738937
H -4.9697997691 -0.8120583090 -0.8213253603
H -5.3947545785 0.8802886542 -0.5610604812
H -4.1930398528 0.4488649232 -1.7785161905
H -3.8843411114 0.0841588944 1.2404505967
H -3.1068915803 1.3440332008 0.2837003703
H -1.9173334155 -0.3986024972 -1.0346923131
H -2.6771208434 -1.6568137170 -0.0590842496
H -1.6340392888 -0.6446552981 1.9908233276
H -0.7857784573 0.5042948716 0.9674903296
H 0.6268978426 -1.4289075456 1.6428563599
H -0.5182599734 -2.5360581682 0.9027159760
H 1.4339908057 -2.2380886909 -0.5147389358
H -0.0255331571 -1.6868853584 -1.3243725865
H 1.7839549074 -0.1637873371 -1.7958352698
H 0.5743297708 0.6736742988 -0.8276964631
H 1.9475129598 0.3513538312 1.2042897048
H 3.1711042162 -0.5346438142 0.2808098694
H 2.3430239506 2.3453262789 -0.3924425848
28
CONF524
C -3.8286640806 0.9121913661 1.0340428509
C -2.8271943709 0.5454956368 -0.0553333409
C -2.5807791691 -0.9620456338 -0.1106081807
C -1.5353928401 -1.3713309158 -1.1585355347
C -0.1458957948 -1.6498711846 -0.5817615020
C 0.5244996245 -0.4265951488 0.0379898872
C 1.9495682106 -0.7395302082 0.4926929288
C 2.6190120256 0.4658384047 1.1497224005
C 2.9919945028 1.5487997467 0.1949442286
O 2.9020471121 1.5072158535 -1.0079710848
H -4.7790256613 0.4117601556 0.8614879455
H -3.4569149426 0.6106662781 2.0108857459
H -4.0029742634 1.9853182717 1.0485142127
H -1.8881483830 1.0705563979 0.1244156949
H -3.2088284849 0.8789833039 -1.0233365202
H -3.5314052960 -1.4501890558 -0.3371742405
H -2.2661011726 -1.3136485205 0.8740203784
H -1.4575414570 -0.5901562834 -1.9177550472
H -1.8708138214 -2.2802345465 -1.6624473495
H -0.2231990568 -2.4378249488 0.1715108358
H 0.4907834434 -2.0259114819 -1.3866326267
H 0.5525567879 0.3805866212 -0.6974066151
H -0.0564474079 -0.0867730231 0.8971243156
H 1.9270082349 -1.5691544813 1.2011542300
H 2.5425802504 -1.0458345146 -0.3715241940
H 1.9755277094 0.9011641953 1.9178128386
H 3.5448005114 0.1670216451 1.6496398380
H 3.3997508170 2.4532725700 0.6857994864
28
CONF118
C -5.1910118140 -0.1372979687 0.1700975105
C -3.7554960681 -0.0044659037 -0.3253769975
C -2.8226957849 -0.9805537269 0.3893954193
C -1.3869136110 -0.9562069073 -0.1382839439
C -0.6383924931 0.3267690491 0.2205612482
C 0.7867784338 0.3676125212 -0.3332329571
C 1.7237496179 -0.6442192219 0.3262269725
C 3.1614287306 -0.4646462728 -0.1643788352
C 3.7412745500 0.8381579815 0.2678237058
O 4.4433142310 1.5566883348 -0.4034438089
H -5.2451894801 0.0661825187 1.2373017403
H -5.8409852827 0.5645652139 -0.3468017827
H -5.5638904661 -1.1441068768 -0.0050542620
H -3.4173085260 1.0200136253 -0.1621738408
H -3.7237133111 -0.1987727109 -1.3999339649
H -3.2216671456 -1.9905107094 0.2666295611
H -2.8177314730 -0.7567965979 1.4587278447
H -1.4014888386 -1.0734574571 -1.2242807888
H -0.8549487445 -1.8107896753 0.2825293860
H -1.1832797809 1.1827309980 -0.1805041775
H -0.6071468806 0.4336237929 1.3072519194
H 0.7593390096 0.1881350427 -1.4102360141
H 1.1949357242 1.3709831885 -0.1804910375
H 1.6911977357 -0.5153581644 1.4097840830
H 1.3979048688 -1.6575724534 0.0946537697
H 3.7928664594 -1.2397119430 0.2797871400
H 3.2259740505 -0.5531263611 -1.2497538516
H 3.4930501520 1.1237209331 1.3071681540
28
CONF255
C -3.9628837029 0.0404199759 0.9177454853
C -2.8152702990 0.7307063431 0.1891285310
C -2.3114392173 -0.0533412319 -1.0239449571
C -1.7456885470 -1.4405385484 -0.7091702855
C -0.5731131988 -1.4539489796 0.2726431258
C 0.6492359374 -0.6902757228 -0.2319354367
C 1.8415589831 -0.8500723733 0.7100315607
C 3.0522871401 -0.0560218796 0.2163073923
C 2.8015614405 1.4125081656 0.2442493300
O 3.1321060261 2.2024431873 -0.6079830012
H -3.6339608119 -0.8902791269 1.3720953147
H -4.3498868425 0.6835801215 1.7047530175
H -4.7729029112 -0.1804370241 0.2260503667
H -1.9935303611 0.9042083368 0.8856646953
H -3.1555180532 1.7093274721 -0.1589248134
H -1.5480812916 0.5407287515 -1.5308342903
H -3.1406266242 -0.1787850769 -1.7250579956
H -1.4199671781 -1.8925561008 -1.6494377364
H -2.5429283177 -2.0683156714 -0.3074685333
H -0.8886824140 -1.0405393830 1.2317130510
H -0.2876149726 -2.4945624998 0.4454241409
H 0.9194245370 -1.0576912353 -1.2246350323
H 0.4137345203 0.3721274557 -0.3274106161
H 1.5642642618 -0.5057092971 1.7082785567
H 2.1100364083 -1.9047804854 0.7807394364
H 3.8974125528 -0.2342574695 0.8873896434
H 3.3443300997 -0.3594879490 -0.7900018586
H 2.2757481960 1.7663622958 1.1507683948
28
CONF148
C -4.9398935775 0.4058510933 -0.6392922612
C -4.0364959319 -0.5785837019 0.0941847594
C -2.5683087924 -0.1623668216 0.0294261931
C -1.6646046703 -1.1594329105 0.7519065042
C -0.1978315939 -0.7282765916 0.7991202121
C 0.4571968814 -0.6904014956 -0.5816259802
C 1.9814412248 -0.5877260270 -0.5201005466
C 2.4560190452 0.7395095747 0.0788594998
C 3.9406066507 0.8212923561 0.1477742379
O 4.6069720219 1.7945894343 -0.1143741741
H -4.8561044975 1.3983038647 -0.2020792821
H -4.6608882735 0.4698788464 -1.6886698005
H -5.9786749610 0.0904599837 -0.5788039933
H -4.1484040212 -1.5714225208 -0.3476948601
H -4.3472920929 -0.6460114169 1.1394293980
H -2.4544671447 0.8246576815 0.4840845006
H -2.2699477613 -0.0844233063 -1.0173243430
H -1.7399850750 -2.1331501290 0.2621049849
H -2.0259211810 -1.2789552761 1.7764212817
H -0.1371758678 0.2554334398 1.2677742992
H 0.3479018504 -1.4352909332 1.4284106077
H 0.1994064880 -1.6067347953 -1.1167831168
H 0.0656616737 0.1509061953 -1.1546687809
H 2.3773379120 -1.4137054155 0.0738052118
H 2.3815789602 -0.6801794696 -1.5316972131
H 2.0651921022 1.5909018714 -0.4800847969
H 2.0998100429 0.8131593766 1.1101934294
H 4.4332483394 -0.1108271279 0.4814500802
28
CONF53
C -3.7447563382 1.3290130868 -0.3814523261
C -2.3113170266 0.8191294177 -0.2886152911
C -2.2218647178 -0.4703950958 0.5259968090
C -0.7833183147 -0.9042699120 0.8080377099
C -0.0243967950 -1.3145811032 -0.4519596586
C 1.3416313554 -1.9333062470 -0.1561530104
C 2.3691169044 -0.9530152294 0.4126145068
C 2.6788020999 0.1864882388 -0.5615713918
C 1.7335629265 1.3385965601 -0.4576482914
O 1.1473040916 1.6853325534 0.5400724183
H -3.7894302162 2.2398702328 -0.9735125278
H -4.3834718905 0.5823302943 -0.8482474234
H -4.1374021861 1.5440626394 0.6098882842
H -1.6800634999 1.5794588437 0.1784472221
H -1.9298725754 0.6451322233 -1.2964790903
H -2.7498177559 -1.2693782897 -0.0008609922
H -2.7291529687 -0.3129759506 1.4810906608
H -0.7996682136 -1.7484717656 1.5017446385
H -0.2631576724 -0.0781074974 1.2967544374
H -0.6252268591 -2.0435297864 -1.0015369389
H 0.1058933541 -0.4417677648 -1.0964878574
H 1.2121102759 -2.7527425026 0.5538246009
H 1.7408202903 -2.3581151070 -1.0805716422
H 2.0047924744 -0.5266518985 1.3479450070
H 3.2853928989 -1.5035963355 0.6285973208
H 3.6623631615 0.6082347362 -0.3317106915
H 2.7112115965 -0.1732531437 -1.5899222224
H 1.6228301280 1.9264566206 -1.3888497440
28
CONF107
C -4.5830219109 0.5297186313 0.5183984215
C -4.0248669925 -0.8883132741 0.4681663617
C -2.8413582498 -1.0366835560 -0.4891481765
C -1.5928108461 -0.2857765313 -0.0294673667
C -0.4068370287 -0.5561562546 -0.9540697997
C 0.8282118156 0.2805923048 -0.6184310751
C 1.4505098474 -0.0775361565 0.7309411659
C 2.7598989035 0.6817144129 0.9530985676
C 3.8181667649 0.2607492634 -0.0077523236
O 4.5991796187 0.9945978236 -0.5654546571
H -5.4702063686 0.5632597219 1.1463577969
H -3.8528934087 1.2226970049 0.9273640423
H -4.8564596335 0.8651288519 -0.4796114079
H -4.8182933867 -1.5670301333 0.1465331756
H -3.7172303541 -1.1926582679 1.4710814136
H -3.1341918287 -0.6808947602 -1.4798347735
H -2.5970005098 -2.0980359100 -0.5801322708
H -1.3493856320 -0.5983520321 0.9871522252
H -1.7924256638 0.7866759861 -0.0156652977
H -0.1477779978 -1.6165481960 -0.9109586922
H -0.7072675739 -0.3337446024 -1.9807275836
H 1.5782391659 0.1314864283 -1.4006374061
H 0.5587124403 1.3390127714 -0.6234503582
H 0.7588928246 0.1715695232 1.5348221742
H 1.6428924209 -1.1514975943 0.7674359169
H 2.6111815119 1.7603336118 0.8861804099
H 3.1451952807 0.4501695995 1.9503217245
H 3.8641524118 -0.8302860557 -0.1834998212
28
CONF193
C -3.4427100379 0.8021813775 1.1320558168
C -3.4110712097 0.2605371608 -0.2930225619
C -2.0144471910 -0.1756232182 -0.7389828217
C -1.4994976575 -1.3979454809 0.0194699385
C -0.2186973112 -1.9833737703 -0.5788880561
C 0.9822472112 -1.0359717437 -0.5823937709
C 1.4333475574 -0.6270232225 0.8188455903
C 2.6833023497 0.2533802677 0.7595381485
C 2.4032748517 1.5654360225 0.1120139609
O 3.1191450638 2.1319415344 -0.6791064603
H -3.1789616655 0.0290974980 1.8487121534
H -2.7436779918 1.6288757735 1.2397050592
H -4.4389972003 1.1636170718 1.3753342907
H -3.7660602248 1.0384792119 -0.9732046107
H -4.0966604657 -0.5859466222 -0.3743181404
H -1.3273614586 0.6624072890 -0.6075376413
H -2.0464901309 -0.4132184651 -1.8054098827
H -2.2694620439 -2.1731628424 -0.0068179632
H -1.3300507531 -1.1423579587 1.0651504236
H 0.0470673584 -2.8820366160 -0.0172517041
H -0.4206335571 -2.2866476855 -1.6089694462
H 1.8118933739 -1.5389012689 -1.0854800343
H 0.7501021012 -0.1416743237 -1.1648766511
H 0.6367143742 -0.0773680061 1.3209886985
H 1.6511990035 -1.5213763194 1.4037732032
H 3.0122699717 0.4795752062 1.7779210354
H 3.5008792151 -0.2465613110 0.2382331865
H 1.4495183971 2.0311782654 0.4244756142
28
CONF245
C -4.4154049360 0.4591284637 -0.8465029450
C -3.9824975387 0.0874381008 0.5675004273
C -2.8977878981 -0.9901762938 0.6022487805
C -1.5567602205 -0.5190386248 0.0420322492
C -0.4785455029 -1.5896680239 0.2014085441
C 0.8511498177 -1.2197306833 -0.4575863192
C 1.5593629194 -0.0565213969 0.2349281889
C 2.9262306266 0.2167403011 -0.3977761559
C 3.6769972229 1.2842357245 0.3197844957
O 4.3327968297 2.1556121186 -0.1997150001
H -3.5988187614 0.9181669074 -1.3971605728
H -4.7431127273 -0.4256802661 -1.3877710861
H -5.2407924468 1.1664484732 -0.8138826848
H -4.8531906825 -0.2787155213 1.1166134088
H -3.6200429665 0.9802488077 1.0822073089
H -3.2398822168 -1.8616084530 0.0389959277
H -2.7520862694 -1.3046554481 1.6387647617
H -1.2579698340 0.3911023097 0.5650131365
H -1.6637638731 -0.2797042100 -1.0171010210
H -0.3144824261 -1.7826243520 1.2639756451
H -0.8416577863 -2.5165828721 -0.2485806186
H 1.5056901984 -2.0936845881 -0.4336880233
H 0.6750817866 -0.9658548123 -1.5047476153
H 0.9491062868 0.8441733092 0.1619101617
H 1.6900300953 -0.2915043470 1.2930021834
H 3.5372964280 -0.6886817133 -0.3270012849
H 2.8320629327 0.4789485926 -1.4525150878
H 3.6058509733 1.2296170337 1.4219124551
28
CONF177
C -4.7276616193 0.7810031848 -0.1715591199
C -3.3380611269 0.3570685377 0.2901309089
C -2.9697681740 -1.0285987185 -0.2374991508
C -1.6367146491 -1.5530134797 0.2980514195
C -0.4271937267 -0.7754241015 -0.2187864884
C 0.8823287579 -1.3929240674 0.2683463595
C 2.1257271697 -0.7158937848 -0.3092022372
C 2.3130069621 0.7123299501 0.2112694342
C 3.5203747141 1.3637186453 -0.3660911557
O 4.3039569992 2.0580324819 0.2372075592
H -4.7760071445 0.8070347212 -1.2579725621
H -5.4793978136 0.0810801651 0.1867716815
H -4.9718308753 1.7706429280 0.2070007176
H -3.3072036360 0.3456859269 1.3820319870
H -2.6101535617 1.0918109312 -0.0572140518
H -2.9351431354 -1.0010166881 -1.3291559157
H -3.7586348830 -1.7287631230 0.0483970789
H -1.5320594391 -2.6002634118 0.0040179087
H -1.6491184572 -1.5178791409 1.3898741335
H -0.4426164439 -0.7746193994 -1.3110596403
H -0.4943179877 0.2577982700 0.1217092751
H 0.9192327077 -1.3501731135 1.3586715803
H 0.9012658714 -2.4461688899 -0.0198382861
H 3.0041652789 -1.3051020382 -0.0389865826
H 2.0557252619 -0.6981520927 -1.3983193473
H 1.4612941228 1.3227945139 -0.1018211647
H 2.3673695522 0.7345498288 1.3006061744
H 3.6679566994 1.1751321086 -1.4456312544
28
CONF213
C -4.3269750476 -0.9537970007 -0.4354785355
C -3.6329244568 0.4001548233 -0.5365245730
C -2.4486782153 0.5428599300 0.4208678427
C -1.2737488374 -0.3692165908 0.0723211120
C -0.0808882374 -0.1164700217 0.9926428429
C 1.0634358881 -1.1134048456 0.7989547531
C 1.6799533310 -1.1254781293 -0.6019523563
C 2.2666640415 0.2292988896 -1.0085576483
C 3.3414456367 0.6689517079 -0.0758682712
O 3.4753316999 1.7826004481 0.3728861235
H -5.2085060613 -0.9732458385 -1.0719302277
H -3.6653389112 -1.7564785169 -0.7492499076
H -4.6394309782 -1.1439390731 0.5889921523
H -4.3584373175 1.1848641834 -0.3094436489
H -3.2890632663 0.5562416334 -1.5614978386
H -2.7829726670 0.3304221589 1.4392266867
H -2.1040579983 1.5800583102 0.3989834701
H -0.9892255340 -0.1913679818 -0.9659772121
H -1.5769052676 -1.4130784840 0.1667132365
H 0.2861435105 0.9020975684 0.8504358066
H -0.4187607549 -0.1900135186 2.0295349572
H 1.8455823666 -0.8803668523 1.5266595406
H 0.6943301663 -2.1174756845 1.0197513984
H 2.4730277758 -1.8754557409 -0.6213321817
H 0.9275378155 -1.4182051783 -1.3334184480
H 2.7344794794 0.1274422838 -1.9919185701
H 1.4987679584 0.9996659882 -1.0760475874
H 4.0623600331 -0.1256842050 0.1934018950
28
CONF76
C -5.0782616702 0.0242217521 -0.2791687969
C -3.5642231600 0.0529313157 -0.4545378230
C -2.8783376420 -1.0016432868 0.4121390766
C -1.3688195730 -1.0891336848 0.1832518041
C -0.6210679755 0.1644709227 0.6370936819
C 0.8970375811 -0.0178683185 0.6589185982
C 1.4978397536 -0.2195728994 -0.7319674330
C 3.0258576461 -0.2592012921 -0.6723709394
C 3.6029576539 1.0509697157 -0.2592222853
O 4.5362364396 1.2068336290 0.4920497468
H -5.5502180399 0.7837614130 -0.8977487927
H -5.4773801515 -0.9471592667 -0.5630648645
H -5.3444055550 0.2123872002 0.7587035969
H -3.1941838139 1.0446272295 -0.1899866427
H -3.3178063499 -0.1279962713 -1.5032806981
H -3.3214671638 -1.9757918397 0.1905670607
H -3.0731546760 -0.7840641102 1.4650956008
H -1.1837483274 -1.2676061232 -0.8771088208
H -0.9831848115 -1.9466678557 0.7397404042
H -0.8685833702 1.0005162574 -0.0189382453
H -0.9527820520 0.4237131488 1.6452716212
H 1.3523732416 0.8672973942 1.1126173537
H 1.1493461797 -0.8732216073 1.2897369137
H 1.1374891072 -1.1555455064 -1.1571734970
H 1.1809095228 0.5957342380 -1.3851085916
H 3.3782047408 -1.0435568415 -0.0010767281
H 3.4199911753 -0.4625861895 -1.6723098253
H 3.1115475933 1.9291405993 -0.7184210245
28
CONF303
C -4.5330671678 0.1697033966 -0.8499021766
C -3.4140075871 0.3971880010 0.1596941774
C -2.2803177572 -0.6119729337 -0.0106365907
C -1.1569941634 -0.3808749577 0.9980022572
C -0.0758312646 -1.4625152030 0.9636302636
C 0.6776648566 -1.5827410138 -0.3632706823
C 1.3910288480 -0.3087665640 -0.8181538717
C 2.4558615714 0.1616937503 0.1766879743
C 3.3190209840 1.2327809355 -0.3934004270
O 3.6819971894 2.2284933546 0.1864052783
H -5.3288371507 0.8973197957 -0.7101766321
H -4.1554526378 0.2644708266 -1.8656086483
H -4.9538629053 -0.8265259180 -0.7330552414
H -3.8181740451 0.3195722138 1.1717556817
H -3.0176050594 1.4083636576 0.0402957520
H -1.8901809524 -0.5331123189 -1.0267783485
H -2.6772070473 -1.6219501460 0.1171472585
H -1.5885219359 -0.3652011423 2.0022291372
H -0.7116922311 0.6006049445 0.8254879943
H 0.6362933167 -1.2683993196 1.7674796437
H -0.5440008394 -2.4273632914 1.1727873951
H 1.4151734143 -2.3821189317 -0.2624314893
H -0.0213365757 -1.8824008723 -1.1453281809
H 1.8699129016 -0.5080518524 -1.7792827875
H 0.6643252355 0.4892740055 -0.9723741534
H 2.0140782023 0.5120833009 1.1094447707
H 3.1194454942 -0.6787971615 0.4033975122
H 3.6386373459 1.0548555233 -1.4372169275
28
CONF195
C -4.6714878482 0.8530429192 0.0175616554
C -3.2941621226 0.3300351220 -0.3738843069
C -2.9472696977 -0.9546917231 0.3765637717
C -1.6314501753 -1.5905300225 -0.0737594468
C -0.4014989614 -0.7576265935 0.2840664444
C 0.8904526575 -1.4798361363 -0.0944326886
C 2.1529508484 -0.7375574454 0.3449855947
C 2.3431969623 0.5951567080 -0.3843975430
C 3.6918627065 1.1801202143 -0.1453598838
O 3.9281783597 2.3487416109 0.0484976611
H -4.7100217577 1.0609310777 1.0846206845
H -4.8998973551 1.7704936016 -0.5194685508
H -5.4393858050 0.1184233517 -0.2149895191
H -2.5494086044 1.0975553210 -0.1580793977
H -3.2729602374 0.1354830250 -1.4485917418
H -3.7532712953 -1.6759161204 0.2198194027
H -2.8988207201 -0.7440706027 1.4475451661
H -1.6597271009 -1.7472394754 -1.1545554813
H -1.5404649478 -2.5717235065 0.3987357165
H -0.4511284820 0.1990022143 -0.2352268807
H -0.4028545119 -0.5593267113 1.3583743955
H 0.8909788978 -2.4653150361 0.3766461460
H 0.9154596008 -1.6315631493 -1.1754650722
H 2.1094482426 -0.5557398448 1.4203361554
H 3.0190505437 -1.3727076178 0.1481135513
H 2.2752462325 0.4183318689 -1.4625645245
H 1.5804080249 1.3230427136 -0.1087718501
H 4.5187831278 0.4460653681 -0.1664984643
28
CONF78
C -5.0706458556 -0.0016395746 0.4148165281
C -3.5530761453 0.0132496498 0.5579109036
C -2.8889713271 -0.9714383610 -0.4027840194
C -1.3738989327 -1.0715642864 -0.2203709748
C -0.6383080901 0.2119838517 -0.6053477869
C 0.8782616743 0.0330434486 -0.6850731870
C 1.5190160863 -0.2754412019 0.6677979416
C 3.0446258696 -0.3091766100 0.5604458977
C 3.6120495199 1.0313221960 0.2421198961
O 4.5207391485 1.2506724754 -0.5233044279
H -5.5276415752 0.7061206928 1.1022351722
H -5.3594997029 0.2682986023 -0.5985994240
H -5.4646510008 -0.9926579745 0.6293274155
H -3.2838213940 -0.2483346428 1.5836901514
H -3.1871925534 1.0223747042 0.3627898144
H -3.1112521213 -0.6759804325 -1.4310243974
H -3.3254462328 -1.9606871999 -0.2435859278
H -1.0031134654 -1.8874762415 -0.8453292800
H -1.1607959835 -1.3231814322 0.8197233074
H -0.9989332491 0.5421146110 -1.5823812782
H -0.8655438634 0.9990152565 0.1154301800
H 1.1106333579 -0.7709451433 -1.3870216507
H 1.3216207623 0.9508538187 -1.0822451013
H 1.2226027906 0.4864079293 1.3912837788
H 1.1698632521 -1.2418963691 1.0292700974
H 3.4674078430 -0.5956867365 1.5278451096
H 3.3753949802 -1.0342038484 -0.1845832611
H 3.1378132351 1.8672422414 0.7899505776
28
CONF467
C -3.7987661746 1.3987955276 0.3442453106
C -3.4409151933 -0.0764689465 0.2068470133
C -1.9690131618 -0.2733092187 -0.1515868348
C -1.6086621269 -1.7517646146 -0.2739186044
C -0.1836449687 -2.0107872836 -0.7676537328
C 0.9131656424 -1.5260481315 0.1911288681
C 1.5016973866 -0.1731546315 -0.2052669562
C 2.5621564861 0.2937076331 0.7882414635
C 3.1794859438 1.5996212860 0.4239637246
O 2.9111122398 2.2662072183 -0.5463797673
H -3.6068148063 1.9252343468 -0.5881831135
H -4.8501255846 1.5164491029 0.5952178415
H -3.2042264000 1.8644450895 1.1272159621
H -4.0649866118 -0.5301101868 -0.5666261900
H -3.6545585513 -0.5907948798 1.1467486998
H -1.3558386298 0.1947600051 0.6200587098
H -1.7603019777 0.2299009103 -1.0988534834
H -2.3042175388 -2.2222157654 -0.9738665091
H -1.7456249904 -2.2358181670 0.6961741972
H -0.0784288197 -3.0876424171 -0.9145673039
H -0.0492149534 -1.5357650755 -1.7414473727
H 0.5077736768 -1.4660136599 1.2028130101
H 1.7241028858 -2.2571556264 0.2083690768
H 1.9547841039 -0.2472900700 -1.1962983505
H 0.7177947432 0.5820868408 -0.2670438148
H 2.1378887814 0.3997468376 1.7903166987
H 3.3696496741 -0.4391318947 0.8689963013
H 3.9488161613 1.9489805302 1.1384301720
28
CONF122
C -4.7282053080 -0.2145196835 0.2588260517
C -3.6181529182 0.5774135970 -0.4237577691
C -2.2287469896 0.2925694217 0.1502264818
C -1.7178819947 -1.1076590098 -0.1852689696
C -0.3486114996 -1.4127927340 0.4238787527
C 0.7866966829 -0.5903655097 -0.1825439481
C 2.1470081482 -1.0192472174 0.3656226951
C 3.2749141092 -0.1588561729 -0.2069623303
C 3.1753316201 1.2572257931 0.2459676285
O 3.3618699214 2.2339460250 -0.4400376963
H -5.6975416816 0.0806937566 -0.1358155636
H -4.6074418185 -1.2817133086 0.0938024874
H -4.7228465322 -0.0280162499 1.3304954580
H -3.8285807838 1.6434938731 -0.3095883809
H -3.6172513435 0.3550111535 -1.4932202037
H -2.2574799124 0.4162022745 1.2354662710
H -1.5343565236 1.0337085779 -0.2504427980
H -1.6635959383 -1.2193006454 -1.2707362797
H -2.4289169442 -1.8457020139 0.1893434755
H -0.3880105488 -1.2359603178 1.5010241939
H -0.1292391985 -2.4721014359 0.2707393337
H 0.7790776212 -0.7110534421 -1.2681577233
H 0.6374513016 0.4702921540 0.0316766403
H 2.1423257574 -0.9338248949 1.4539622268
H 2.3285269796 -2.0640049051 0.1108498200
H 4.2345119651 -0.5311304198 0.1628814731
H 3.2901922011 -0.1955590872 -1.2970854441
H 2.9177942148 1.3745266949 1.3151791893
28
CONF235
C -4.3506186328 0.7278501258 -0.3536402440
C -3.1454829263 -0.1881325391 -0.1738887131
C -1.9509228401 0.5647292319 0.4095186357
C -0.7516019858 -0.3291890093 0.7283367290
C -0.0693135143 -0.8860870337 -0.5190917089
C 1.0983405270 -1.8210236765 -0.2018745051
C 2.3208715235 -1.1350248106 0.4104867302
C 2.9261615954 -0.0884604975 -0.5277590991
C 2.3118025611 1.2660035986 -0.3919654624
O 1.7911155087 1.7109863556 0.6028262892
H -4.6581263074 1.1454056024 0.6026328049
H -4.1056303178 1.5506558137 -1.0217429699
H -5.1892281236 0.1793234016 -0.7756280107
H -2.8784239038 -0.6168131014 -1.1410990268
H -3.4113472599 -1.0102601943 0.4944784133
H -2.2684855430 1.0577184865 1.3318026247
H -1.6378119474 1.3479355263 -0.2857092027
H -1.0757752465 -1.1554651273 1.3653780128
H -0.0308530899 0.2671456396 1.2912882517
H -0.7991679372 -1.4442289115 -1.1080870613
H 0.2803387960 -0.0510891765 -1.1332081990
H 0.7511223722 -2.5930978009 0.4877394442
H 1.4067938479 -2.3185312401 -1.1247923290
H 2.0512580026 -0.6502757743 1.3495624700
H 3.0665627880 -1.8998477017 0.6302265158
H 3.9833134697 0.0584141596 -0.2847017432
H 2.8756324843 -0.4138855449 -1.5668821694
H 2.4029088160 1.9016364017 -1.2935265277
28
CONF147
C -4.9211166178 0.4778427438 0.5670360558
C -4.0276782236 -0.5659009444 -0.0929347695
C -2.5535014651 -0.1697230173 -0.0398393122
C -1.6600769365 -1.2228220866 -0.6923518424
C -0.1880986215 -0.8128746752 -0.7623119424
C 0.4669979096 -0.7030919472 0.6141929943
C 1.9893339806 -0.5783231337 0.5460582996
C 2.4405632897 0.7344310564 -0.1017157587
C 3.9236304766 0.8461580842 -0.1592305144
O 4.5664305973 1.8404082090 0.0821382231
H -4.8154956564 1.4391915387 0.0692124849
H -5.9645401830 0.1767795249 0.5145589239
H -4.6519696754 0.6032966483 1.6134210258
H -4.3299729162 -0.6948190385 -1.1348842932
H -4.1601508993 -1.5265839029 0.4100561200
H -2.2627576879 -0.0324213984 1.0028965309
H -2.4202316038 0.7857709933 -0.5528233921
H -2.0197475277 -1.4036556925 -1.7084236255
H -1.7490003455 -2.1619160731 -0.1411339225
H 0.3501138739 -1.5610402763 -1.3491069847
H -0.1158101882 0.1414362392 -1.2867906582
H 0.0627939340 0.1568467612 1.1494391707
H 0.2235159669 -1.5984414221 1.1900236480
H 2.3920863909 -0.6269002648 1.5596879873
H 2.3982135974 -1.4188207286 -0.0178595948
H 2.0930886322 0.7588838137 -1.1382862219
H 2.0256663155 1.5979871660 0.4199555906
H 4.4394199248 -0.0843911071 -0.4607114612
28
CONF198
C -5.0730277712 0.0154886030 0.4811972258
C -3.5505506784 0.0903284665 0.4963617838
C -2.9412301899 -0.6080670232 -0.7180377013
C -1.4224403537 -0.4536366448 -0.8097012319
C -0.6782797930 -1.1794826465 0.3106371348
C 0.8347544508 -1.2327279378 0.0930961195
C 1.5000209990 0.1392116196 0.1901811356
C 3.0211234200 0.0293498803 0.0606332650
C 3.7026255282 1.3388882825 0.2576269925
O 4.6491918497 1.7428947389 -0.3748312458
H -5.4899080776 0.5142793738 1.3528266632
H -5.4701169631 0.4943291803 -0.4113009701
H -5.4028999851 -1.0210546138 0.4877579477
H -3.1808355309 -0.3731021971 1.4121634114
H -3.2397326349 1.1376253149 0.5017835330
H -3.3894009246 -0.1875655287 -1.6218710658
H -3.1966141521 -1.6700241567 -0.6883278133
H -1.1759456253 0.6093979027 -0.7923417152
H -1.0900120470 -0.8573616125 -1.7691867890
H -0.8827158113 -0.6925251698 1.2653113475
H -1.0550868238 -2.2030719159 0.3713545844
H 1.2716632071 -1.8894035568 0.8485947201
H 1.0432824447 -1.6688282581 -0.8859672777
H 1.1228821381 0.7889585955 -0.6000883071
H 1.2500464708 0.5946291695 1.1503784983
H 3.3974506438 -0.6324507654 0.8472859653
H 3.3101169675 -0.3942308538 -0.9022794109
H 3.2775882156 1.9567646461 1.0701368655
28
CONF210
C -4.3211700874 -0.8570267391 0.5668206122
C -3.6282676818 0.4921812416 0.4104055407
C -2.4389981579 0.4509728228 -0.5504628970
C -1.2692136321 -0.3837507049 -0.0320734988
C -0.0650253634 -0.2963297479 -0.9680456526
C 1.0762517320 -1.2413411781 -0.5868293811
C 1.6700754590 -1.0089270011 0.8046469711
C 2.2431900557 0.3999047612 0.9825652612
C 3.3303434855 0.6830482201 0.0046818984
O 3.4664692071 1.7059974201 -0.6234623659
H -5.2066310729 -0.7552680186 1.1898435705
H -4.6271556874 -1.2407416278 -0.4039473958
H -3.6611425185 -1.5834217897 1.0328652131
H -3.2896925651 0.8417279554 1.3883319631
H -4.3527610708 1.2181908158 0.0339527526
H -2.0906695564 1.4733074301 -0.7194164458
H -2.7690142197 0.0542252016 -1.5135746408
H -1.5723022415 -1.4281642893 0.0561780316
H -0.9969442673 -0.0245301098 0.9616411700
H -0.3900485144 -0.5525383632 -1.9796868601
H 0.3010501758 0.7318695770 -1.0036507789
H 0.7111069845 -2.2696159175 -0.6361277203
H 1.8697568974 -1.1353824842 -1.3316113360
H 0.9072994902 -1.1781095625 1.5638887045
H 2.4663962650 -1.7384958478 0.9640599842
H 1.4702890687 1.1644412419 0.9064462711
H 2.6958396894 0.4709175689 1.9756947098
H 4.0587562981 -0.1406245669 -0.1160324158
28
CONF145
C -4.8971450359 0.5116972921 0.5612557264
C -4.0203169342 -0.5481579471 -0.0954753101
C -2.5398152540 -0.1778906820 -0.0356307015
C -1.6598537508 -1.2452636969 -0.6834260643
C -0.1845128941 -0.8490146735 -0.7610478663
C 0.4778892127 -0.7429601966 0.6120651097
C 1.9977455604 -0.5944268615 0.5354266744
C 2.4242546572 0.7375742658 -0.0888424651
C 3.9046667009 0.8729254960 -0.1617338498
O 4.5341515591 1.8757716767 0.0793375507
H -4.6290502564 0.6326564721 1.6084722982
H -4.7722801104 1.4708102371 0.0635214427
H -5.9457483598 0.2298142050 0.5055445085
H -4.3203681511 -0.6710168420 -1.1387582170
H -4.1721962588 -1.5064289846 0.4064400612
H -2.2521130356 -0.0447765374 1.0084665021
H -2.3883035004 0.7749655394 -0.5483595683
H -2.0246188181 -1.4295928842 -1.6970294701
H -1.7562388066 -2.1794598885 -0.1252861129
H 0.3451444356 -1.6018938362 -1.3495602702
H -0.1070652727 0.1041007088 -1.2869755137
H 0.0646263851 0.1057789662 1.1581629736
H 0.2506862664 -1.6472856350 1.1804988391
H 2.4087112059 -0.6568022323 1.5449818296
H 2.4149967851 -1.4173177861 -0.0479576366
H 2.0650691885 0.7799569212 -1.1208858787
H 2.0031049485 1.5843095311 0.4549475672
H 4.4316929276 -0.0468442784 -0.4764840491
28
CONF196
C -5.0816350556 -0.0153770362 0.4800718855
C -3.5599904492 0.0728386121 0.5059706754
C -2.9387499284 -0.5790068034 -0.7280476906
C -1.4200481127 -0.4152518626 -0.8026891181
C -0.6818630314 -1.1685026311 0.3036051805
C 0.8308305099 -1.2283786454 0.0857273419
C 1.5040472884 0.1389102338 0.1925295126
C 3.0250116112 0.0206175564 0.0667115602
C 3.7112090368 1.3280308662 0.2612929039
O 4.6538665815 1.7312947716 -0.3774885634
H -5.4016372665 -1.0546140026 0.4499059453
H -5.5074212758 0.4496189149 1.3659285791
H -5.4789969540 0.4896670172 -0.3977851462
H -3.1905535986 -0.4179101293 1.4075892841
H -3.2588828369 1.1221443341 0.5481830341
H -3.3820152117 -0.1286971064 -1.6198931701
H -3.1894655732 -1.6424592163 -0.7379261318
H -1.1784135246 0.6479572874 -0.7541267593
H -1.0784494536 -0.7910712095 -1.7702570530
H -0.8833734723 -0.6988378447 1.2675181906
H -1.0656886057 -2.1904944096 0.3441713765
H 1.2638853268 -1.8933176701 0.8361825812
H 1.0369095766 -1.6581797922 -0.8966313808
H 1.1330890340 0.7948040724 -0.5955786453
H 1.2538102216 0.5907170015 1.1543176227
H 3.3960003013 -0.6409844611 0.8559496193
H 3.3135160100 -0.4064215769 -0.8948058384
H 3.2930992069 1.9454577666 1.0778041849
28
CONF520
C -4.2399975085 0.3436979810 1.1292421005
C -2.8639319158 0.2621917583 0.4775471636
C -2.8306203897 -0.7891234406 -0.6291508863
C -1.5185846667 -0.8331260496 -1.4155245406
C -0.2974927974 -1.2482406088 -0.5823140396
C 0.5479210343 -0.0627109137 -0.1187751778
C 1.7162600970 -0.5118686396 0.7575162737
C 2.5723102895 0.6670357893 1.2156320674
C 3.4160788670 1.2584353688 0.1377321171
O 3.5522751437 0.8304792383 -0.9826230962
H -4.2452485424 1.0884430589 1.9214737480
H -4.9947550801 0.6175878809 0.3952040047
H -4.5148002542 -0.6173162386 1.5585282974
H -2.1251867203 0.0148233688 1.2409344776
H -2.6046627335 1.2364155410 0.0565190301
H -3.6431509314 -0.5816429184 -1.3305644820
H -3.0189402581 -1.7734683616 -0.1934768956
H -1.3338043887 0.1450817561 -1.8646299853
H -1.6499822044 -1.5441771735 -2.2339146643
H -0.6284625329 -1.8212687050 0.2862994059
H 0.3407997262 -1.9043007545 -1.1782115930
H 0.9395746299 0.4585348451 -0.9953468952
H -0.0726122336 0.6403769463 0.4387394166
H 1.3297917485 -1.0380129270 1.6318410997
H 2.3422495806 -1.2052638351 0.1920744265
H 1.9514382847 1.4628666254 1.6334599252
H 3.2611847577 0.3585161874 2.0072350640
H 3.9636120732 2.1683174829 0.4499364962
28
CONF211
C -4.6636933855 0.1908114445 0.7929160930
C -4.1712425714 -0.3251889735 -0.5547445250
C -2.6491757902 -0.2762161489 -0.6968091942
C -1.9289993191 -1.2350387437 0.2505689134
C -0.4365605405 -1.3732081260 -0.0533645964
C 0.3512784765 -0.0897682509 0.2038270447
C 1.8504007865 -0.3032115810 0.0041147545
C 2.6369764445 0.9887149238 0.2387294482
C 4.1087586930 0.7789651767 0.1515791918
O 4.8976474107 1.5295084764 -0.3714948696
H -4.2949228310 1.1985295911 0.9710497143
H -5.7507453053 0.2151156632 0.8127685045
H -4.3246924606 -0.4496417376 1.6025536987
H -4.6139020292 0.2825010872 -1.3476279313
H -4.5145381365 -1.3525847321 -0.6967640500
H -2.3125896104 0.7459451231 -0.5160915160
H -2.3873538439 -0.5373733985 -1.7252257290
H -2.3925902652 -2.2210970444 0.1670080743
H -2.0505084752 -0.8965683223 1.2806512140
H -0.0262527903 -2.1684807536 0.5736274268
H -0.3065266492 -1.6752186673 -1.0951328641
H 0.0091196182 0.6927403770 -0.4742815179
H 0.1656975229 0.2463264143 1.2260804263
H 2.2032718381 -1.0726907957 0.6935290124
H 2.0323095950 -0.6568205993 -1.0126097932
H 2.3355569286 1.7718352943 -0.4583671955
H 2.4372207132 1.3440947329 1.2545504114
H 4.4657108112 -0.1530384908 0.6275884605
28
CONF292
C -4.6533819107 0.1193694200 -0.7708861916
C -3.5294478103 0.3032847175 0.2422042261
C -2.3507377540 -0.6255416128 -0.0421927323
C -1.2266219471 -0.4478885501 0.9765071221
C -0.1006655001 -1.4723260606 0.8227791161
C 0.6542106207 -1.4131748275 -0.5071823914
C 1.3492948829 -0.0821897669 -0.7967393079
C 2.4488987646 0.2374814330 0.2203349002
C 3.1294014052 1.5260913246 -0.0802581994
O 4.3189269676 1.7285011522 -0.0136993330
H -4.2991773812 0.3329331113 -1.7769570239
H -5.0218242278 -0.9038842390 -0.7484460005
H -5.4821308585 0.7875025103 -0.5494719022
H -3.9117860250 0.1051620974 1.2463224329
H -3.1864144062 1.3403146381 0.2188824525
H -1.9778451887 -0.4222284647 -1.0474644553
H -2.6976433355 -1.6614163630 -0.0184379940
H -1.6467849253 -0.5550378508 1.9799327752
H -0.8278353578 0.5651610131 0.9020201330
H 0.6047730061 -1.3433879125 1.6457843325
H -0.5281002264 -2.4729526987 0.9209830993
H 1.4039349027 -2.2074333476 -0.5082637443
H -0.0399908246 -1.6221979161 -1.3220862398
H 1.7961222662 -0.1370574938 -1.7915833563
H 0.6178353760 0.7262154986 -0.8076593329
H 1.9979061462 0.3560962047 1.2097009184
H 3.1858861911 -0.5651856288 0.2739437424
H 2.4472651677 2.3436827562 -0.3791669254
28
CONF537
C -3.5974804782 -1.6835475421 0.3505390646
C -4.0343029038 -0.3417721985 -0.2250222694
C -3.0654583270 0.8050699998 0.0717489775
C -1.6807926495 0.6405102094 -0.5716615454
C -0.6229771971 0.1101479303 0.3954210036
C 0.7262388283 -0.0870507839 -0.2917306456
C 1.7868280721 -0.6031387355 0.6792362552
C 3.1333994758 -0.8242419621 -0.0065245366
C 3.8491827829 0.4357455220 -0.3583304631
O 3.5156065157 1.5569697972 -0.0609432335
H -3.4266304148 -1.6003356848 1.4215787807
H -4.3693983394 -2.4316346857 0.1837666766
H -2.6834067141 -2.0299624229 -0.1235222802
H -5.0104279115 -0.0808112109 0.1915085815
H -4.1545952469 -0.4356362139 -1.3069521195
H -2.9520022404 0.9087182568 1.1528141968
H -3.5227394459 1.7263243780 -0.2956985465
H -1.3385941413 1.6073972738 -0.9480272950
H -1.7568747453 -0.0294555181 -1.4306852237
H -0.5048313558 0.8199057961 1.2176544729
H -0.9500233714 -0.8386734067 0.8222258850
H 0.6100377760 -0.7967980711 -1.1148414200
H 1.0585076739 0.8637335513 -0.7147205289
H 1.9155812599 0.1220314073 1.4852996556
H 1.4470222984 -1.5428899863 1.1172642736
H 3.8086206321 -1.3870397702 0.6444732204
H 3.0164516195 -1.4123864309 -0.9196583832
H 4.7794827026 0.2727833077 -0.9355460762
28
CONF321
C -4.4387578717 -0.7968692854 0.7034440801
C -3.2851723487 0.0411626160 0.1639612598
C -2.2146448409 -0.8315334631 -0.4880050180
C -1.1057579231 -0.0296999658 -1.1717214018
C -0.2821390163 0.8603077331 -0.2376348626
C 0.4174498069 0.1255577635 0.9082753890
C 1.3659951474 -0.9940238255 0.4739899120
C 2.5034671120 -0.4976394495 -0.4230628316
C 3.3441835250 0.5228908198 0.2623147897
O 3.7500629478 1.5493152282 -0.2289363181
H -5.1879873531 -0.1618012375 1.1700707723
H -4.9140959688 -1.3549499321 -0.1003964327
H -4.0793074412 -1.5063566642 1.4456715465
H -2.8480316215 0.6133072037 0.9839221560
H -3.6670153568 0.7527248302 -0.5720311508
H -2.6926955128 -1.4608812951 -1.2431698139
H -1.7857526557 -1.4962334964 0.2634893083
H -1.5579579924 0.6107953246 -1.9332960387
H -0.4420238915 -0.7248011717 -1.6889345724
H 0.4648785056 1.3894420455 -0.8337505740
H -0.9326892352 1.6222173641 0.1960018132
H 0.9839349096 0.8644158542 1.4821857190
H -0.3344718231 -0.2978869548 1.5760747298
H 1.7939765550 -1.4489199885 1.3695331979
H 0.8093052772 -1.7652556125 -0.0573396114
H 3.1644239022 -1.3392936573 -0.6492103382
H 2.1310899398 -0.0959677277 -1.3653055012
H 3.6032092519 0.2707705846 1.3078100725
28
CONF170
C -4.8744064269 0.5699573886 0.3870251143
C -3.5231091400 -0.1084651887 0.5809285711
C -2.9277705860 -0.5645978123 -0.7500295777
C -1.6307642303 -1.3603743737 -0.5980761106
C -0.4629274845 -0.5246112136 -0.0758768663
C 0.8340965850 -1.3316479285 -0.0583176454
C 2.0068137573 -0.5846477962 0.5776769076
C 2.4631798683 0.6136475676 -0.2599288893
C 3.5932092439 1.3431795475 0.3773476932
O 4.5610164627 1.7843512898 -0.1960122138
H -5.2816330178 0.8928767476 1.3421049935
H -4.7737508591 1.4415834115 -0.2559943779
H -5.5827876449 -0.1145228201 -0.0746271366
H -3.6433910117 -0.9742759436 1.2360709839
H -2.8427598709 0.5896274622 1.0708834130
H -2.7451998065 0.3084576896 -1.3810628296
H -3.6622071541 -1.1914826596 -1.2618294517
H -1.3578710618 -1.7697634730 -1.5737679613
H -1.8033537821 -2.2030518607 0.0754325820
H -0.3486271816 0.3525143440 -0.7151677523
H -0.6812498038 -0.1807055868 0.9362577415
H 0.6651960483 -2.2496689351 0.5084886393
H 1.0974081342 -1.6190720979 -1.0781914403
H 1.7210322484 -0.2421870031 1.5739115422
H 2.8453409731 -1.2749704982 0.6879623412
H 2.7432510433 0.3093399224 -1.2694125402
H 1.6421944647 1.3324161887 -0.3337820120
H 3.4910480553 1.4768922990 1.4702579530
28
CONF5
C -3.8847875955 1.4172880705 -0.1848557997
C -2.6189499656 0.7212253730 0.3017005331
C -2.5219308936 -0.7064063680 -0.2342448739
C -1.3058209930 -1.4713195480 0.2894434158
C 0.0162560902 -0.9521355656 -0.2723503035
C 1.2097760939 -1.7475750925 0.2472493856
C 2.5480131130 -1.2226114278 -0.2720550197
C 2.8896651938 0.1670054640 0.2711618911
C 2.1069146222 1.2694791246 -0.3542320124
O 1.7154127028 2.2654501081 0.2114029676
H -3.8980132529 1.4659006181 -1.2714350352
H -4.7686545684 0.8754393639 0.1445484030
H -3.9368047092 2.4310136414 0.2047246281
H -2.6168388325 0.6954286991 1.3939601493
H -1.7495825805 1.3008326244 -0.0155732640
H -2.4897278624 -0.6800485263 -1.3260041449
H -3.4267268081 -1.2461234806 0.0557868205
H -1.4100067077 -2.5252402127 0.0206253674
H -1.2852539549 -1.4083005789 1.3798872142
H -0.0122670033 -1.0072490416 -1.3632674283
H 0.1382313378 0.0967906852 0.0052311115
H 1.2108999866 -1.7202185559 1.3390735900
H 1.1003130532 -2.7907258197 -0.0564787881
H 3.3349446086 -1.9138239836 0.0315304787
H 2.5292787702 -1.1914956321 -1.3630264259
H 2.7816787399 0.2082817956 1.3561585507
H 3.9338354203 0.3897232736 0.0293941572
H 1.9348377575 1.1487294345 -1.4400606992
28
CONF252
C -5.2933028486 -0.4864029476 -0.1358893700
C -3.8362706481 -0.8551781597 0.1189607065
C -2.9461167808 0.3848986027 0.1792130233
C -1.4887931593 0.0794623711 0.5306131249
C -0.7427954231 -0.6471277311 -0.5875665804
C 0.7094660294 -0.9725216117 -0.2337398756
C 1.5969527750 0.2668484014 -0.1287751845
C 3.0624528728 -0.1189062827 0.0882429110
C 3.9318994136 1.0680042053 0.3181461007
O 5.0390836836 1.2294088699 -0.1371782507
H -5.6680757895 0.1594821947 0.6552703378
H -5.3920486837 0.0408371432 -1.0822720133
H -5.9134922295 -1.3787295353 -0.1735346311
H -3.4945015414 -1.5194646332 -0.6761611816
H -3.7600777390 -1.3981734809 1.0637731802
H -3.3515907838 1.0635510846 0.9338786739
H -2.9839681000 0.9027957237 -0.7820713734
H -1.4583232626 -0.5268902264 1.4388182579
H -0.9853776946 1.0240885709 0.7429220368
H -1.2564227618 -1.5839930326 -0.8082820455
H -0.7659122135 -0.0351317689 -1.4920979531
H 0.7350944079 -1.5185832812 0.7114411123
H 1.1153796411 -1.6282360127 -1.0070054964
H 1.5102698326 0.8515174244 -1.0466387734
H 1.2671136842 0.8916777693 0.7018030615
H 3.1349254049 -0.7319829400 0.9921135377
H 3.4506557096 -0.7022568385 -0.7479340675
H 3.4877970298 1.8384388673 0.9754913556
28
CONF260
C -4.2160689592 -1.0219673851 -0.4536161225
C -3.1648324990 0.0086002587 -0.8499901216
C -2.5070594437 0.6914862841 0.3505497990
C -1.7416935589 -0.2450515734 1.2888872019
C -0.5972863774 -1.0226390027 0.6370739354
C 0.5184780427 -0.1259368293 0.1050307419
C 1.6951279610 -0.9438469565 -0.4248662757
C 2.8205849288 -0.0396693659 -0.9306495350
C 3.4458277048 0.7400651483 0.1743963531
O 3.7839142957 1.8986130256 0.1188198191
H -4.7237835956 -1.4009842617 -1.3375467836
H -3.7631094069 -1.8636523711 0.0633737420
H -4.9588903160 -0.5732308077 0.2024693606
H -3.6407164488 0.7812728366 -1.4590257038
H -2.4035173561 -0.4680268399 -1.4691922216
H -3.2842472516 1.1912580844 0.9346139247
H -1.8305825266 1.4667698163 -0.0145935112
H -2.4409067237 -0.9581267919 1.7288939929
H -1.3343965866 0.3554216766 2.1065392904
H -0.1766995755 -1.6977132610 1.3866475185
H -0.9836542161 -1.6399288148 -0.1751179291
H 0.1346947236 0.5053466238 -0.6978509871
H 0.8676784123 0.5339864444 0.9043703156
H 2.0774909506 -1.5888162635 0.3687454937
H 1.3539568918 -1.5816212672 -1.2411378209
H 3.6166060446 -0.6588331138 -1.3543533307
H 2.4677588715 0.6412593415 -1.7064977175
H 3.6080152740 0.1616834343 1.1031463361
28
CONF229
C -4.4560031256 0.3123636500 -0.9236381789
C -4.0176640562 0.1036391636 0.5218174583
C -2.9088037390 -0.9390910768 0.6711504952
C -1.5799246113 -0.5032910618 0.0561095028
C -0.4754102439 -1.5214654883 0.3350281764
C 0.8409407985 -1.2020517715 -0.3749132274
C 1.5149447822 0.0627933128 0.1543778604
C 2.8858956074 0.2726939415 -0.4938105307
C 3.5149355899 1.5578641230 -0.0812537509
O 4.6814997605 1.7167159910 0.1893218700
H -3.6502732018 0.7323664554 -1.5194516630
H -4.7584894246 -0.6330962515 -1.3684168071
H -5.3000992604 0.9967180093 -0.9658946323
H -4.8807787229 -0.2216578659 1.1074059890
H -3.6767216060 1.0542246846 0.9383567693
H -3.2321616629 -1.8752086315 0.2098186229
H -2.7540980381 -1.1332874943 1.7355397725
H -1.3033813744 0.4677076017 0.4703803415
H -1.6935955258 -0.3912841124 -1.0231846953
H -0.3006432154 -1.5805023799 1.4117424074
H -0.8175958795 -2.5047066974 0.0038379753
H 1.5215678755 -2.0453645850 -0.2402780163
H 0.6549879482 -1.0931527387 -1.4453328147
H 0.8875399353 0.9307440220 -0.0505967082
H 1.6362451331 -0.0189008526 1.2362463182
H 3.5626424659 -0.5545343743 -0.2750428069
H 2.7571940529 0.3280126763 -1.5793549164
H 2.8174220683 2.4149641654 -0.0407186198
28
CONF179
C -4.8370160343 -1.0932273597 0.4311339063
C -4.2762854956 0.0418962777 -0.4186336300
C -2.8842913902 0.4947676463 0.0245935266
C -1.7950379467 -0.5412350048 -0.2465300640
C -0.4153308466 -0.0327419842 0.1677250681
C 0.6771153997 -1.0589284150 -0.1274021683
C 2.0456294728 -0.6671568591 0.4304315189
C 2.6299982156 0.5701236213 -0.2573778090
C 3.9529347742 0.9507540212 0.3086168637
O 4.9133060935 1.3172360154 -0.3265173632
H -5.8543059197 -1.3256741267 0.1251327955
H -4.2382868359 -1.9937975669 0.3252278504
H -4.8512995761 -0.8092777933 1.4811412425
H -4.9556933616 0.8952054143 -0.3558061884
H -4.2370789492 -0.2721120301 -1.4640925572
H -2.9062330814 0.7254965702 1.0922794282
H -2.6310928953 1.4158436832 -0.5064146793
H -1.7867515561 -0.7835389012 -1.3118509906
H -2.0144055520 -1.4587278207 0.3015880636
H -0.2089580459 0.8962650380 -0.3667193252
H -0.4236780129 0.1899549562 1.2371616249
H 0.3889284712 -2.0139646965 0.3169659904
H 0.7529773523 -1.2079801749 -1.2062438445
H 1.9584298307 -0.4773564514 1.5018060001
H 2.7338175682 -1.5033945257 0.2927140651
H 2.7180190079 0.4224876859 -1.3346282456
H 1.9688771559 1.4232404561 -0.0807097850
H 4.0127506960 0.8854501371 1.4108841376
28
CONF346
C -4.2674517291 0.0910664756 -0.9804554503
C -2.9523468332 0.4139168015 -0.2802927413
C -2.4550133570 -0.7669694720 0.5507260238
C -1.2255846025 -0.4429249944 1.4014324003
C 0.0201923440 -0.0259355309 0.6166463969
C 0.5467232945 -1.1207571488 -0.3074475262
C 1.8188201936 -0.7148004925 -1.0526924327
C 2.9947672692 -0.4519566896 -0.1104086912
C 3.0800950337 0.9575487160 0.3729226045
O 2.5598698946 1.9198303352 -0.1383140913
H -4.6041480566 0.9388880452 -1.5721894125
H -4.1462028130 -0.7637452791 -1.6422390604
H -5.0388649057 -0.1476240982 -0.2513262844
H -3.0906887520 1.2796940208 0.3716676327
H -2.2055495639 0.6790574350 -1.0302882461
H -2.2398682947 -1.6087514330 -0.1094462637
H -3.2569560842 -1.0807639497 1.2240595786
H -0.9805897415 -1.3218576080 2.0031766748
H -1.4829609521 0.3657729802 2.0901922314
H -0.1870122392 0.8737318293 0.0342670362
H 0.7961434431 0.2392635612 1.3403824617
H 0.7416084656 -2.0225173902 0.2784834728
H -0.2156618575 -1.3637873700 -1.0484808649
H 2.0822355840 -1.5117555626 -1.7489186126
H 1.6284897536 0.1921136813 -1.6306480675
H 2.9757324172 -1.1271498117 0.7460269329
H 3.9412465511 -0.6274219443 -0.6315006477
H 3.7224120940 1.0898804679 1.2647075515
28
CONF290
C -4.4118989905 0.8133194288 0.3112249896
C -2.9158021322 0.5286423561 0.2454804296
C -2.6217010024 -0.7599876089 -0.5206969362
C -1.1277005252 -1.0246307919 -0.7124922992
C -0.4006867589 -1.3243916432 0.5976869822
C 1.0271616512 -1.8333633325 0.3909939531
C 1.9602984040 -0.8547144865 -0.3242371245
C 2.1345512520 0.4628399429 0.4363230514
C 3.2398873242 1.2888747561 -0.1234801245
O 3.2053273919 2.4829302305 -0.3037840426
H -4.6032203288 1.7309799809 0.8622514307
H -4.8245927485 0.9212906620 -0.6895658644
H -4.9324954639 -0.0017573684 0.8091761401
H -2.5242385157 0.4520487414 1.2609250234
H -2.4103930840 1.3631280608 -0.2466652664
H -3.0935336508 -0.6945328128 -1.5044472186
H -3.0752432312 -1.6032072991 0.0057599371
H -0.6787564061 -0.1562659456 -1.1982949139
H -1.0093723364 -1.8797831138 -1.3826158916
H -0.3839975090 -0.4330245232 1.2243612327
H -0.9586963336 -2.0933510636 1.1373725500
H 1.4529670925 -2.0775778158 1.3666540886
H 0.9895562481 -2.7554477761 -0.1931456270
H 2.9372573703 -1.3302483956 -0.4343447087
H 1.5808059855 -0.6463201414 -1.3248710439
H 1.2162902966 1.0499308387 0.4481435083
H 2.4135058847 0.2369603229 1.4703954131
H 4.1544286400 0.7193208608 -0.3734476339
28
CONF246
C -4.6963584274 0.4977322799 -0.0275756846
C -3.3933948748 -0.2228530229 -0.3544398896
C -2.3705123482 -0.0699332027 0.7697956426
C -1.0785449983 -0.8554099220 0.5363506274
C -0.2126499123 -0.2644507935 -0.5749605426
C 1.0433623606 -1.0873203127 -0.8701165329
C 2.0130151900 -1.2408370181 0.3044586606
C 2.5127271169 0.1007665021 0.8484430151
C 3.2208640406 0.8924824426 -0.1955997237
O 3.0788321872 2.0740891138 -0.4032564419
H -5.1367092103 0.0962044285 0.8825152765
H -4.5162517374 1.5603448368 0.1201037714
H -5.4127349843 0.3801363675 -0.8370297908
H -2.9877863667 0.1813053801 -1.2833626291
H -3.5965485879 -1.2844483674 -0.5131174816
H -2.8271524548 -0.4178336597 1.6997939764
H -2.1308292971 0.9886043845 0.8969349967
H -1.3265897018 -1.8901114483 0.2886039476
H -0.5125416194 -0.8618920886 1.4691088628
H -0.7965202054 -0.2136126670 -1.4957796116
H 0.0672528442 0.7589457925 -0.3165163009
H 0.7397720067 -2.0847351758 -1.1959377069
H 1.5711556430 -0.6134475255 -1.7023041749
H 1.5314043976 -1.7911159534 1.1120442816
H 2.8691416130 -1.8279271427 -0.0334043740
H 1.7023266045 0.6922685709 1.2739642602
H 3.2442853815 -0.0927768222 1.6380841132
H 3.9366320059 0.3068291139 -0.8023973785
28
CONF238
C -4.4070093250 0.6356749157 0.3551560046
C -3.1769294787 -0.2317826502 0.1145420327
C -1.9809915526 0.6017981306 -0.3430293191
C -0.7491494548 -0.2328418064 -0.6978610829
C -0.0704768497 -0.8483368820 0.5240987486
C 1.0686784603 -1.8029915101 0.1654502684
C 2.2958161315 -1.1336613440 -0.4558710882
C 2.9552750380 -0.1350530947 0.4979087404
C 2.3918096235 1.2448414970 0.4094364672
O 1.8532696321 1.7302472475 -0.5566240840
H -5.2468193451 0.0271021837 0.6816377117
H -4.2026791224 1.3805173800 1.1211279567
H -4.6917774813 1.1545174231 -0.5575321043
H -3.4043713006 -0.9789503393 -0.6491953316
H -2.9306546028 -0.7616258160 1.0360924602
H -1.7152994567 1.3192519712 0.4374790539
H -2.2764191735 1.1756476638 -1.2249473379
H -0.0364921891 0.4171330900 -1.2095471072
H -1.0395413663 -1.0254687208 -1.3914445198
H 0.3057640436 -0.0435213630 1.1622372878
H -0.8091516866 -1.4069178716 1.1016037982
H 1.3816955586 -2.3281047877 1.0714393236
H 0.6899393819 -2.5512911477 -0.5337947845
H 3.0127327425 -1.9126666183 -0.7177091955
H 2.0169620164 -0.6125746080 -1.3725033375
H 2.9096710820 -0.4850861499 1.5293505748
H 4.0134869484 -0.0213410292 0.2418969300
H 2.5407925168 1.8575071237 1.3190650657
28
CONF244
C -4.0372284330 -1.0980313664 -0.4949650703
C -3.3659908926 0.2555644530 -0.6987845166
C -2.6347234827 0.7616481974 0.5463561977
C -1.4802257991 -0.1222474545 1.0218970594
C -0.3463013590 -0.2403917138 0.0052527814
C 0.8439648955 -1.0017837045 0.5865313478
C 1.9427979100 -1.2883072853 -0.4387859773
C 2.6192599286 -0.0154077872 -0.9549579194
C 3.2772165776 0.7460268363 0.1434974462
O 3.2422646906 1.9445132628 0.2912666941
H -4.6274743095 -1.3603700654 -1.3698265049
H -3.2999645251 -1.8805097757 -0.3376214220
H -4.6981392582 -1.0676526756 0.3685801697
H -4.1294673792 0.9913167392 -0.9632099234
H -2.6701999333 0.1955832390 -1.5369068497
H -3.3573416199 0.8533316727 1.3611769812
H -2.2461457848 1.7619676966 0.3384202419
H -1.8544090990 -1.1171085984 1.2685513970
H -1.0792183870 0.3110020222 1.9422006223
H -0.7011749117 -0.7628645048 -0.8844397597
H -0.0356255518 0.7637240667 -0.2901725656
H 1.2642374934 -0.4292057519 1.4177953773
H 0.4877945892 -1.9535191536 0.9875332647
H 2.6972230712 -1.9276764528 0.0233997558
H 1.5155760988 -1.8280004264 -1.2847680912
H 3.4136425816 -0.2967402660 -1.6522421394
H 1.9182519622 0.6303880678 -1.4833035655
H 3.8450103223 0.1177674765 0.8551614317
28
CONF9
C -4.3330198422 0.6467704314 -0.9529280646
C -3.5625334171 -0.0445103073 0.1658069735
C -2.0564859968 -0.0313622265 -0.0881298099
C -1.2870525306 -0.7431234437 1.0229314239
C 0.2318026439 -0.6312073711 0.8795696167
C 0.7833036901 -1.3988485489 -0.3186883150
C 2.3071414836 -1.3325014536 -0.4181297732
C 2.8162835601 0.0632913572 -0.7860267903
C 2.7450941420 1.0472886873 0.3295343614
O 2.4844964010 2.2235318838 0.2145901874
H -4.1548466793 0.1478236811 -1.9029992688
H -5.4010097627 0.6286375877 -0.7499671957
H -4.0181227405 1.6838841433 -1.0469090247
H -3.9024809633 -1.0787154771 0.2553155212
H -3.7729630410 0.4558114459 1.1138665082
H -1.7116696689 1.0035033280 -0.1582430242
H -1.8578808107 -0.5143980611 -1.0462436883
H -1.5712453572 -1.7977683853 1.0420051373
H -1.5780604486 -0.3059288207 1.9813169399
H 0.5015870591 0.4251139210 0.7952414456
H 0.6955676725 -1.0191718626 1.7899524875
H 0.4832829522 -2.4452066181 -0.2318424698
H 0.3514786450 -1.0037331539 -1.2390567706
H 2.7504462597 -1.6435665014 0.5296795195
H 2.6361037560 -2.0307247947 -1.1886720242
H 3.8803966545 -0.0068503943 -1.0335766742
H 2.2953522995 0.4595222760 -1.6591472248
H 3.0049339183 0.6343113051 1.3217938957
28
CONF197
C -5.0895385991 0.0853205300 -0.2778958721
C -3.5680103429 0.1726926170 -0.3125403606
C -2.9282910454 -0.7655309241 0.7093237517
C -1.4078440189 -0.6253468568 0.7956441543
C -0.6907271039 -1.0850781725 -0.4734015630
C 0.8258332958 -1.1870998415 -0.3037272239
C 1.4936135178 0.1689808618 -0.0816064796
C 3.0186784215 0.0386556521 -0.0548897600
C 3.6908107904 1.3263792731 0.2729893643
O 4.6965166281 1.7486389648 -0.2463031735
H -5.4172161022 -0.9287148253 -0.4959647737
H -5.4657681567 0.3616829054 0.7047125392
H -5.5287705347 0.7539793365 -1.0142283843
H -3.2595930673 1.1991582653 -0.1008373523
H -3.2196898732 -0.0808674169 -1.3148940771
H -3.1835957860 -1.7979861685 0.4587306664
H -3.3545724337 -0.5509174459 1.6926544295
H -1.0520769617 -1.2265646121 1.6358096602
H -1.1628195743 0.4176321440 1.0031122251
H -1.0743853666 -2.0688440851 -0.7534722417
H -0.9106274564 -0.3975008102 -1.2915465093
H 1.0511688364 -1.8445121556 0.5385786793
H 1.2461414340 -1.6431967218 -1.2026123611
H 1.2039403463 0.8493658374 -0.8847659205
H 1.1557323752 0.5974161155 0.8624879890
H 3.2983625440 -0.6639761978 0.7364479024
H 3.4040440317 -0.3464367400 -1.0001521686
H 3.1958722906 1.9091548588 1.0717755963
28
CONF362
C -4.2657378329 0.6835304447 -0.6833298668
C -3.3143795863 -0.4581658867 -0.3433970173
C -2.2704404017 -0.0307445566 0.6863672757
C -1.3850984725 -1.1796144597 1.1721619027
C -0.5504797467 -1.8611877842 0.0846406417
C 0.3897265263 -0.9351414906 -0.6888227295
C 1.4531355044 -0.2853503008 0.1943756353
C 2.4380564215 0.5375938021 -0.6401212662
C 3.5357713303 1.1122985943 0.1858488098
O 3.9953280286 2.2238164053 0.0727712235
H -4.9978600353 0.3653385486 -1.4216614549
H -4.7971876890 1.0160744049 0.2058641777
H -3.7156618509 1.5304076202 -1.0880159668
H -2.8190558687 -0.7908933256 -1.2567932818
H -3.8862919877 -1.3006514534 0.0525260403
H -2.7880221215 0.3877613235 1.5536983565
H -1.6529518102 0.7649366770 0.2660300558
H -2.0225496802 -1.9393421837 1.6316921532
H -0.7217704194 -0.8014645859 1.9523913453
H 0.0426577840 -2.6474480265 0.5579883950
H -1.2209173000 -2.3458626105 -0.6270047513
H 0.8867667078 -1.5261563203 -1.4614897071
H -0.1878252957 -0.1596606431 -1.1930017496
H 0.9775149477 0.3681456627 0.9264517493
H 1.9967714474 -1.0612668599 0.7369657162
H 2.9173821891 -0.1192740659 -1.3729089884
H 1.9304915319 1.3358510152 -1.1835548010
H 3.9400133089 0.4230941216 0.9502884375
28
CONF181
C -5.0923839638 0.0749295305 -0.2794438786
C -3.5712027812 0.1667887243 -0.3164493186
C -2.9270755815 -0.7575622797 0.7152029212
C -1.4068588291 -0.6123587114 0.7963371248
C -0.6925650485 -1.0791776742 -0.4718081052
C 0.8238442645 -1.1847577581 -0.3037063316
C 1.4952131228 0.1699475454 -0.0841851984
C 3.0199040015 0.0349903730 -0.0549167538
C 3.6945733453 1.3209294490 0.2747576222
O 4.6977866243 1.7448576107 -0.2479461305
H -5.5342735538 0.7351480046 -1.0218307321
H -5.4169997000 -0.9422172118 -0.4875541473
H -5.4686538505 0.3594991819 0.7008304915
H -3.2657790064 1.1965684043 -0.1170124412
H -3.2231092735 -0.0973178770 -1.3161262859
H -3.1801442525 -1.7935370593 0.4773735318
H -3.3518254721 -0.5325632454 1.6968025696
H -1.0470166070 -1.2064492795 1.6398394346
H -1.1642048686 0.4328255427 0.9955025228
H -1.0791765454 -2.0630249001 -0.7474710248
H -0.9116553623 -0.3942186532 -1.2923735770
H 1.0485526684 -1.8415020252 0.5392957375
H 1.2419289510 -1.6431997203 -1.2024232296
H 1.2087672603 0.8492420992 -0.8893848482
H 1.1571789851 0.6016660092 0.8583301739
H 3.2957518268 -0.6686005059 0.7368394489
H 3.4055767088 -0.3506350583 -0.9997532408
H 3.2038958539 1.9005364923 1.0784842725
28
CONF138
C -2.9189728831 1.6677539037 0.4768168393
C -3.2519144672 0.2204837783 0.1307632526
C -2.1633985816 -0.4503265978 -0.7091668350
C -0.9303622516 -0.8266034960 0.1102455899
C 0.1904553930 -1.3648292955 -0.7754505929
C 1.3777369848 -1.9193657695 0.0117043450
C 2.1667620498 -0.8728180656 0.8009106870
C 2.7828945586 0.1957260405 -0.1051966624
C 1.8837096248 1.3602726138 -0.3609536011
O 0.9986294423 1.7445474170 0.3653944904
H -3.6991617601 2.0986285485 1.0998392637
H -1.9755461067 1.7374789666 1.0124362944
H -2.8349604440 2.2630923981 -0.4299932407
H -4.1925193525 0.2012862380 -0.4247141255
H -3.3986951092 -0.3511129089 1.0498019256
H -1.8680590558 0.2271727909 -1.5142434706
H -2.5701558702 -1.3541789820 -1.1700347678
H -1.2067567200 -1.5812663475 0.8504102619
H -0.5748978332 0.0543206276 0.6447134677
H -0.2107618579 -2.1643907431 -1.4036330191
H 0.5283494967 -0.5654353917 -1.4412720401
H 1.0131493793 -2.6765313955 0.7089037352
H 2.0576074189 -2.4144988172 -0.6861789347
H 1.5186409374 -0.3841026922 1.5294393371
H 2.9587048150 -1.3852981741 1.3482496931
H 3.6660976380 0.6262767072 0.3774518643
H 3.1107248486 -0.2311762860 -1.0531503149
H 2.1113152325 1.9178498469 -1.2893199902
28
CONF184
C -5.0779358941 0.0931680842 0.3828856636
C -3.5564714683 0.1868293061 0.3714528113
C -2.9413346558 -0.7797169474 -0.6390014393
C -1.4226963693 -0.6462950345 -0.7606988640
C -0.6808124636 -1.0808085280 0.5030027712
C 0.8323822466 -1.1842472858 0.3068833045
C 1.4940630596 0.1690210881 0.0519204017
C 3.0182891752 0.0390853617 -0.0065073781
C 3.6811677171 1.3230288634 -0.3664323773
O 4.6939972194 1.7565287543 0.1291730469
H -5.3946699000 -0.9149185119 0.6410991224
H -5.4986782050 0.7824153607 1.1110038192
H -5.4834045824 0.3380599107 -0.5964341778
H -3.1790489128 -0.0349155659 1.3707897777
H -3.2584232575 1.2073913954 0.1201377716
H -3.3881547329 -0.5896849390 -1.6181902723
H -3.1936569405 -1.8044658837 -0.3560218343
H -1.1793541474 0.3911853560 -0.9959291142
H -1.0860952428 -1.2667302949 -1.5947785781
H -0.8860096041 -0.3779810068 1.3119438686
H -1.0578567519 -2.0593955545 0.8089835570
H 1.2697299455 -1.6259981714 1.2047901529
H 1.0430223806 -1.8543117094 -0.5292219267
H 1.1352299138 0.5845182205 -0.8901774559
H 1.2215154027 0.8600643690 0.8519416754
H 3.4244722838 -0.3326770986 0.9352845164
H 3.2808984273 -0.6739281706 -0.7943202717
H 3.1712831643 1.8911602098 -1.1664632081
28
CONF363
C -4.2398344008 0.6988300521 -0.6882705994
C -3.3006368904 -0.4521795980 -0.3460509239
C -2.2607802490 -0.0370678101 0.6927561324
C -1.3830696988 -1.1931859750 1.1751688508
C -0.5489878532 -1.8732105011 0.0861651908
C 0.3875757879 -0.9450267130 -0.6891846719
C 1.4466097698 -0.2872015362 0.1932057550
C 2.4253433119 0.5426293401 -0.6418115978
C 3.5236597722 1.1181148344 0.1829153938
O 3.9755020340 2.2333861193 0.0757458091
H -3.6795296857 1.5425188610 -1.0856532369
H -4.9692449681 0.3898174825 -1.4331601280
H -4.7747944504 1.0325235808 0.1983881053
H -2.8014498673 -0.7854399893 -1.2570690891
H -3.8821430666 -1.2914410325 0.0424459163
H -2.7812480850 0.3777628251 1.5600575386
H -1.6373216248 0.7586768842 0.2815057854
H -2.0254745393 -1.9520149695 1.6291371216
H -0.7198870613 -0.8223438051 1.9590297756
H 0.0466795711 -2.6580692771 0.5585925308
H -1.2195966246 -2.3594316165 -0.6242562745
H 0.8883004651 -1.5358491214 -1.4596500396
H -0.1933485982 -0.1739333756 -1.1962610299
H 0.9665302470 0.3632540904 0.9250698403
H 1.9959068114 -1.0589033530 0.7361187899
H 2.9041826881 -0.1096189009 -1.3790822569
H 1.9127052457 1.3414318109 -1.1798639746
H 3.9356522705 0.4259773404 0.9406207767
28
CONF249
C -4.0651341508 1.1151877021 -0.1418176188
C -4.0696833344 -0.3329028201 0.3358226812
C -2.9309020090 -1.1672539840 -0.2525294473
C -1.5491412159 -0.7381866996 0.2379681591
C -0.4558878499 -1.6669621161 -0.2874712655
C 0.9353866716 -1.3407010518 0.2578395142
C 1.4906946942 -0.0177075308 -0.2672269003
C 2.9180817335 0.2215202819 0.2315146418
C 3.5225247098 1.4504238238 -0.3537869201
O 4.2044625955 2.2517775924 0.2395473881
H -4.0840394088 1.1565235818 -1.2286497143
H -4.9399364920 1.6389010085 0.2364280171
H -3.1803891135 1.6398380442 0.2085747538
H -5.0189839569 -0.7931573886 0.0517887518
H -4.0059027893 -0.3551620216 1.4261163625
H -2.9637090254 -1.1016505337 -1.3426047204
H -3.0905060307 -2.2138513849 0.0190913943
H -1.5371464717 -0.7493231025 1.3304919138
H -1.3505967700 0.2817523831 -0.0905575417
H -0.7058264331 -2.6927232455 -0.0062472866
H -0.4371299343 -1.6209209865 -1.3786045766
H 0.8956588479 -1.3107046536 1.3484922916
H 1.6173510831 -2.1446928834 -0.0272888320
H 1.4856404924 -0.0317337504 -1.3588276460
H 0.8579577950 0.8067629144 0.0627111453
H 2.9560807107 0.2757128769 1.3204076698
H 3.5498462558 -0.6131086778 -0.0886456163
H 3.3092012659 1.5959084215 -1.4289329919
28
CONF349
C -4.3480622406 0.6178921007 0.6848318564
C -3.3596694977 -0.4997879845 0.3716365423
C -2.3319772511 -0.0643982497 -0.6710186823
C -1.4041640836 -1.1935370855 -1.1226872179
C -0.5379924020 -1.8035186389 -0.0173988647
C 0.3724123203 -0.8146512019 0.7126166802
C 1.3976042305 -0.1534454491 -0.2066321709
C 2.3830796368 0.7054542017 0.5901846898
C 3.3263677281 1.4473262576 -0.2914832359
O 4.5070926343 1.6023198814 -0.0882364873
H -5.0683605764 0.2940514526 1.4322663637
H -3.8260646982 1.4922962701 1.0674807088
H -4.8913306734 0.9101365219 -0.2112890690
H -3.9036899060 -1.3706591902 -0.0014520986
H -2.8522826248 -0.7929584624 1.2919357926
H -1.7450894429 0.7654114233 -0.2740418583
H -2.8646312624 0.3083824191 -1.5498785663
H -0.7592606716 -0.8179038534 -1.9193028103
H -2.0132042204 -1.9932230494 -1.5517894800
H -1.1844780939 -2.2864479965 0.7171855924
H 0.0812155175 -2.5842103436 -0.4660800801
H -0.2301587359 -0.0462558284 1.1983653478
H 0.9024032188 -1.3587717785 1.4976126939
H 1.9478339782 -0.9254904418 -0.7481976410
H 0.8891025876 0.4748131289 -0.9387034052
H 1.8214988342 1.4629727394 1.1460148795
H 2.9453532312 0.1070182213 1.3084991701
H 2.8600504101 1.8833918094 -1.1943938245
28
CONF231
C -5.1281808607 -0.7235711926 -0.7643986469
C -4.1094110474 -0.5949804132 0.3620354768
C -2.7313978277 -0.1936864199 -0.1602950867
C -1.7104329679 -0.0694329387 0.9691112794
C -0.3433475612 0.4394733377 0.5072754090
C 0.4152671759 -0.5757734930 -0.3460996932
C 1.7683096370 -0.0594417278 -0.8377205851
C 2.7767101136 0.1489560232 0.2956046670
C 4.1531077766 0.3983011668 -0.2158816366
O 4.9340461333 1.2055389431 0.2287711496
H -4.8128281575 -1.4806709860 -1.4789240030
H -6.1010603625 -1.0071073512 -0.3703744307
H -5.2333721388 0.2218014339 -1.2920976198
H -4.0304097352 -1.5479317772 0.8902375072
H -4.4553908454 0.1523534266 1.0799251037
H -2.8102344432 0.7632764957 -0.6817180232
H -2.3991631888 -0.9405539697 -0.8832046629
H -1.5888986318 -1.0404800802 1.4546014542
H -2.1047328678 0.6236421391 1.7164134950
H -0.4775629731 1.3619439126 -0.0621665287
H 0.2472427471 0.6781883687 1.3930742127
H 0.5630566800 -1.4913394931 0.2302665697
H -0.1863402630 -0.8266162776 -1.2206182162
H 2.1816418757 -0.7810105278 -1.5455026225
H 1.6237592552 0.8834608071 -1.3682224164
H 2.4850945888 0.9644193976 0.9571850450
H 2.8342171733 -0.7698641840 0.8879189224
H 4.4462811856 -0.2406421656 -1.0697080411
28
CONF348
C -4.3526627336 0.6293895638 -0.6164645916
C -3.3631138420 -0.4942627113 -0.3293816722
C -2.3180909626 -0.0719793954 0.7013505158
C -1.3866329581 -1.2080519298 1.1273486764
C -0.5368533249 -1.8071842874 0.0035293211
C 0.3640220167 -0.8115193772 -0.7291077518
C 1.3992680399 -0.1567374646 0.1834251533
C 2.3740236648 0.7105772068 -0.6177347957
C 3.3225890776 1.4499844953 0.2602880592
O 4.5027738795 1.6026843949 0.0523161241
H -3.8339195383 1.5058259091 -0.9988934278
H -5.0856105895 0.3149429035 -1.3555610959
H -4.8809189740 0.9147300378 0.2907977729
H -2.8709433591 -0.7802330306 -1.2601584088
H -3.9040808325 -1.3669875308 0.0438156091
H -2.8359714952 0.2935628005 1.5920062084
H -1.7350863126 0.7600881146 0.3034139731
H -1.9914620371 -2.0113311362 1.5556913684
H -0.7300606767 -0.8428469501 1.9192667170
H 0.0878904967 -2.5929886712 0.4352961372
H -1.1941070661 -2.2819005422 -0.7268513246
H 0.8851673519 -1.3487007220 -1.5247265036
H -0.2449556467 -0.0397878632 -1.2014160663
H 0.8986677088 0.4645771656 0.9267831735
H 1.9570858262 -0.9324342062 0.7118401268
H 2.9316788809 0.1183142150 -1.3446673757
H 1.8041230928 1.4693221410 -1.1632187656
H 2.8609710941 1.8859353818 1.1656885888
28
CONF247
C -4.7187536426 0.4719713826 0.0260279987
C -3.4104047451 -0.2323343587 0.3667975391
C -2.3909226995 -0.0995164175 -0.7630934646
C -1.0891581030 -0.8620313074 -0.5083378135
C -0.2232972475 -0.2205306825 0.5747358333
C 1.0315976200 -1.0300663379 0.9088995478
C 2.0004725453 -1.2408144581 -0.2572932949
C 2.5186557010 0.0724508307 -0.8499638133
C 3.2511904940 0.8866746623 0.1593407535
O 3.1449509961 2.0798702407 0.3159626624
H -4.5461568796 1.5322354488 -0.1455049285
H -5.1578424383 0.0473064019 -0.8741838030
H -5.4330043693 0.3675812759 0.8391790457
H -3.6063015936 -1.2911997819 0.5506793740
H -3.0055585552 0.1958457715 1.2852364841
H -2.1643157308 0.9576370241 -0.9213460435
H -2.8444303085 -0.4798967326 -1.6818078627
H -0.5281193702 -0.8977849171 -1.4434452126
H -1.3250793097 -1.8891090257 -0.2203244666
H 0.0573316953 0.7894468538 0.2687602030
H -0.8075353174 -0.1262461706 1.4918710235
H 1.5605029976 -0.5183686459 1.7176887455
H 0.7260456503 -2.0103477639 1.2815223227
H 2.8485538139 -1.8256397479 0.1040238491
H 1.5125367019 -1.8152641302 -1.0439375070
H 3.2396918796 -0.1598117513 -1.6389932206
H 1.7155438172 0.6639956339 -1.2890359614
H 3.9506651298 0.3067087306 0.7901599746
28
CONF456
C -4.9018127836 0.1596054293 -0.3360769756
C -3.4191502587 0.4950661350 -0.4459330166
C -2.5463397583 -0.5553522731 0.2377696599
C -1.0586017890 -0.2237334145 0.1332910568
C -0.1945945922 -1.2895161399 0.8036974825
C 1.2945241941 -0.9448496045 0.8770182297
C 1.9873795194 -0.8434229204 -0.4886853072
C 2.0577266223 0.5849285423 -1.0270230943
C 3.0524974373 1.4403741013 -0.3189013564
O 3.8131897975 1.0876472872 0.5497469579
H -5.2034588493 0.1049265410 0.7076092180
H -5.5039955193 0.9191970418 -0.8285474595
H -5.1102615426 -0.8006987644 -0.8024392918
H -3.2335943411 1.4700592531 0.0106569682
H -3.1412225645 0.5645629970 -1.5000202690
H -2.7314890964 -1.5301815649 -0.2195727108
H -2.8287993057 -0.6271223683 1.2908797618
H -0.8747153250 0.7430282183 0.6088455248
H -0.7939504652 -0.1435067642 -0.9222038080
H -0.5582381606 -1.4410274504 1.8232004903
H -0.3153150838 -2.2356244330 0.2709312710
H 1.4294562313 -0.0092347279 1.4235347425
H 1.7850560731 -1.7262266721 1.4606658295
H 3.0111659785 -1.2110837874 -0.3951538213
H 1.4679889857 -1.4791992817 -1.2062489078
H 2.3480485829 0.5842580967 -2.0815714419
H 1.0903091019 1.0861853438 -0.9692299998
H 3.0629261482 2.4913307732 -0.6668598066
28
CONF536
C -3.9459943233 0.9676521207 0.7764805047
C -3.0078397632 0.4987207037 -0.3296399626
C -2.0200154951 -0.5534610329 0.1705502226
C -1.0741369057 -1.0172661272 -0.9352988402
C -0.1003803372 -2.1083093885 -0.4880349227
C 0.9199736768 -1.6944775384 0.5759543391
C 1.8991431606 -0.6054803299 0.1199612369
C 1.4898392021 0.8014954723 0.5505313200
C 2.4434243510 1.8529963385 0.0998261559
O 3.4417208414 1.6742795573 -0.5561972553
H -4.6428329785 1.7113854966 0.3977636951
H -4.5178181078 0.1302738560 1.1700253124
H -3.3814785980 1.4104023070 1.5940527706
H -2.4563402942 1.3557415478 -0.7243289971
H -3.5952210439 0.0813227591 -1.1507697371
H -2.5746991500 -1.4145417351 0.5507453020
H -1.4508198138 -0.1354186132 1.0020827091
H -0.5188426282 -0.1656107516 -1.3320488155
H -1.6740850371 -1.4159331483 -1.7577963653
H -0.6781259062 -2.9502164826 -0.0984865207
H 0.4440323462 -2.4648130433 -1.3659398319
H 0.4030177824 -1.3702737037 1.4794290561
H 1.4895145825 -2.5885392760 0.8367426462
H 2.8892774661 -0.8039318838 0.5355075506
H 2.0037869503 -0.6303002054 -0.9663452714
H 0.5057591762 1.0710401857 0.1609384921
H 1.4218454324 0.8684367477 1.6397953850
H 2.1686530282 2.8765364753 0.4186694212
28
CONF519
C -4.3949546651 0.9109338323 -0.5149578474
C -3.5210205202 -0.3378290856 -0.5122909080
C -2.2615004990 -0.1490867522 0.3309054246
C -1.3946547344 -1.4076465126 0.3514164723
C -0.0981205193 -1.2425889280 1.1584050750
C 1.1445858984 -0.9870850092 0.3037294610
C 1.1069325562 0.3366233350 -0.4575339220
C 2.4126136960 0.5913517643 -1.2089698400
C 3.5574624671 0.9659218184 -0.3301778253
O 3.5120873259 1.1741334008 0.8579669362
H -5.2837946728 0.7553802958 -1.1216554194
H -4.7083523982 1.1579360337 0.4970413946
H -3.8462950162 1.7588591314 -0.9189498939
H -3.2353510844 -0.5825514075 -1.5378961273
H -4.0942214273 -1.1809809436 -0.1198206210
H -2.5508122253 0.1005179803 1.3546594916
H -1.6903784220 0.6928001961 -0.0624112378
H -1.1525721195 -1.6981702264 -0.6728153515
H -1.9873350503 -2.2176903486 0.7823972436
H -0.2146797439 -0.4247678631 1.8722566447
H 0.0823333217 -2.1515771464 1.7359565500
H 2.0170808573 -0.9849406813 0.9616542599
H 1.2641935817 -1.8096518247 -0.4060048500
H 0.2846642479 0.3256653045 -1.1724313681
H 0.9424462990 1.1513419203 0.2506196279
H 2.7070416071 -0.2855663197 -1.7901953769
H 2.2937092148 1.4131738857 -1.9209693178
H 4.5186084761 1.0652006608 -0.8702342066
28
CONF110
C -2.4566087812 1.7603743149 -0.0826637727
C -2.7109533571 0.4138778829 0.5855289543
C -2.4167965243 -0.7763853358 -0.3293752051
C -0.9401201799 -0.9652270203 -0.6816030690
C -0.0792720222 -1.3304853932 0.5272160614
C 1.2909328537 -1.8884814551 0.1423828501
C 2.2329372422 -0.8699803757 -0.5015009135
C 2.5978784685 0.2653378683 0.4581086565
C 1.6402022498 1.4094827954 0.4303201524
O 0.9521765906 1.7346140178 -0.5080957683
H -1.4069438899 1.8828898364 -0.3371634589
H -3.0416024427 1.8465021728 -0.9958610286
H -2.7397678793 2.5719576952 0.5839467877
H -3.7613877540 0.3636663083 0.8837232536
H -2.1103577817 0.3378277459 1.4934154069
H -2.9828986166 -0.6487155228 -1.2554059567
H -2.7792236144 -1.6872306763 0.1551296961
H -0.5575016612 -0.0558356886 -1.1458434161
H -0.8687324508 -1.7684187716 -1.4194759202
H 0.0519105752 -0.4508176599 1.1622123306
H -0.6049511246 -2.0865535483 1.1161686561
H 1.7712263169 -2.2887352394 1.0389093691
H 1.1490364119 -2.7189668435 -0.5524095662
H 3.1410119381 -1.3898436996 -0.8088400480
H 1.7713304529 -0.4431895000 -1.3927642675
H 2.7046250972 -0.1003653386 1.4795364698
H 3.5597844347 0.6999984762 0.1678218860
H 1.6212058193 2.0136687902 1.3570419963
28
CONF278
C -4.5258736732 0.7100141053 0.2816435751
C -3.0193232810 0.4900043003 0.2063546795
C -2.6784424324 -0.8325156229 -0.4783474116
C -1.1767136256 -1.0480999165 -0.6717518689
C -0.4244418031 -1.2282584374 0.6465071472
C 1.0109891488 -1.7228999051 0.4595419298
C 1.9141782100 -0.7857075714 -0.3437866577
C 2.1082686267 0.5713568346 0.3388347424
C 2.9932237004 1.4695240456 -0.4513919531
O 3.8616971716 2.1795156971 -0.0019400330
H -4.9996075384 -0.0926934051 0.8424471956
H -4.7515685315 1.6527162539 0.7743291669
H -4.9594137798 0.7313316454 -0.7159273771
H -2.6085404332 0.4991112928 1.2170821982
H -2.5620333179 1.3120042648 -0.3495592182
H -3.1630412700 -0.8516932119 -1.4578270874
H -3.0906041885 -1.6572590581 0.1078904604
H -0.7700856936 -0.1978917511 -1.2222134874
H -1.0306301787 -1.9420689793 -1.2828716596
H -0.4203394575 -0.2912785091 1.2037460069
H -0.9569277376 -1.9643047899 1.2534279317
H 1.4556068094 -1.8821094789 1.4442454190
H 0.9855248570 -2.6884592794 -0.0501026401
H 2.8891688281 -1.2634944079 -0.4596431052
H 1.4987751230 -0.6355291786 -1.3405487013
H 1.1422214187 1.0799656410 0.4054910447
H 2.5051348108 0.4559461162 1.3484743791
H 2.7976295634 1.4594740442 -1.5399252712
28
CONF351
C -2.9503184242 1.1368144102 0.9624079875
C -3.0212519720 0.4392265487 -0.3914675775
C -2.6816721949 -1.0511709189 -0.3216427109
C -1.2498688550 -1.3626367406 0.1179908054
C -0.1988639316 -0.8556778740 -0.8682484500
C 1.2068702188 -1.3835579331 -0.5749193913
C 1.7700117784 -0.9873735509 0.7922149588
C 1.8752403127 0.5292524175 0.9780564103
C 2.7601039219 1.1507784975 -0.0465109375
O 2.5231308980 2.1610822274 -0.6648480949
H -3.5740446750 0.6206234900 1.6889989528
H -1.9311261018 1.1614670688 1.3385795742
H -3.3008551744 2.1626355377 0.8754614977
H -2.3525615950 0.9384377424 -1.0946481941
H -4.0362858961 0.5374862749 -0.7841829632
H -2.8505497448 -1.4919290094 -1.3074776186
H -3.3719031720 -1.5319044677 0.3762033574
H -1.1498981005 -2.4473396252 0.2068920296
H -1.0768276015 -0.9339278398 1.1046444055
H -0.4780268027 -1.1792030533 -1.8743845269
H -0.1818083476 0.2347667830 -0.8753735100
H 1.1933073866 -2.4740540657 -0.6376583984
H 1.8800952446 -1.0150206081 -1.3539086223
H 1.1420480716 -1.3975120215 1.5823856553
H 2.7643274617 -1.4262352305 0.8948703432
H 0.8969174895 1.0093409324 0.9585574343
H 2.3354144974 0.7322991547 1.9491547512
H 3.7095928164 0.6089592336 -0.2150247941
28
CONF219
C -3.7742357147 -0.1659721937 1.4098487807
C -3.6886177739 -0.8160695328 0.0333851308
C -2.9270132982 0.0303196643 -0.9887833273
C -1.4609041797 0.2937986021 -0.6398049027
C -0.6202074584 -0.9807795513 -0.5805082459
C 0.8794076031 -0.7042650503 -0.4660775387
C 1.2752812245 -0.1001568496 0.8806611538
C 2.7871787515 0.1173456295 0.9658705799
C 3.2519322210 1.1550702092 0.0031154632
O 4.2564430227 1.0999464264 -0.6658233037
H -4.4174295166 -0.7514157053 2.0626569294
H -2.7936204102 -0.1002208391 1.8731271358
H -4.1876488670 0.8371979503 1.3308522891
H -4.7014082895 -0.9726165143 -0.3459066609
H -3.2203478255 -1.7974234702 0.1218139546
H -3.4360356140 0.9919699262 -1.0923949455
H -2.9731849686 -0.4717719223 -1.9585653686
H -1.4077287072 0.8218520034 0.3119341293
H -1.0432562283 0.9524646584 -1.4058443738
H -0.9309523743 -1.5913385599 0.2685579770
H -0.7997789161 -1.5589179111 -1.4900308176
H 1.4209229632 -1.6434922889 -0.6015683797
H 1.1898670138 -0.0310157526 -1.2700647875
H 0.7697426616 0.8555888775 1.0218810280
H 0.9646412612 -0.7716432715 1.6820394767
H 3.0408584336 0.4905745800 1.9622726390
H 3.3351962156 -0.8109936728 0.7983878454
H 2.5939313636 2.0418297683 -0.0609989846
28
CONF391
C -4.3452864110 0.0975282463 0.7430640737
C -3.3438264274 0.3912630242 -0.3682414022
C -2.7021896474 -0.8695066524 -0.9503603927
C -1.8873451762 -1.6998872326 0.0447170588
C -0.7357812099 -0.9543790543 0.7213948244
C 0.3239398328 -0.4590571101 -0.2607847730
C 1.5151932637 0.1606113196 0.4669633957
C 2.5823884409 0.6470012427 -0.5169461009
C 3.6991172101 1.3555659517 0.1675257996
O 4.8731386309 1.2368604036 -0.0908696373
H -4.8462551526 1.0126085292 1.0506327088
H -5.0994535310 -0.6068156788 0.3984896708
H -3.8506169886 -0.3259879264 1.6130721503
H -2.5701650073 1.0619861427 0.0082087339
H -3.8595703349 0.9132100582 -1.1781443867
H -2.0633785817 -0.5822408519 -1.7875479378
H -3.4932670415 -1.5077853855 -1.3523114620
H -1.4799557481 -2.5620661027 -0.4892971619
H -2.5538326756 -2.0849289479 0.8184483112
H -1.1255547923 -0.1099374926 1.2917313092
H -0.2633658016 -1.6356134218 1.4336361552
H 0.6669023308 -1.2968144747 -0.8714739649
H -0.1116852519 0.2858879151 -0.9278002030
H 1.1719963939 1.0005621550 1.0741959789
H 1.9550265610 -0.5791775280 1.1387570682
H 2.9791118905 -0.1758392229 -1.1132373352
H 2.1290384635 1.3734113651 -1.1986733827
H 3.3774411542 2.0452957043 0.9697235278
28
CONF464
C -4.2926714607 0.9170660500 -0.4252979063
C -2.9609574591 0.1752113307 -0.4568373521
C -2.9705963426 -1.0312032973 0.4789170687
C -1.7111938457 -1.8966702434 0.4006856388
C -0.4294025871 -1.1865829978 0.8603922543
C 0.4182512052 -0.6587800165 -0.2965109198
C 1.6559357570 0.0803547245 0.2055070425
C 2.5212975135 0.5885240967 -0.9440450265
C 3.7373876529 1.3198729885 -0.4909838153
O 4.0578575548 1.5241569767 0.6551660940
H -4.2678842974 1.7778142984 -1.0892922264
H -5.1024104696 0.2627137092 -0.7409520227
H -4.5096855917 1.2663590878 0.5818875401
H -2.1667522478 0.8623424817 -0.1618597707
H -2.7589048686 -0.1611152070 -1.4763234287
H -3.8324057732 -1.6565630586 0.2310751967
H -3.1035284786 -0.6854001927 1.5070505217
H -1.5821703116 -2.2510993566 -0.6239864235
H -1.8768347684 -2.7744416172 1.0287507069
H -0.6894969391 -0.3611898809 1.5260151424
H 0.1828534974 -1.8826545764 1.4379973567
H 0.7286612027 -1.4997187536 -0.9208121855
H -0.1767259366 0.0129712616 -0.9160047810
H 1.3555160275 0.9275785228 0.8257480919
H 2.2535815707 -0.5821699818 0.8353206846
H 2.8529151249 -0.2392965727 -1.5764807967
H 1.9534112914 1.2645327842 -1.5889377074
H 4.3736143976 1.6906690517 -1.3167773178
28
CONF357
C -4.9121965327 0.1554637663 0.2979211719
C -3.5905191797 -0.5737601563 0.0856032373
C -2.4801912097 0.3873816996 -0.3352342354
C -1.1527277348 -0.3069843015 -0.6464378595
C -0.4556633988 -0.8496161983 0.5999582594
C 0.8230512731 -1.6299869832 0.2884537562
C 1.9256027544 -0.8238497804 -0.4004887866
C 2.4021821340 0.3669121390 0.4361609771
C 3.6489088986 0.9693859518 -0.1117783144
O 3.8709081987 2.1517275121 -0.2219505003
H -5.6912797632 -0.5424614890 0.5950498435
H -4.8102079839 0.9086092082 1.0762456259
H -5.2262016832 0.6516296141 -0.6179504416
H -3.7173340945 -1.3357426910 -0.6868500347
H -3.3128356447 -1.0803594330 1.0111223327
H -2.3245536285 1.1268686916 0.4539630115
H -2.8102711941 0.9250558242 -1.2277349750
H -0.4991042763 0.4152357819 -1.1391010549
H -1.3316506721 -1.1259266403 -1.3472515617
H -0.2331873499 -0.0232385549 1.2767069592
H -1.1347640960 -1.5248916062 1.1230329342
H 1.2164504844 -2.0348213415 1.2235033928
H 0.5674847683 -2.4745316580 -0.3551180853
H 2.7726229345 -1.4889933910 -0.5818288543
H 1.5749677293 -0.4670888877 -1.3692536033
H 1.6358565145 1.1373915567 0.5195289539
H 2.6482389765 0.0126677288 1.4421524579
H 4.4123841149 0.2330814522 -0.4250683529
28
CONF111
C -2.4599164274 1.7616688085 -0.0748887366
C -2.7117937392 0.4104209317 0.5848318743
C -2.4131277135 -0.7732144958 -0.3370642507
C -0.9348826768 -0.9594565511 -0.6844064114
C -0.0785978592 -1.3303814047 0.5258707630
C 1.2922458608 -1.8888070931 0.1436756139
C 2.2360415409 -0.8711844701 -0.4989007971
C 2.5967392837 0.2662746203 0.4599208355
C 1.6329167009 1.4054775984 0.4317541718
O 0.9512123660 1.7324616635 -0.5106948019
H -3.0463071870 1.8533949424 -0.9866897407
H -2.7432145130 2.5684829997 0.5973656484
H -1.4107119958 1.8873142700 -0.3300407085
H -3.7625413919 0.3553747614 0.8813296839
H -2.1123096029 0.3299753692 1.4930950478
H -2.9751665783 -0.6390685113 -1.2646507881
H -2.7773741700 -1.6875899943 0.1392481329
H -0.5511186686 -0.0473520492 -1.1423522620
H -0.8600780682 -1.7585751523 -1.4263518593
H 0.0518525702 -0.4532254113 1.1645891816
H -0.6071659708 -2.0878821829 1.1104242616
H 1.7704538859 -2.2888436984 1.0414367556
H 1.1514127974 -2.7195664799 -0.5509961224
H 3.1456444933 -1.3911014521 -0.8017599338
H 1.7776202319 -0.4463388234 -1.3927226722
H 2.7063313932 -0.0987155366 1.4812927711
H 3.5560714733 0.7051604819 0.1674857436
H 1.6016894596 2.0033354662 1.3623417435
28
CONF317
C -3.6451942491 1.1977977723 0.5526916323
C -3.8068203480 -0.2512775036 0.1059560600
C -2.6230000885 -0.7668671870 -0.7139531531
C -1.3359765892 -0.9011148204 0.0982339328
C -0.2056151597 -1.4949127446 -0.7405240090
C 1.0648345743 -1.7840430966 0.0609954521
C 1.7180342712 -0.5589444739 0.7030226352
C 2.1885947074 0.4670686723 -0.3318946191
C 2.8240489306 1.6508571858 0.3076881449
O 3.8262450206 2.2072517902 -0.0747511364
H -2.8155132131 1.3037985994 1.2463355122
H -3.4640108079 1.8417244052 -0.3052171729
H -4.5482173296 1.5400462236 1.0527489845
H -4.7108667977 -0.3318980898 -0.5022379250
H -3.9420198704 -0.8883210027 0.9829469850
H -2.4506625833 -0.0934036402 -1.5570510278
H -2.8835818641 -1.7459414483 -1.1238791056
H -1.5218368652 -1.5450555497 0.9610952258
H -1.0421207805 0.0809235215 0.4680664514
H -0.5503096714 -2.4367176968 -1.1744068187
H 0.0205198709 -0.8244235540 -1.5714724985
H 0.8230071667 -2.4939462806 0.8547701843
H 1.7903151051 -2.2635583488 -0.5995744117
H 1.0202139415 -0.0851412453 1.3938628806
H 2.5803157135 -0.8944008096 1.2828689785
H 2.8774142448 0.0204443892 -1.0503420595
H 1.3210966266 0.8477066290 -0.8785201700
H 2.2938906723 2.0245046595 1.2035222512
28
CONF212
C -4.6388339096 0.0233351561 -0.9400900768
C -4.1863340372 -0.2232184886 0.4949344970
C -2.6688434189 -0.1430821818 0.6682554930
C -1.9243707589 -1.2655514756 -0.0537526599
C -0.4406095029 -1.3349263481 0.3103212207
C 0.3576481717 -0.1291065319 -0.1825262636
C 1.8490774540 -0.2907328340 0.1043812678
C 2.6469984433 0.9274703219 -0.3674520395
C 4.1139103562 0.7446016674 -0.1871289459
O 4.8856384374 1.5856829958 0.2081397671
H -4.2776819007 -0.7587878475 -1.6021780730
H -5.7247752948 0.0390842903 -0.9952764744
H -4.2635999203 0.9797440506 -1.2972048660
H -4.5358114526 -1.2054651946 0.8214565264
H -4.6501377359 0.5237331491 1.1436513495
H -2.4374046301 -0.1989115042 1.7348887846
H -2.3244006189 0.8255686300 0.3024532778
H -2.0183743088 -1.1362103866 -1.1330055289
H -2.3908481977 -2.2180695923 0.2095179764
H -0.3385104874 -1.4177451880 1.3948237371
H -0.0162374754 -2.2402674555 -0.1303667638
H 0.2053092343 -0.0129952141 -1.2575752426
H -0.0038820915 0.7755432249 0.3075566599
H 1.9973828582 -0.4253375309 1.1775677153
H 2.2214932189 -1.1850264933 -0.3990394189
H 2.4831336559 1.0624106513 -1.4410874511
H 2.3247184839 1.8369756548 0.1413467936
H 4.4846278956 -0.2614519244 -0.4575743138
28
CONF318
C -3.6716951448 1.1704018513 0.5829593923
C -3.8230044434 -0.2641514602 0.0884058378
C -2.6270222801 -0.7509378459 -0.7313837238
C -1.3473582760 -0.8941059970 0.0908578086
C -0.2082946891 -1.4774635622 -0.7433859517
C 1.0551866768 -1.7705178782 0.0675961955
C 1.7111641675 -0.5462825635 0.7084356005
C 2.2014528685 0.4685233531 -0.3283770729
C 2.8529744779 1.6451962024 0.3082675215
O 3.8610048749 2.1884421811 -0.0778076010
H -3.4794320037 1.8415518894 -0.2513235672
H -4.5828120790 1.4948140130 1.0802203472
H -2.8525911655 1.2557446036 1.2918268383
H -4.7187326235 -0.3280892111 -0.5339301511
H -3.9677206904 -0.9288837796 0.9430784098
H -2.4515841396 -0.0567423792 -1.5568291031
H -2.8759914028 -1.7221402326 -1.1665657823
H -1.5408935386 -1.5486074724 0.9440639490
H -1.0575741179 0.0835175721 0.4753856869
H -0.5468679428 -2.4162661281 -1.1884332276
H 0.0235941834 -0.7991465842 -1.5663125771
H 0.8036990665 -2.4758597331 0.8624685132
H 1.7827153391 -2.2567404501 -0.5857770672
H 1.0101187551 -0.0618959485 1.3885604289
H 2.5644700439 -0.8849583480 1.2996023268
H 2.8860837429 0.0084303378 -1.0424261641
H 1.3423530418 0.8603005131 -0.8804835290
H 2.3301018143 2.0265535272 1.2050912654
28
CONF243
C -3.9003697834 0.5795914013 -0.9418228614
C -3.7462037432 -0.0992190116 0.4146599635
C -2.9214548049 -1.3865850652 0.3557953449
C -1.4713668391 -1.2010246307 -0.0951614673
C -0.6537904503 -0.3308946823 0.8589047694
C 0.8469338390 -0.3718051751 0.5679538214
C 1.2173913978 0.2713533592 -0.7681204594
C 2.7338972874 0.2964900061 -0.9673084911
C 3.4128595115 1.1853932980 0.0170713891
O 4.4550961352 0.9494340102 0.5808486596
H -2.9460237896 0.9527101674 -1.3032984088
H -4.2976709750 -0.1205573158 -1.6735244749
H -4.5850621241 1.4210832709 -0.8654119705
H -4.7384434731 -0.3508680092 0.7972110655
H -3.2931180050 0.5970725276 1.1219650194
H -3.4110099522 -2.0822105477 -0.3304340490
H -2.9251256864 -1.8461479195 1.3475216267
H -1.4576098277 -0.7715762317 -1.0965121729
H -1.0065265036 -2.1883499379 -0.1531197049
H -0.9967922038 0.7035248985 0.8042416344
H -0.8185940704 -0.6817285272 1.8805199623
H 1.3773788377 0.1523314231 1.3683294306
H 1.1881839281 -1.4094480902 0.5768858963
H 0.7648248014 -0.2892435779 -1.5852142328
H 0.8302805224 1.2917241398 -0.7988690977
H 3.1593408297 -0.7064523790 -0.9104078918
H 2.9603794091 0.7085768187 -1.9550410983
H 2.8879992926 2.1407967201 0.2047091685
28
CONF11
C -4.1466526858 0.4193866530 -0.9905483348
C -3.7732251116 0.0575062605 0.4427233614
C -2.2864093768 0.2490432087 0.7455017401
C -1.3837079877 -0.7277028956 -0.0052980054
C 0.0807692186 -0.5667239026 0.3976023859
C 0.9910516663 -1.5299827678 -0.3583693096
C 2.4654980842 -1.3836754280 0.0164709550
C 3.0693619939 -0.0589566699 -0.4552891051
C 2.6496787118 1.1198683329 0.3525853241
O 2.4532508648 2.2339686851 -0.0775180387
H -3.6713340266 -0.2527426364 -1.6997714959
H -5.2231363540 0.3503427680 -1.1278770957
H -3.8361095124 1.4368986991 -1.2178510488
H -4.0490999716 -0.9810733512 0.6384037694
H -4.3491167706 0.6866657764 1.1254012118
H -2.1291565963 0.1163738836 1.8189776738
H -1.9961123343 1.2726048425 0.4954067611
H -1.4751066366 -0.5617486580 -1.0797298302
H -1.7058601919 -1.7503605013 0.2047847749
H 0.3904877082 0.4631923048 0.1989622595
H 0.1794750775 -0.7398277853 1.4720667781
H 0.6755148428 -2.5530625493 -0.1435467354
H 0.8739881154 -1.3673112905 -1.4319556924
H 2.5772456745 -1.4692157798 1.0989062385
H 3.0238958988 -2.1988634603 -0.4449811342
H 4.1566070389 -0.1088053454 -0.3374590877
H 2.8560936572 0.1229307121 -1.5098196745
H 2.5684313445 0.9255308313 1.4381424530
28
CONF256
C -4.4532558490 -0.0890949668 -0.2187623566
C -3.1698896190 0.6807119876 -0.5109844869
C -1.9829848981 0.2284948560 0.3423218853
C -1.4800476090 -1.1667833657 -0.0231444984
C -0.3262092504 -1.6463583253 0.8604942307
C 0.9523891638 -0.8108741348 0.7748947676
C 1.5861752444 -0.8161760987 -0.6152245753
C 2.9052830826 -0.0405432917 -0.6211924971
C 2.6906988728 1.4101409266 -0.3584638551
O 3.3658603996 2.1069780037 0.3611623476
H -4.7037833444 -0.0214497436 0.8376809918
H -5.2785227203 0.3241234283 -0.7939276724
H -4.3502706765 -1.1383110426 -0.4820949368
H -3.3486467945 1.7419048439 -0.3213484129
H -2.9152730876 0.5731657859 -1.5679058174
H -2.2712894591 0.2442125497 1.3962083375
H -1.1742339902 0.9500300131 0.2108252180
H -1.1769649769 -1.1788348112 -1.0713403583
H -2.2983163753 -1.8803737483 0.0872115790
H -0.6636159650 -1.6529802485 1.8995820697
H -0.0865859224 -2.6763232877 0.5858310608
H 0.7489567116 0.2187841399 1.0772537085
H 1.6718776777 -1.2168455311 1.4902189749
H 1.7732307764 -1.8454416700 -0.9236381350
H 0.9056682523 -0.3625979156 -1.3363866870
H 3.6107874722 -0.4454192340 0.1057359657
H 3.3570484374 -0.1083513512 -1.6149458534
H 1.8318416298 1.8472253229 -0.9020809354
28
CONF214
C -4.6700972617 0.3175113101 -0.6766231174
C -4.1854448357 -0.4452006422 0.5516026982
C -2.6654346379 -0.4114086996 0.7185518324
C -1.9266320099 -1.1711316695 -0.3825674870
C -0.4357352061 -1.3514697000 -0.0934814950
C 0.3434018590 -0.0373035845 -0.1053591786
C 1.8437247163 -0.2753144088 0.0535160012
C 2.6265681540 1.0401755461 0.0301401832
C 4.0807076276 0.8334271682 0.2758879717
O 4.9803433875 1.3860297555 -0.3110647558
H -5.7570819428 0.3297410689 -0.7082012732
H -4.3162830532 1.3458320237 -0.6488074814
H -4.3103238933 -0.1469984960 -1.5906927564
H -4.5187995686 -1.4836373171 0.4876113897
H -4.6431968307 -0.0066222460 1.4415496518
H -2.4116690686 -0.8584036140 1.6829392031
H -2.3369166012 0.6289843220 0.7354863823
H -2.0419813063 -0.6482087586 -1.3332232978
H -2.3811545421 -2.1592444849 -0.4890153155
H -0.3119158549 -1.8373541178 0.8770630571
H -0.0130768199 -2.0162147790 -0.8508313174
H 0.1568165560 0.4814437639 -1.0478071385
H -0.0046515783 0.6035837224 0.7055800779
H 2.0305658964 -0.7922577732 0.9966683302
H 2.1961667531 -0.9182885133 -0.7554476783
H 2.4848631318 1.5711360818 -0.9122078094
H 2.2646239899 1.6811656654 0.8399154002
H 4.3085692466 0.1073154241 1.0781537927
28
CONF336
C -3.5392876658 1.2912185924 0.4793923052
C -3.7423454216 -0.1714289939 0.0991646183
C -2.5776589773 -0.7547835708 -0.7023893196
C -1.2926200134 -0.8954559719 0.1116487819
C -0.1826372958 -1.5552669497 -0.7043160119
C 1.0748671069 -1.8605592108 0.1117490496
C 1.7649903019 -0.6372610400 0.7177612605
C 2.2388647770 0.3627186062 -0.3403068275
C 3.1527345065 1.3912730762 0.2293175871
O 3.1354023373 2.5708468497 -0.0309415296
H -2.6955896802 1.4075580808 1.1542606592
H -3.3563089776 1.8925884519 -0.4084416515
H -4.4254047122 1.6772359489 0.9777464648
H -4.6521701657 -0.2544305184 -0.5000369265
H -3.8887921726 -0.7646017535 1.0047097678
H -2.3876925885 -0.1208336887 -1.5717991485
H -2.8688830239 -1.7412573919 -1.0720471920
H -1.4954284071 -1.4985135575 1.0000419272
H -0.9669574434 0.0909926327 0.4415981305
H -0.5593429393 -2.4983768076 -1.1080253774
H 0.0688819605 -0.9187215226 -1.5539394829
H 0.8064687166 -2.5372947618 0.9258231726
H 1.7861504603 -2.3834934361 -0.5312431042
H 1.0893655853 -0.1361893382 1.4114655471
H 2.6291337910 -0.9808034189 1.2905297254
H 2.8188573109 -0.1753827094 -1.0969406081
H 1.4037196941 0.8572631169 -0.8362302946
H 3.9017414207 0.9939376854 0.9396048362
28
CONF242
C -3.8702885192 0.5892848994 -0.9485717101
C -3.7360811514 -0.0882966006 0.4105843688
C -2.9257320254 -1.3852262782 0.3619805721
C -1.4718965571 -1.2186603875 -0.0845588959
C -0.6519277123 -0.3409974032 0.8603135879
C 0.8487257800 -0.3878914700 0.5703364357
C 1.2191652181 0.2337172512 -0.7760625499
C 2.7366152869 0.2818538884 -0.9626734422
C 3.3902990792 1.2034909044 0.0086783364
O 4.4336769649 1.0007131750 0.5831019635
H -4.5409009915 1.4425545547 -0.8784654261
H -2.9074909169 0.9450981928 -1.3049875176
H -4.2749260756 -0.1057904142 -1.6810432328
H -4.7344647464 -0.3274573562 0.7850819408
H -3.2811779080 0.6041900450 1.1204661916
H -3.4205585917 -2.0791895266 -0.3221338368
H -2.9384949852 -1.8388354871 1.3563565254
H -1.4497622265 -0.8039746796 -1.0919559830
H -1.0150650867 -2.2105564585 -0.1259786568
H -0.9921645946 0.6936906641 0.7944553832
H -0.8179299206 -0.6804001348 1.8855694058
H 1.3787443561 0.1494884461 1.3622466022
H 1.1899486801 -1.4252340163 0.5963669387
H 0.7833981333 -0.3513805107 -1.5851272494
H 0.8148416777 1.2464120358 -0.8311934748
H 3.1796850468 -0.7116667363 -0.8811417039
H 2.9649078009 0.6773058371 -1.9567709511
H 2.8437779522 2.1506160270 0.1752187480
28
CONF358
C -4.9241799134 0.1352324609 0.2878356742
C -3.5961185414 -0.5823144752 0.0756795720
C -2.4885374249 0.3923836867 -0.3209426834
C -1.1552055819 -0.2893946877 -0.6349648288
C -0.4562394508 -0.8372027440 0.6081788677
C 0.8182041224 -1.6219682740 0.2900846836
C 1.9188344191 -0.8202825652 -0.4070354041
C 2.4093188240 0.3659369613 0.4273251877
C 3.6566774391 0.9625077427 -0.1255310562
O 3.8957566469 2.1437574418 -0.2088462908
H -4.8326765371 0.8797828477 1.0755282091
H -5.2353733361 0.6400344467 -0.6241820743
H -5.7004775377 -0.5713383122 0.5712887273
H -3.7117337783 -1.3328613517 -0.7097487152
H -3.3229662806 -1.1019038390 0.9954608326
H -2.3425483652 1.1191851726 0.4817818511
H -2.8158805234 0.9432203650 -1.2064284856
H -0.5058603818 0.4414853438 -1.1204481827
H -1.3269897873 -1.1038218580 -1.3427914192
H -0.2280348483 -0.0130857213 1.2857879289
H -1.1361796766 -1.5107597923 1.1324199064
H 1.2163017569 -2.0266815380 1.2231791438
H 0.5558622891 -2.4667079587 -0.3505022704
H 2.7606149269 -1.4895415410 -0.5973828905
H 1.5610453324 -0.4601613743 -1.3718937317
H 1.6488826763 1.1413672016 0.5190514759
H 2.6602226693 0.0094303149 1.4314868053
H 4.4041435253 0.2227624374 -0.4682611780
28
CONF546
C -3.8422646248 0.0288178397 -1.3622832167
C -3.7527831188 -0.7542677081 -0.0561159129
C -2.9888068802 -0.0085895899 1.0477938577
C -1.5269884812 -0.4340562394 1.2014837613
C -0.6577706100 -0.1313471788 -0.0164224190
C 0.8163313005 -0.4244527302 0.2545432061
C 1.6810616943 -0.1646653703 -0.9779125527
C 3.1591092651 -0.4393680449 -0.7090199506
C 3.8208918686 0.5910057016 0.1418922380
O 3.3301113449 1.6231875339 0.5300412250
H -4.3825266639 -0.5466248007 -2.1108930062
H -4.3731721632 0.9651683598 -1.2040769678
H -2.8553822584 0.2592301867 -1.7525285811
H -3.2752857650 -1.7186238631 -0.2395290256
H -4.7696041759 -0.9575700796 0.2869966088
H -3.4836997421 -0.1854959908 2.0053712259
H -3.0312579848 1.0651998889 0.8545894166
H -1.4868622293 -1.5052264243 1.4144946575
H -1.1077861083 0.0871927001 2.0663541633
H -0.9879514148 -0.7357423112 -0.8628110894
H -0.7687985950 0.9212845572 -0.2864767679
H 1.1642770756 0.2056456094 1.0762227845
H 0.9249606058 -1.4673924613 0.5628130840
H 1.3393997766 -0.7981595715 -1.7978767241
H 1.5656655918 0.8778962896 -1.2813379520
H 3.2961087477 -1.4112470540 -0.2293741634
H 3.7223911067 -0.4700764268 -1.6460089744
H 4.8683445165 0.3467364203 0.4031116350
28
CONF463
C -3.3050022329 1.2147338568 -0.2797116019
C -2.6520328264 -0.0007702449 -0.9279546975
C -2.4009228854 -1.1467153683 0.0538330799
C -1.4575188967 -0.8116266387 1.2121215202
C -0.0588118435 -0.3545863959 0.7948005618
C 0.7207833274 -1.4234755662 0.0327593911
C 2.1766854778 -1.0320850940 -0.2215373108
C 2.2991981209 0.2012324641 -1.1182257493
C 2.2556893945 1.4963929102 -0.3775153106
O 2.4840399634 1.6537661167 0.7975354749
H -2.6366398993 1.6791656871 0.4408709435
H -3.5561143974 1.9560911722 -1.0348794271
H -4.2189758983 0.9257369712 0.2346634446
H -1.7131176201 0.2994069136 -1.3957472214
H -3.3062405303 -0.3716769337 -1.7208229543
H -2.0028068986 -1.9998606383 -0.4985268796
H -3.3592696341 -1.4552780098 0.4792679846
H -1.3612131608 -1.7016159000 1.8391694678
H -1.9086726890 -0.0310159014 1.8274045554
H -0.1349827370 0.5521822155 0.1911784680
H 0.4996620159 -0.0868161466 1.6959802519
H 0.7054469771 -2.3490416071 0.6123415649
H 0.2351834142 -1.6219875773 -0.9245820226
H 2.6710357371 -0.8214821003 0.7291643818
H 2.6870799593 -1.8738160180 -0.6909554827
H 3.2688726090 0.2015473632 -1.6262928786
H 1.5346077399 0.2025913601 -1.8961996379
H 2.0263272086 2.3724057263 -1.0140753771
28
CONF3
C -4.3678163647 1.0221181244 -0.1505829411
C -3.2556691868 0.0814045396 -0.5987162181
C -2.0890104247 0.0705308607 0.3867735553
C -0.9713333361 -0.8728987675 -0.0516197005
C 0.1922020904 -0.8660113296 0.9377570359
C 1.3436874990 -1.7855367824 0.5334893493
C 2.1513968982 -1.2922873770 -0.6675582148
C 2.9073750040 0.0064006448 -0.3792846741
C 2.0458896889 1.2215956227 -0.3668609840
O 2.1994469951 2.1865116619 0.3480373361
H -5.1844457579 1.0192980668 -0.8683464994
H -4.7586809898 0.7156398691 0.8171244659
H -3.9922371691 2.0391026993 -0.0601420888
H -2.8942707890 0.3908799118 -1.5820957852
H -3.6539540662 -0.9310414096 -0.6958950731
H -2.4527422826 -0.2319620363 1.3717207837
H -1.6877536967 1.0831156240 0.4828339674
H -0.6251126118 -0.5705769585 -1.0414748746
H -1.3666793523 -1.8878377455 -0.1354876887
H 0.5642709776 0.1560523682 1.0519463404
H -0.1816363499 -1.1815487057 1.9146771884
H 2.0188992486 -1.8957327148 1.3848276110
H 0.9405027099 -2.7734501559 0.3019183502
H 2.8778582727 -2.0623329109 -0.9297867502
H 1.4956427452 -1.1486413497 -1.5267169390
H 3.4675804581 -0.0565976244 0.5550824294
H 3.6249236384 0.1796309538 -1.1878227801
H 1.2432764156 1.2227750282 -1.1275213229
28
CONF389
C -4.3298749527 0.1701549680 0.7017999400
C -3.3031292405 0.4062015501 -0.4001780981
C -2.6849052712 -0.8865291378 -0.9356359146
C -1.9046442973 -1.7062206392 0.0951302768
C -0.7344412156 -0.9743895201 0.7546516356
C 0.3489062605 -0.5508696218 -0.2353891754
C 1.5613579583 0.0404385903 0.4809566163
C 2.6382083574 0.4843609242 -0.5123527702
C 3.8730662062 0.9618717331 0.1693995290
O 4.5310945826 1.9215266771 -0.1551099864
H -4.8109369072 1.1064692980 0.9753823895
H -5.0969799561 -0.5233655909 0.3638766840
H -3.8609911725 -0.2414108321 1.5916063111
H -2.5185468687 1.0678357614 -0.0300253827
H -3.7918996725 0.9177653259 -1.2331361785
H -2.0276566366 -0.6393198628 -1.7713201677
H -3.4861386556 -1.5167077539 -1.3302007479
H -1.5212658152 -2.5993724787 -0.4045781887
H -2.5888571894 -2.0418938633 0.8762904490
H -1.1000755603 -0.0971169274 1.2904105688
H -0.2906502747 -1.6443679215 1.4953763528
H 0.6603985058 -1.4192890963 -0.8197802965
H -0.0531344308 0.1913698018 -0.9260097465
H 1.2457999608 0.8983421384 1.0780103729
H 1.9805774016 -0.7035813477 1.1611637395
H 2.9353070646 -0.3773052677 -1.1183903862
H 2.2664427781 1.2589298691 -1.1845910837
H 4.1804148403 0.3496292372 1.0373887123
28
CONF320
C -4.1513094301 0.8159585409 -0.7669326590
C -3.0242144875 0.3567342182 0.1511080846
C -2.6725798481 -1.1112177044 -0.0826226106
C -1.6529462631 -1.6631678610 0.9156760115
C -0.2847915565 -0.9787120613 0.8846868279
C 0.4325486295 -1.1378501321 -0.4550265852
C 1.8925074559 -0.6856024683 -0.4105280408
C 2.0368008560 0.8188738687 -0.1655800570
C 3.4359105323 1.2901436128 -0.3620921393
O 4.0106419695 2.0971951279 0.3289638099
H -5.0504079110 0.2292526854 -0.5913716061
H -4.3855289438 1.8632775084 -0.5916503747
H -3.8654516933 0.6975215266 -1.8098439449
H -3.3262519042 0.4929917046 1.1921537771
H -2.1475069134 0.9813468411 -0.0261143381
H -2.3005595493 -1.2372299095 -1.1006421476
H -3.5862219512 -1.7050844125 0.0036567223
H -1.5171151728 -2.7291648647 0.7168673994
H -2.0646848289 -1.5671431761 1.9234477078
H -0.4057044817 0.0780748752 1.1216231937
H 0.3335353082 -1.4227984196 1.6687624415
H 0.4076708638 -2.1916958088 -0.7409893661
H -0.0917631922 -0.5708106289 -1.2252262472
H 2.4171540089 -1.2298203934 0.3770377621
H 2.3670583742 -0.9344918262 -1.3620304119
H 1.4297352020 1.3548243871 -0.9023417181
H 1.6960264463 1.1031840081 0.8298625245
H 3.9504122378 0.8441795830 -1.2336579099
28
CONF230
C -5.1194361665 -0.7951347146 -0.7482113089
C -4.1110251914 -0.5693820335 0.3722397418
C -2.7303492333 -0.2057579805 -0.1702384769
C -1.7182159318 0.0099411611 0.9532924123
C -0.3498036539 0.4879436018 0.4633904873
C 0.4125116777 -0.5809491702 -0.3181092858
C 1.7746637066 -0.1028470490 -0.8231867154
C 2.7721306806 0.1634143434 0.3076973383
C 4.1559512518 0.3730944134 -0.2015312162
O 4.9373810005 1.2006046407 0.2031971095
H -6.0949078525 -1.0484004670 -0.3402356819
H -5.2227217240 0.1025767773 -1.3537661563
H -4.7955950431 -1.6080142223 -1.3944185425
H -4.0324509553 -1.4754520540 0.9774073669
H -4.4662265875 0.2325615919 1.0236224527
H -2.8079016528 0.7069058258 -0.7659657870
H -2.3908036251 -1.0062810600 -0.8294936695
H -1.5963067861 -0.9203425478 1.5128944940
H -2.1204267425 0.7567185346 1.6424083193
H -0.4820091726 1.3706736956 -0.1663286066
H 0.2370417838 0.7850887942 1.3338508629
H 0.5476574840 -1.4610788627 0.3138728502
H -0.1802974835 -0.8802988532 -1.1833093019
H 2.1904043317 -0.8668159924 -1.4834627984
H 1.6429840683 0.8088440230 -1.4087153914
H 2.4796322958 1.0177026557 0.9178684080
H 2.8159504848 -0.7202403955 0.9523719638
H 4.4543580122 -0.3178187385 -1.0119565952
28
CONF535
C -3.9452001847 0.9613725812 0.7851125966
C -2.9962315408 0.5131348717 -0.3203662428
C -2.0206088711 -0.5565229102 0.1665458756
C -1.0665592732 -1.0022681635 -0.9397619870
C -0.0991680115 -2.1035501128 -0.5038900415
C 0.9221591192 -1.7047511442 0.5649100122
C 1.9024262018 -0.6121287955 0.1195447766
C 1.5044155879 0.7874794487 0.5836129509
C 2.4374397822 1.8489669995 0.1137754663
O 3.4095796794 1.6838378022 -0.5837129914
H -4.5287349078 0.1190413186 1.1498226152
H -3.3881802549 1.3786954982 1.6209935318
H -4.6311652188 1.7201342962 0.4164874577
H -2.4350642532 1.3759127838 -0.6879646677
H -3.5759160729 0.1188174042 -1.1581939790
H -2.5848597052 -1.4219834642 0.5219153817
H -1.4573286380 -0.1611047315 1.0131381535
H -0.5057672871 -0.1448274862 -1.3158254330
H -1.6605534872 -1.3839935743 -1.7745056209
H -0.6813743878 -2.9468056973 -0.1240736335
H 0.4445348490 -2.4529938923 -1.3850473263
H 0.4057668010 -1.3891920529 1.4717652517
H 1.4896166333 -2.6028325128 0.8160251029
H 2.8966440093 -0.8239187621 0.5181356040
H 1.9934087675 -0.6145888606 -0.9682895727
H 0.5064818865 1.0581653795 0.2315112562
H 1.4732613725 0.8395228398 1.6752906618
H 2.1720325125 2.8665909691 0.4582203512
28
CONF10
C -4.5033243733 -0.5832342178 -0.1077744700
C -3.6746661108 0.6412136502 0.2651064512
C -2.2648519113 0.6185158200 -0.3272273179
C -1.3782044243 -0.4782379500 0.2590134850
C 0.0494278003 -0.3976481786 -0.2779649296
C 0.9400112343 -1.4941314135 0.2986682254
C 2.3786774880 -1.4323719905 -0.2135106482
C 3.1392952726 -0.2069784587 0.2982733072
C 2.7490726506 1.0683556468 -0.3647423535
O 2.6926048268 2.1518532056 0.1715567515
H -5.5188100174 -0.4778916627 0.2664880958
H -4.5459278165 -0.6971756503 -1.1886835132
H -4.0775420330 -1.4872162585 0.3189044899
H -3.6062114944 0.7163900084 1.3526831631
H -4.1870357559 1.5363018781 -0.0953403110
H -1.7913829005 1.5862619429 -0.1409570105
H -2.3323225925 0.4887753833 -1.4099963405
H -1.7927346500 -1.4578624565 0.0162811750
H -1.3604629380 -0.3818164333 1.3471848026
H 0.0274698282 -0.4813207468 -1.3672473704
H 0.4670829930 0.5823456319 -0.0301640331
H 0.9412004884 -1.4198975651 1.3882893600
H 0.5168862362 -2.4655966018 0.0348062843
H 2.9051958458 -2.3270816492 0.1204809741
H 2.3776180891 -1.4297670745 -1.3050508566
H 3.0452213026 -0.1028352860 1.3803557012
H 4.2014824021 -0.3327120382 0.0650464875
H 2.5493989255 0.9785165896 -1.4486206815
28
CONF319
C -4.1780392947 0.8505889645 0.6830139295
C -3.0431013931 0.3380967214 -0.1963575330
C -2.6766289480 -1.1051061336 0.1441600911
C -1.6446266651 -1.7156780128 -0.8059732946
C -0.2811564994 -1.0211385104 -0.8096032010
C 0.4217132742 -1.0792460083 0.5460430979
C 1.8858686648 -0.6434107315 0.4811439272
C 2.0463299856 0.8366300712 0.1227997550
C 3.4513056431 1.3039010555 0.2842510818
O 4.0404696102 2.0392732245 -0.4715981941
H -5.0706436847 0.2437771876 0.5470110874
H -3.8948255991 0.8094965671 1.7325447166
H -4.4219676339 1.8803778450 0.4329512528
H -2.1735894002 0.9833420892 -0.0630838574
H -3.3433101614 0.3950661227 -1.2452503078
H -3.5831595645 -1.7139701203 0.0959609785
H -2.3094252079 -1.1533291547 1.1705002275
H -2.0480089678 -1.6906207333 -1.8213327694
H -1.5033715561 -2.7649162860 -0.5348096086
H 0.3483214537 -1.5165309360 -1.5530440759
H -0.4053324529 0.0151568734 -1.1232890424
H -0.1052032698 -0.4491438743 1.2636642033
H 0.3854421444 -2.1070348064 0.9139407354
H 2.3499113344 -0.8224935289 1.4532847989
H 2.4124924950 -1.2506840283 -0.2574959980
H 1.7090688453 1.0475085913 -0.8918979867
H 1.4451135338 1.4331482991 0.8163840920
H 3.9560172040 0.9279319140 1.1937459020
28
CONF335
C -3.5134627506 1.2744515785 -0.5700069458
C -3.7307206471 -0.1651952986 -0.1165788135
C -2.5735027046 -0.7170797927 0.7173768501
C -1.2856595737 -0.9035255650 -0.0829044818
C -0.1851022828 -1.5351266021 0.7673187679
C 1.0795836775 -1.8726870543 -0.0246110276
C 1.7742527874 -0.6746126752 -0.6743782921
C 2.2276916980 0.3741838682 0.3447941504
C 3.1382998219 1.3852886300 -0.2601821130
O 3.1015270891 2.5760043208 -0.0595854608
H -4.3974499926 1.6447615902 -1.0838870840
H -3.3204181702 1.9174050837 0.2860447884
H -2.6713114827 1.3478138096 -1.2529505516
H -3.8798181646 -0.8022591408 -0.9913459791
H -4.6428606426 -0.2099181616 0.4831685933
H -2.8726868459 -1.6830644414 1.1320956547
H -2.3834666740 -0.0436763786 1.5566505525
H -0.9507503066 0.0650945098 -0.4538265392
H -1.4885390698 -1.5433623861 -0.9451681290
H 0.0598769827 -0.8680865217 1.5952098518
H -0.5677663756 -2.4618586613 1.2021408291
H 1.7853599360 -2.3680799864 0.6456730691
H 0.8189340395 -2.5824455531 -0.8126721081
H 2.6483791814 -1.0394032145 -1.2180289943
H 1.1073771508 -0.2082756035 -1.4000224898
H 1.3825311432 0.8822411858 0.8089647944
H 2.8035144073 -0.1256520452 1.1301619246
H 3.9037729267 0.9632670910 -0.9379028192
28
CONF339
C -3.5667060941 1.2358268440 -0.6046501739
C -3.7596163446 -0.1876230470 -0.0930618138
C -2.5809770828 -0.6965454924 0.7382052773
C -1.3047933491 -0.8960195050 -0.0775921827
C -0.1902713973 -1.5078399316 0.7690392876
C 1.0662959061 -1.8521252044 -0.0327634985
C 1.7659628181 -0.6572347298 -0.6830083840
C 2.2530931342 0.3737924548 0.3385185101
C 3.1756151267 1.3732557288 -0.2677593288
O 3.1730425662 2.5605326166 -0.0446480921
H -3.3662686319 1.9130397993 0.2227728183
H -2.7373604542 1.2916966270 -1.3046485163
H -4.4637080057 1.5766055304 -1.1164534110
H -3.9187450304 -0.8587067938 -0.9401949052
H -4.6595161339 -0.2188745776 0.5257596941
H -2.8613346895 -1.6511998356 1.1906044259
H -2.3846767289 0.0071416475 1.5507157601
H -0.9780438719 0.0653284915 -0.4738026726
H -1.5186829080 -1.5543705003 -0.9230823486
H 0.0611065420 -0.8266714169 1.5833177103
H -0.5632589102 -2.4294205395 1.2228053597
H 1.7732922955 -2.3548871950 0.6307556092
H 0.7944378452 -2.5576176938 -0.8208681049
H 2.6249053222 -1.0288935830 -1.2459060076
H 1.0932190492 -0.1736845321 -1.3917311505
H 1.4246233857 0.8933459921 0.8197650336
H 2.8301811599 -0.1437143494 1.1116108570
H 3.9165482195 0.9451469299 -0.9685814167
28
CONF178
C -4.8391949857 -1.1905655364 -0.0768984177
C -4.2707587597 0.1864313709 0.2480114384
C -2.8842226867 0.4242825468 -0.3518350539
C -1.8007731279 -0.4631533476 0.2580712299
C -0.4117649403 -0.1083242158 -0.2695807624
C 0.6660010270 -1.0031868577 0.3391972577
C 2.0640815107 -0.7418876670 -0.2218619629
C 2.6160534453 0.6253907953 0.1921777786
C 3.9774742941 0.8696423518 -0.3574398963
O 4.8949959522 1.3862266382 0.2353345781
H -4.2432865628 -1.9763505129 0.3793024851
H -5.8560749496 -1.2760179659 0.2989183442
H -4.8566676406 -1.3498338008 -1.1528091150
H -4.2194284684 0.3104787940 1.3321053301
H -4.9515837362 0.9482681471 -0.1390629357
H -2.6118511361 1.4706520381 -0.1922131087
H -2.9256418648 0.2554875747 -1.4304301142
H -2.0107704272 -1.5093728035 0.0307562769
H -1.8129854489 -0.3490231665 1.3446210597
H -0.4018645151 -0.2170812965 -1.3564635647
H -0.2050772448 0.9375500282 -0.0358521560
H 0.6794363824 -0.8676541323 1.4224856452
H 0.4066128671 -2.0454120024 0.1416797612
H 2.7396929168 -1.5176157672 0.1436781303
H 2.0361488837 -0.8068996256 -1.3110045671
H 1.9773404019 1.4105503345 -0.2221423065
H 2.6318763045 0.7354790693 1.2774206500
H 4.1122347533 0.5417720864 -1.4047566988
28
CONF291
C -4.4418450158 0.7526465266 -0.3695187132
C -2.9416785524 0.4930527564 -0.2928195847
C -2.6235097249 -0.7017271523 0.6044593046
C -1.1245851056 -0.9290717806 0.8050911005
C -0.4069083023 -1.3521586256 -0.4760769620
C 1.0181779632 -1.8515524491 -0.2303010990
C 1.9604039263 -0.8214456730 0.3949253416
C 2.1495021746 0.4195262466 -0.4816393806
C 3.2602748490 1.2840444971 0.0044110069
O 3.2395074714 2.4904090333 0.0641964223
H -4.8442332944 0.9625882902 0.6191834216
H -4.6509852872 1.6038107518 -1.0130050063
H -4.9580380678 -0.1167680720 -0.7706469416
H -2.4407730267 1.3813632051 0.0995434141
H -2.5607753485 0.3107947694 -1.2988131510
H -3.0729627534 -1.6016195434 0.1777685397
H -3.0849494271 -0.5354588999 1.5812594233
H -0.9899702449 -1.7107966011 1.5568692887
H -0.6809205966 -0.0113315649 1.1958175069
H -0.9730224778 -2.1630159811 -0.9406769551
H -0.3874923072 -0.5216827218 -1.1814262317
H 0.9757158413 -2.7191119989 0.4318621397
H 1.4390023827 -2.1828930430 -1.1821326307
H 1.5814984319 -0.5193135767 1.3715614914
H 2.9322826365 -1.2948236021 0.5499339244
H 2.4301564821 0.0981483467 -1.4897812086
H 1.2366186245 1.0110093772 -0.5517987441
H 4.1650201367 0.7315446609 0.3196079741
28
CONF34
C -2.8959140228 1.2142711472 -0.9403818862
C -2.6840970682 0.7780865438 0.5049736183
C -2.6017272324 -0.7408206813 0.6737691658
C -1.4528152471 -1.4130476860 -0.0796749322
C -0.0741057180 -0.9485184693 0.3839621079
C 1.0485738424 -1.7053961292 -0.3188742622
C 2.4394349409 -1.2094561973 0.0757489882
C 2.7266212274 0.2071025534 -0.4282035223
C 2.0205338307 1.2751656980 0.3336946121
O 1.5689509646 2.2951632341 -0.1361909409
H -3.7528486584 0.7016123895 -1.3719215796
H -3.0758307083 2.2858259963 -0.9860169299
H -2.0194058521 0.9977893494 -1.5456019662
H -3.5201753025 1.1392772157 1.1088548911
H -1.7783231484 1.2479816135 0.8932710845
H -3.5422097026 -1.1787872399 0.3304520726
H -2.5029881522 -0.9656277030 1.7387380042
H -1.5570043667 -1.2272679265 -1.1497094512
H -1.5296911648 -2.4925299324 0.0730078138
H 0.0341159243 0.1184661977 0.1787796757
H 0.0092221437 -1.0904906953 1.4642767220
H 0.9705150700 -2.7662751005 -0.0722386657
H 0.9249759289 -1.6084494599 -1.3998214581
H 2.5420845624 -1.2365825869 1.1621578560
H 3.1839466564 -1.8831717540 -0.3497634730
H 3.7917119710 0.4182280908 -0.2891874802
H 2.5024866339 0.3041765625 -1.4917099400
H 1.9733319987 1.1023720071 1.4252060286
28
CONF150
C -4.3169208721 -0.3186611549 0.6048194084
C -3.4872874390 0.6615561428 -0.2171941927
C -1.9805996054 0.4557764449 -0.0544645311
C -1.4936446734 -0.8787261386 -0.6186898825
C 0.0299089888 -0.9619853987 -0.7189697145
C 0.7172014037 -0.9321214476 0.6455231455
C 2.2123058813 -1.2489590024 0.5734317743
C 2.9954734121 -0.2168377929 -0.2446108732
C 2.8446596641 1.1542123136 0.3185121012
O 2.6056468203 2.1550287297 -0.3143231111
H -5.3745378151 -0.0804357334 0.5198950692
H -4.1698917693 -1.3379870127 0.2585779311
H -4.0363062533 -0.2654682754 1.6544089974
H -3.7339101535 1.6799723157 0.0925529827
H -3.7523272597 0.5652634275 -1.2726437400
H -1.7284540481 0.5234190469 1.0054467230
H -1.4592667277 1.2664656063 -0.5710434574
H -1.9148526671 -1.0093388595 -1.6186145899
H -1.8555633577 -1.6974611406 0.0054540023
H 0.2959708010 -1.8912595078 -1.2283941368
H 0.3855939352 -0.1289832613 -1.3288066558
H 0.5840621374 0.0533834808 1.0967877891
H 0.2377091009 -1.6664544062 1.2966834496
H 2.6147178422 -1.2783503189 1.5876546477
H 2.3543809237 -2.2328016004 0.1246344529
H 4.0599702903 -0.4610312014 -0.1926892660
H 2.6938582632 -0.2209088054 -1.2917284955
H 2.9775560327 1.2119682627 1.4150760352
28
CONF483
C -3.7230598207 0.8613177054 0.7106890155
C -4.1423337321 -0.4909791758 0.1467523563
C -3.1360995297 -1.0903433086 -0.8380769386
C -1.7769056563 -1.4383357967 -0.2138760049
C -0.7015244655 -0.3849097593 -0.4791817331
C 0.6227365641 -0.7446869460 0.1908050631
C 1.7031221019 0.2954541254 -0.0925548593
C 3.0273272676 -0.0613778863 0.5765834679
C 4.1076700499 0.9311745420 0.3180039654
O 4.0067043067 1.9343165745 -0.3464117324
H -3.5191903286 1.5632142324 -0.0950565044
H -4.5178748955 1.2721938785 1.3294377672
H -2.8319085860 0.7670971612 1.3250091775
H -5.0988782383 -0.3757314526 -0.3691790579
H -4.2969630050 -1.1924101397 0.9700848942
H -2.9870078078 -0.3941138584 -1.6659794056
H -3.5816414038 -1.9969643247 -1.2531929675
H -1.4261070267 -2.3897314257 -0.6199864758
H -1.8960291953 -1.5726494841 0.8631258542
H -0.5459668700 -0.2975131390 -1.5571914011
H -1.0339480469 0.5882267095 -0.1164647355
H 0.4696087933 -0.8240225451 1.2694618919
H 0.9545917518 -1.7208105382 -0.1702008811
H 1.8606312900 0.3812709890 -1.1697333057
H 1.3769477301 1.2749092932 0.2635235973
H 2.9067695380 -0.1404996199 1.6603033636
H 3.3871033237 -1.0345602565 0.2318798839
H 5.0721057632 0.6825131625 0.7998992492
28
CONF277
C -4.0971312297 0.7885967293 0.3901643471
C -3.7637413994 -0.6927022177 0.2522527208
C -2.7456510098 -0.9834757066 -0.8522195202
C -1.3707178128 -0.3409074741 -0.6563126710
C -0.6430342420 -0.8411789442 0.5903415819
C 0.7665935629 -0.2640771747 0.7330093479
C 1.7636730605 -0.8524612401 -0.2645604723
C 3.1587972155 -0.2567578140 -0.0660214015
C 3.1910407497 1.1964143219 -0.3936074921
O 3.7744679450 2.0496441308 0.2319682521
H -4.9008725362 0.9280114595 1.1094111564
H -3.2350639027 1.3534960560 0.7349492647
H -4.4176717501 1.1968567179 -0.5659473483
H -4.6803563224 -1.2393298936 0.0175068041
H -3.3952825245 -1.0733774466 1.2059938358
H -3.1568769586 -0.6334005224 -1.8024343821
H -2.6174729900 -2.0661050744 -0.9281392166
H -1.4742617823 0.7441667749 -0.6027573194
H -0.7719075717 -0.5685039725 -1.5400595498
H -1.2179788932 -0.5610580930 1.4741615846
H -0.5848763183 -1.9315801504 0.5630798687
H 0.7293251053 0.8220472704 0.6107124723
H 1.1279489125 -0.4646072954 1.7443467439
H 1.8131835598 -1.9334853965 -0.1291544820
H 1.4337161285 -0.6535541849 -1.2846972181
H 3.5186541578 -0.4118595975 0.9521520883
H 3.8575344549 -0.7406099025 -0.7545161701
H 2.6274558813 1.4686606691 -1.3056237582
28
CONF356
C -3.7321785795 0.8120914620 -0.8204898573
C -3.4151472874 0.3019247514 0.5807689262
C -3.0251068122 -1.1773921670 0.6128989610
C -1.7698354703 -1.5344593339 -0.1855893219
C -0.5071684964 -0.8429421810 0.3253420172
C 0.7358073876 -1.3352090799 -0.4134812360
C 2.0352913789 -0.7207350839 0.1081823884
C 2.1502955167 0.7720138183 -0.2150306231
C 3.4035664013 1.3664634065 0.3244944050
O 4.1139298343 2.1568780608 -0.2506218559
H -4.1034790396 1.8332808125 -0.7739802753
H -2.8467903507 0.8034520676 -1.4503706534
H -4.4937791601 0.1912267689 -1.2872810970
H -4.2986248110 0.4312338204 1.2108199525
H -2.6171663814 0.9050990959 1.0164660337
H -3.8599244643 -1.7649643365 0.2228461882
H -2.8740728617 -1.4725972022 1.6542961756
H -1.9189242001 -1.2862967625 -1.2374915662
H -1.6275973742 -2.6164909144 -0.1254418121
H -0.6095672538 0.2338711425 0.1909338926
H -0.3961175329 -1.0419076188 1.3938087682
H 0.8012265599 -2.4198963581 -0.3045608813
H 0.6342789394 -1.1180429992 -1.4787481629
H 2.0953261524 -0.8633493509 1.1886932282
H 2.8792281078 -1.2430109577 -0.3465860111
H 2.0897572402 0.9516991766 -1.2893700814
H 1.3292230671 1.3082494312 0.2692264474
H 3.6632894832 1.0330326692 1.3463264753
28
CONF324
C -4.2518193383 -0.0734798982 -0.9715725101
C -3.5637936334 0.6243558815 0.1966062970
C -2.5198797421 -0.2512404609 0.8913487199
C -1.2983335931 -0.5440278920 0.0217457129
C -0.2383757250 -1.3263775182 0.7950012218
C 0.9357667490 -1.7842896610 -0.0721878607
C 1.7382036859 -0.6545633824 -0.7200855760
C 2.3764905673 0.2849596551 0.3065068816
C 3.3740976998 1.1996434738 -0.3144774441
O 3.5047996081 2.3741658103 -0.0637249437
H -4.6992590171 -1.0092364525 -0.6438469839
H -5.0378799056 0.5588408296 -1.3776705665
H -3.5456814379 -0.2887366344 -1.7689193550
H -4.3211293580 0.9102504498 0.9304269618
H -3.0869460915 1.5410565122 -0.1581840159
H -2.9850149867 -1.1929088590 1.1924362875
H -2.1881168921 0.2571402860 1.8003335805
H -0.8827770381 0.4030107017 -0.3275451520
H -1.5988183505 -1.1233335721 -0.8527824004
H 0.1255507725 -0.7206546036 1.6263464333
H -0.7072836517 -2.2151241913 1.2243661474
H 1.6079289778 -2.3851211440 0.5442725225
H 0.5526970132 -2.4281672666 -0.8667925563
H 2.5277552555 -1.1006975477 -1.3286132345
H 1.0954455104 -0.0784763212 -1.3861920396
H 1.6296957447 0.8740081753 0.8387155660
H 2.9264595699 -0.3157700889 1.0379561471
H 4.0372728679 0.7167219703 -1.0563146674
28
CONF251
C -5.2868816177 -0.5449155047 0.2292911761
C -3.8395520286 -0.8236116089 -0.1597727845
C -2.9534463056 0.4009489585 0.0620503345
C -1.5104156677 0.2080411318 -0.4081192586
C -0.7193370376 -0.7624136434 0.4678291805
C 0.7110509509 -0.9912466820 -0.0238316946
C 1.6046595856 0.2390564022 0.1254622188
C 3.0514868415 -0.0778363376 -0.2618040941
C 3.9212303353 1.1306517953 -0.2369508693
O 5.0528199828 1.1760267329 0.1834954166
H -5.9033278134 -1.4259357927 0.0679286733
H -5.3518252343 -0.2676283216 1.2791533550
H -5.6918372278 0.2713738356 -0.3649892391
H -3.7968300217 -1.1118864712 -1.2125946775
H -3.4689070748 -1.6626036363 0.4310577849
H -2.9552799795 0.6601345736 1.1234223088
H -3.3875828820 1.2433445572 -0.4823679791
H -1.0173514329 1.1815213563 -0.4006279354
H -1.5148853427 -0.1563356158 -1.4380006259
H -0.6935169764 -0.3835265739 1.4920325225
H -1.2309050896 -1.7258808343 0.4839442608
H 1.1475724686 -1.8115541267 0.5499070786
H 0.6854993467 -1.2962367414 -1.0719457556
H 1.2356582558 1.0460280574 -0.5082811181
H 1.5755613300 0.5825613304 1.1613057381
H 3.4774793751 -0.8503142399 0.3800399901
H 3.0671346514 -0.4462805236 -1.2923692851
H 3.4518827379 2.0393371715 -0.6573856783
28
CONF489
C -3.8401611477 1.1122870099 0.0775349140
C -3.8359894968 -0.2998256275 -0.4997947342
C -3.1591540469 -1.3287237415 0.4176969452
C -1.7125410456 -1.6542091071 0.0401787624
C -0.7530901018 -0.4739069204 0.1729706784
C 0.6941875860 -0.8919604187 -0.0787310717
C 1.6535394388 0.2899690767 0.0323780138
C 3.1024383836 -0.1286432448 -0.2004326755
C 4.0682057093 1.0013735810 -0.1030784528
O 3.7919897989 2.1540126120 0.1274987704
H -4.3183867734 1.8016801108 -0.6149652959
H -4.3917891179 1.1345361258 1.0150195447
H -2.8304451310 1.4641394990 0.2682942275
H -3.3373741637 -0.2958079418 -1.4709469871
H -4.8725933296 -0.5985566451 -0.6708375652
H -3.7248608296 -2.2624301723 0.3835943716
H -3.1895142821 -0.9684809459 1.4479367803
H -1.6864690410 -2.0244977251 -0.9875699396
H -1.3637588807 -2.4625312872 0.6882184297
H -1.0245982751 0.3038870034 -0.5422415748
H -0.8360907583 -0.0516567367 1.1771126506
H 0.9780841865 -1.6589640414 0.6453116208
H 0.7725454652 -1.3307463048 -1.0759342494
H 1.3831802473 1.0568788186 -0.6966501571
H 1.5690768402 0.7434631362 1.0223072711
H 3.4095452217 -0.8867474915 0.5251038128
H 3.2230385188 -0.5781782198 -1.1898286733
H 5.1226635767 0.7075472522 -0.2642539905
28
CONF353
C -3.7582479705 0.7948493740 -0.8264402383
C -3.4204322978 0.3064398164 0.5777397447
C -3.0212333211 -1.1700008529 0.6255543640
C -1.7697905639 -1.5295306213 -0.1777634334
C -0.5054425662 -0.8329433250 0.3222947279
C 0.7339062385 -1.3268626911 -0.4215159294
C 2.0377090562 -0.7226362421 0.1010883412
C 2.1514340834 0.7757113749 -0.1958870163
C 3.4229743356 1.3523439750 0.3198855571
O 4.1197058671 2.1530637993 -0.2576049747
H -4.5199017767 0.1612392237 -1.2757246852
H -4.1378138685 1.8133805867 -0.7893566316
H -2.8802979000 0.7851572041 -1.4666787794
H -4.2967002293 0.4394033063 1.2169914023
H -2.6207043355 0.9204504940 0.9946467564
H -3.8555047919 -1.7672022134 0.2491580635
H -2.8606187610 -1.4514443312 1.6693403380
H -1.9250148591 -1.2879731115 -1.2303064057
H -1.6252759723 -2.6109409353 -0.1118712274
H -0.6102510546 0.2430046091 0.1829735003
H -0.3879299927 -1.0266511399 1.3910559246
H 0.7944696489 -2.4124976492 -0.3191220452
H 0.6314038465 -1.1029935596 -1.4853073474
H 2.1063184489 -0.8847420067 1.1783331758
H 2.8772619642 -1.2376454986 -0.3699152440
H 2.0623067434 0.9770245163 -1.2643967262
H 1.3470808875 1.3063446928 0.3213475285
H 3.7111475667 0.9943061487 1.3255970664
28
CONF215
C -3.9633372353 0.5307529410 1.0160169754
C -3.8001786421 -0.1623246322 -0.3323974512
C -2.3379242164 -0.3265038910 -0.7498576871
C -1.5649014648 -1.2895643635 0.1498269134
C -0.1865881903 -1.6567089214 -0.4039089097
C 0.7733520679 -0.4775640961 -0.5721406686
C 1.0935650486 0.2327808169 0.7425995313
C 2.1888547020 1.2827974562 0.5488316957
C 3.4974338756 0.6658787982 0.1921727406
O 4.2829410734 1.0943124833 -0.6197753295
H -3.5448624278 -0.0723575247 1.8170995289
H -3.4617733894 1.4959994791 1.0097128235
H -5.0169087966 0.6941643368 1.2303307264
H -4.3156964405 0.4259031604 -1.0953989506
H -4.2777755934 -1.1441751289 -0.2954307951
H -1.8597506918 0.6543424804 -0.7427612665
H -2.3080619664 -0.7043844436 -1.7749916392
H -2.1434920553 -2.2111040187 0.2526306353
H -1.4542404647 -0.8604624877 1.1453163601
H 0.2717172458 -2.3892011940 0.2650582520
H -0.3153327357 -2.1367687746 -1.3769884620
H 1.7058493657 -0.8524630977 -1.0046501994
H 0.3563713490 0.2389579784 -1.2812887287
H 0.1998739386 0.7247073781 1.1249516515
H 1.4207600554 -0.5014143937 1.4814214153
H 1.9097014884 2.0150777101 -0.2101346574
H 2.3507649605 1.8128918644 1.4920277416
H 3.7346650817 -0.2551636950 0.7568381515
28
CONF355
C -3.7435187319 0.8631456212 0.7355652071
C -3.4203408753 0.2530239518 -0.6237453934
C -3.0235154537 -1.2227552226 -0.5460695912
C -1.7726524945 -1.5149853683 0.2849098742
C -0.5092068818 -0.8531885890 -0.2625079685
C 0.7299330779 -1.2924253250 0.5152374106
C 2.0337458910 -0.7236051624 -0.0456504102
C 2.1514335092 0.7897848846 0.1589523705
C 3.4218231382 1.3311604050 -0.3964572974
O 4.1216539499 2.1654122966 0.1272581419
H -2.8588033062 0.9087274101 1.3648147481
H -4.1232445064 1.8749054746 0.6131624830
H -4.5004918119 0.2722854990 1.2467796622
H -2.6238663679 0.8262565324 -1.1007486773
H -4.3027180318 0.3312654090 -1.2636774396
H -2.8636748646 -1.5918008018 -1.5623038009
H -3.8584449484 -1.7848589893 -0.1202340890
H -1.6238258156 -2.5976979981 0.3011419193
H -1.9320044268 -1.1954826332 1.3158286750
H -0.3905064231 -1.1216274317 -1.3148265257
H -0.6155571952 0.2297858715 -0.1996343760
H 0.6254221544 -0.9959844539 1.5609194764
H 0.7920255273 -2.3824603270 0.4879886796
H 2.8733457460 -1.2104860992 0.4543364722
H 2.0998850221 -0.9514112231 -1.1110916361
H 1.3454087094 1.2899086608 -0.3854387670
H 2.0678675551 1.0558155337 1.2137219954
H 3.7060804277 0.9102159027 -1.3785906813
28
CONF257
C -5.2787316100 -0.5400618467 -0.1284256687
C -3.8314542282 -0.7590954586 0.2972647551
C -2.9304127184 0.3826185261 -0.1702143807
C -1.4862519230 0.2660291552 0.3209596658
C -0.7192220647 -0.8799619213 -0.3371300226
C 0.7188345227 -1.0134341908 0.1676623161
C 1.6248427773 0.1308773206 -0.2840726079
C 3.0677744637 -0.0896996254 0.1770716077
C 3.9909265029 0.9601272884 -0.3364401790
O 4.8835330580 1.4810440961 0.2889132286
H -5.3512382497 -0.4775482604 -1.2119637542
H -5.9061606312 -1.3605303194 0.2111644873
H -5.6650881109 0.3852471501 0.2934198584
H -3.4791457482 -1.7044790633 -0.1179629767
H -3.7814041826 -0.8331311118 1.3860174046
H -3.3478233200 1.3236986601 0.1967954553
H -2.9377062081 0.4239774335 -1.2619392034
H -1.4863276540 0.1251053955 1.4043450525
H -0.9776195630 1.2080208096 0.1087197491
H -1.2385786168 -1.8176279406 -0.1340983612
H -0.7107626887 -0.7324160899 -1.4193588318
H 0.7127068110 -1.0633613867 1.2582747872
H 1.1317011938 -1.9533987106 -0.2049595577
H 1.5993134355 0.2036420263 -1.3730473900
H 1.2634307709 1.0745764155 0.1255750220
H 3.1354114353 -0.1387915249 1.2647631688
H 3.4283015630 -1.0404586008 -0.2282188787
H 3.8114195285 1.2503402092 -1.3882270618
28
CONF218
C -2.9994692272 1.7837210891 0.0532859180
C -2.5544939232 0.4012904587 0.5150565509
C -2.0105177603 -0.4300895695 -0.6455039578
C -1.4384800428 -1.7792926865 -0.2017813220
C -0.0667255047 -1.6651352886 0.4672771174
C 1.0551678150 -1.4358705446 -0.5449869166
C 2.3951371354 -1.0854909860 0.1061597823
C 2.3887539206 0.3155277088 0.7279131869
C 2.0763302489 1.3560156986 -0.2931769978
O 1.2778731667 2.2532453715 -0.1675324162
H -2.1510730579 2.3382431745 -0.3438840529
H -3.7538779581 1.7032112537 -0.7264070395
H -3.4189006874 2.3484320330 0.8823994167
H -3.3976365738 -0.1234532576 0.9704661541
H -1.7847796302 0.5197986734 1.2795171893
H -1.2414444705 0.1483342656 -1.1617841688
H -2.8200609598 -0.6031927255 -1.3585083466
H -1.3526064379 -2.4367699856 -1.0698897587
H -2.1421349097 -2.2418620036 0.4937659223
H -0.0932858990 -0.8458492647 1.1849383106
H 0.1419183358 -2.5826494180 1.0214186980
H 1.1755384789 -2.3410094436 -1.1442504432
H 0.7756507232 -0.6273903933 -1.2244330756
H 2.6299626989 -1.8177804329 0.8792527684
H 3.1785471834 -1.1301208331 -0.6524650179
H 1.6819481739 0.3894331091 1.5540853778
H 3.3881340424 0.5380294546 1.1108357216
H 2.6547442517 1.2573510353 -1.2312506024
28
CONF276
C -4.7069306593 -0.6764410585 -0.0957190818
C -3.6004557601 0.0860594517 -0.8164270749
C -2.3560789169 0.3097810867 0.0453191723
C -1.5782365607 -0.9762804510 0.3175092741
C -0.3700010905 -0.7712903828 1.2341645206
C 0.7183717506 0.1505051350 0.6807405917
C 1.3490010077 -0.3668728113 -0.6116065773
C 2.5410805774 0.4968827043 -1.0272471558
C 3.6686938628 0.3969184315 -0.0583823408
O 4.3646229260 1.3121248264 0.3131147163
H -4.3934672114 -1.6882749610 0.1466519922
H -4.9777478870 -0.1690728542 0.8276180932
H -5.5919433063 -0.7388783538 -0.7245721419
H -3.9900194044 1.0600494803 -1.1218875022
H -3.3182866881 -0.4549639055 -1.7224304238
H -2.6534207938 0.7599687991 0.9954373161
H -1.7079412681 1.0204864489 -0.4701512265
H -1.2567101790 -1.4118584576 -0.6297771278
H -2.2392962423 -1.6978492585 0.8005506644
H -0.7187046853 -0.3596566666 2.1842722041
H 0.0738533478 -1.7477416452 1.4431507159
H 0.3095276542 1.1478944364 0.5125767129
H 1.5017538907 0.2489046212 1.4382126702
H 1.6796388331 -1.3972504933 -0.4667765840
H 0.6117303630 -0.3557387590 -1.4135745116
H 2.9305269620 0.1367341039 -1.9840296047
H 2.2530274481 1.5421441858 -1.1482831421
H 3.8577555236 -0.6270101211 0.3148400566
28
CONF372
C -3.5387436708 1.1833142862 -0.4308097537
C -3.6364653883 -0.0994913484 0.3879669597
C -2.2743375828 -0.7334649430 0.6740339327
C -1.5893665168 -1.2702275611 -0.5818444228
C -0.3573650227 -2.1248922405 -0.2772329771
C 0.7637433582 -1.3983728366 0.4687236266
C 1.3407428894 -0.2206700854 -0.3143603506
C 2.5395241514 0.3949466852 0.4120386039
C 3.1759893055 1.4857602371 -0.3772415155
O 3.5797161730 2.5342357176 0.0666635542
H -4.5209968961 1.6374068793 -0.5389099060
H -2.8835331263 1.8992766501 0.0611351153
H -3.1477390738 0.9829677071 -1.4247336777
H -4.2669086039 -0.8188878094 -0.1398377088
H -4.1216335481 0.1274897632 1.3403653928
H -2.4143176566 -1.5587427310 1.3767079337
H -1.6375123234 0.0105372688 1.1556587074
H -1.3077762449 -0.4431373066 -1.2335037580
H -2.3031560282 -1.8898500459 -1.1307107755
H -0.6675467942 -2.9838738630 0.3224867035
H 0.0392075504 -2.5082145975 -1.2204403686
H 0.3966466557 -1.0494393270 1.4344903927
H 1.5625165046 -2.1177438791 0.6629777225
H 1.6517095537 -0.5613314140 -1.3039095220
H 0.5768097052 0.5462577040 -0.4457340895
H 2.2590199889 0.7694258326 1.3975733813
H 3.3060414050 -0.3746178173 0.5470756059
H 3.2727693354 1.2698088768 -1.4574171346
28
CONF497
C -3.5690500400 1.0837655599 0.2289355597
C -2.9407536192 -0.1824163334 0.7998948808
C -2.4687666284 -1.1598795769 -0.2776879297
C -1.3807965265 -0.6195326820 -1.2093019645
C -0.0997500607 -0.1524164019 -0.5152916218
C 0.6298165641 -1.2723107962 0.2218462895
C 1.9115190211 -0.8013713555 0.9101643348
C 2.9549737294 -0.2797635018 -0.0789820586
C 2.8229461978 1.1745842313 -0.3869843926
O 2.2347760012 1.9939242186 0.2767925133
H -2.8308815961 1.6809276984 -0.3000382206
H -4.3703861357 0.8322915111 -0.4626341448
H -3.9842779879 1.6922526714 1.0289984312
H -3.6802012733 -0.6942316617 1.4208928853
H -2.1049074365 0.0880440196 1.4469241157
H -3.3277747842 -1.4409627939 -0.8925047982
H -2.1090646571 -2.0684991827 0.2086407242
H -1.7864474905 0.2154774723 -1.7835425399
H -1.1240421810 -1.4080078916 -1.9216248515
H 0.5607303921 0.2664217287 -1.2800848843
H -0.3232704126 0.6563919748 0.1828755061
H -0.0288313257 -1.6896350279 0.9844166217
H 0.8692754384 -2.0709662418 -0.4847797299
H 1.6731258957 -0.0023215085 1.6154596699
H 2.3300233351 -1.6365173800 1.4728608595
H 3.9596186343 -0.3874449802 0.3420462267
H 2.9395532756 -0.8490615070 -1.0092267599
H 3.3633557606 1.4926958314 -1.2991581587
28
CONF632
C -2.5830028178 1.1951382379 -0.9435655172
C -2.4307134143 0.6841482836 0.4845426347
C -2.7399293556 -0.8070132157 0.6263743310
C -1.7690380120 -1.7564665208 -0.0810152011
C -0.3388679419 -1.7208873267 0.4756126559
C 0.6107342054 -0.8471542270 -0.3425063149
C 2.0004810905 -0.7789297811 0.2885036194
C 2.9344221775 0.1420287770 -0.4937617931
C 2.6107439065 1.5909150083 -0.3480898678
O 1.7683528010 2.0678456489 0.3727823799
H -1.8771179473 0.7086743149 -1.6115968425
H -3.5897357846 1.0050955739 -1.3097249950
H -2.3985571579 2.2664970470 -0.9802184529
H -3.1216318904 1.2361355473 1.1271340080
H -1.4220297537 0.8928807707 0.8443126265
H -3.7446654212 -0.9894745861 0.2356622691
H -2.7527324647 -1.0579072396 1.6901686463
H -1.7511754896 -1.5379657216 -1.1494031314
H -2.1688003933 -2.7666652596 0.0327074106
H -0.3617088317 -1.3606613437 1.5062163187
H 0.0664514438 -2.7352547861 0.4962622147
H 0.6902188021 -1.2546980092 -1.3537617828
H 0.2112999956 0.1637091783 -0.4196800316
H 1.9096151643 -0.4014987131 1.3093188734
H 2.4299616302 -1.7809207020 0.3335644107
H 3.9679646700 0.0217980750 -0.1572335334
H 2.9217569489 -0.0999093291 -1.5590779213
H 3.2403308776 2.2527606049 -0.9730924063
28
CONF268
C -5.0466312194 -0.8838111272 -0.1660040978
C -4.1502940015 0.3003750977 0.1795503199
C -2.7120413555 0.1383408032 -0.3165668553
C -1.9373618296 -0.9425856525 0.4355382939
C -0.5093320127 -1.1313250843 -0.0793723353
C 0.4101227485 0.0492416151 0.2291139014
C 1.8480470816 -0.2357376160 -0.2000212423
C 2.7725086657 0.9424316278 0.1155116840
C 4.1576178162 0.7259099054 -0.3869907771
O 5.1728331862 1.0265559730 0.1944598147
H -5.0405310008 -1.0640294173 -1.2387463230
H -4.7141599146 -1.7877394990 0.3371570487
H -6.0700898752 -0.6833776799 0.1421028964
H -4.1428465872 0.4462419888 1.2620612569
H -4.5734973687 1.2011304643 -0.2712868205
H -2.2002169249 1.0948200102 -0.1979040541
H -2.7258034119 -0.1031041105 -1.3819837296
H -2.4635318851 -1.8931272058 0.3348307811
H -1.9078350728 -0.6907484560 1.4982169059
H -0.0898775693 -2.0286670459 0.3819382075
H -0.5359179497 -1.2978300018 -1.1585291850
H 0.0540363872 0.9403829802 -0.2891330278
H 0.3851676192 0.2523157113 1.3016716595
H 2.2102848452 -1.1264345557 0.3170874201
H 1.8721631912 -0.4389996958 -1.2723463137
H 2.3967634444 1.8340683334 -0.3962750673
H 2.7987880067 1.1540980693 1.1854010080
H 4.2123119308 0.2551476451 -1.3859576755
28
CONF220
C -4.3391236541 0.4970338067 0.5028252546
C -3.5183562565 0.0875205095 -0.7152237212
C -2.0081433251 0.1382806165 -0.4744266948
C -1.5148991762 -0.9549550729 0.4719052167
C -0.0184157162 -0.8579883899 0.7724242355
C 0.8592016740 -1.1249114826 -0.4501198614
C 2.3382369028 -1.3008100038 -0.0999745945
C 2.9548414561 -0.0383749039 0.5103946589
C 2.8613578322 1.1224110322 -0.4187361954
O 2.5187186577 2.2412914590 -0.1187189157
H -4.1940369430 -0.1973688547 1.3260196095
H -4.0510861660 1.4917778378 0.8361308270
H -5.3979171772 0.5111536509 0.2551903082
H -3.7606380761 0.7606795723 -1.5410600748
H -3.7991832256 -0.9232252308 -1.0201043817
H -1.7408677035 1.1166813922 -0.0670015850
H -1.5037986877 0.0327060914 -1.4368125899
H -1.7360222505 -1.9328171905 0.0373369188
H -2.0566516540 -0.8809250715 1.4162081756
H 0.1936351595 0.1372842468 1.1682028949
H 0.2271447363 -1.5886105668 1.5469022635
H 0.5089523614 -2.0350536548 -0.9422630801
H 0.7581473663 -0.3004776176 -1.1591257954
H 2.4482821017 -2.1228043075 0.6083633996
H 2.8860560355 -1.5608466865 -1.0075810271
H 2.4931636022 0.2144283561 1.4645489777
H 4.0204921086 -0.2145507818 0.6813606135
H 3.1474816677 0.8930580302 -1.4623546580
28
CONF312
C -4.3628352884 -0.2095704304 -0.9324378336
C -3.6825004191 0.5443716638 0.2049978627
C -2.5881157026 -0.2696072652 0.8971940874
C -1.3679635829 -0.5201822970 0.0124172219
C -0.2654253205 -1.2509123917 0.7770578754
C 0.9137573481 -1.6698376554 -0.1025972199
C 1.6841833309 -0.5141307012 -0.7432069102
C 2.3650458318 0.3835163484 0.2938619858
C 3.1212209881 1.4963657761 -0.3418053196
O 4.2109080679 1.8934441320 -0.0024679104
H -4.7654838196 -1.1542029869 -0.5735993343
H -5.1817030639 0.3797807137 -1.3382504731
H -3.6637069447 -0.4163506803 -1.7381224522
H -4.4370075437 0.8144024678 0.9476260073
H -3.2533866958 1.4721402504 -0.1803540903
H -3.0042382770 -1.2265937292 1.2207203295
H -2.2668495597 0.2683024202 1.7928732345
H -0.9985172792 0.4396322921 -0.3528232766
H -1.6567496792 -1.1208646575 -0.8514218256
H 0.0844542902 -0.6248853085 1.5997943301
H -0.6913826106 -2.1539377002 1.2208189040
H 1.6058074924 -2.2610527732 0.5008161209
H 0.5410977612 -2.3141228737 -0.9016679002
H 2.4486262951 -0.9335319335 -1.4004770965
H 1.0120932265 0.0848736899 -1.3581010827
H 1.6001099669 0.8551205159 0.9174275686
H 3.0283784116 -0.1903752514 0.9426397928
H 2.5983590053 1.9778687821 -1.1890597976
28
CONF19
C -3.2496992902 1.4477263743 0.7623195228
C -2.2798140213 0.7437701909 -0.1798768995
C -2.1887435744 -0.7507529683 0.1257690998
C -1.3319289830 -1.5298525036 -0.8740814051
C 0.1544981385 -1.1680509701 -0.8548622487
C 0.8770516486 -1.6495583020 0.3998736366
C 2.3208182257 -1.1536734853 0.4750420786
C 2.4084122165 0.3449418771 0.7792276707
C 2.0356386280 1.2179904026 -0.3686398445
O 1.3858690886 2.2370533727 -0.2951876659
H -3.2976554310 2.5099463652 0.5352134937
H -4.2488983120 1.0282389151 0.6659730100
H -2.9275073510 1.3325976536 1.7949147802
H -1.2973305152 1.2119449598 -0.0873988521
H -2.6136138420 0.8803757266 -1.2114093124
H -3.1986408104 -1.1682551656 0.1063866303
H -1.8020907938 -0.8873601430 1.1369775611
H -1.7227545580 -1.3466478036 -1.8778572185
H -1.4353206202 -2.5980869943 -0.6691515152
H 0.6337160878 -1.6136304897 -1.7301624867
H 0.2591767945 -0.0852015979 -0.9445604792
H 0.3423349989 -1.3098063900 1.2877980629
H 0.8749252107 -2.7414137905 0.4101170926
H 2.8367826374 -1.6931363281 1.2700014170
H 2.8325593391 -1.3667764482 -0.4652383587
H 1.8042587082 0.6063633460 1.6495668587
H 3.4504231266 0.5952994869 1.0012578118
H 2.4513177187 0.8964395958 -1.3418662124
28
CONF325
C -4.3566886857 -0.7208470466 -0.6983962322
C -3.8035291401 0.1365507737 0.4346202463
C -2.3189364862 -0.1115656483 0.7062985823
C -1.4172409812 0.3345624678 -0.4441327570
C 0.0694356899 0.3241732310 -0.0839131603
C 0.6281303199 -1.0831398741 0.1125046176
C 2.1068674528 -1.0932495271 0.5016420867
C 3.0052144651 -0.4913369876 -0.5801303946
C 3.1891702973 0.9850239201 -0.4615224869
O 2.9939102467 1.6512925927 0.5263165471
H -4.1776394530 -1.7748824252 -0.4982927898
H -5.4286926791 -0.5675146766 -0.7977876529
H -3.8885108927 -0.4640048132 -1.6446754232
H -4.3640949228 -0.0805233217 1.3469989399
H -3.9553103301 1.1923347822 0.1981856959
H -2.1712036476 -1.1745941177 0.9037572784
H -2.0325301410 0.4379060693 1.6065886997
H -1.6969993614 1.3517207458 -0.7300210154
H -1.5754580259 -0.3104488100 -1.3100552784
H 0.6217374569 0.8223293056 -0.8855966129
H 0.2299727382 0.9084200768 0.8257660982
H 0.0667177056 -1.5849148798 0.9014278445
H 0.4917710765 -1.6546677789 -0.8089630287
H 2.2439916166 -0.5230971637 1.4228977286
H 2.4083430052 -2.1237632758 0.6922970994
H 4.0150830296 -0.9068970089 -0.5049804959
H 2.6387144449 -0.7306676928 -1.5791879047
H 3.5788018667 1.4656061900 -1.3794065703
28
CONF35
C -2.7953783526 1.3394458634 0.7835596378
C -2.6749944632 0.7097730798 -0.5995635538
C -2.6183013341 -0.8193330590 -0.5680959780
C -1.4512709933 -1.4058575517 0.2279751600
C -0.0845620981 -0.9901490518 -0.3109947071
C 1.0558403344 -1.6864295575 0.4250584220
C 2.4345757238 -1.2028790052 -0.0238388344
C 2.7180002444 0.2416415568 0.3963555890
C 1.9835477691 1.2612406646 -0.4043566043
O 1.5238931237 2.2959622505 0.0238534056
H -1.8842719809 1.1951864103 1.3586946184
H -2.9659372560 2.4098245402 0.6944146461
H -3.6268888555 0.9016513033 1.3314922166
H -1.7887342398 1.1064274138 -1.0986387393
H -3.5413466032 1.0024161888 -1.1978507138
H -2.5612621624 -1.1835076245 -1.5969536482
H -3.5507407448 -1.1927596384 -0.1376949019
H -1.5277767000 -2.4955497489 0.1930545073
H -1.5337366808 -1.1067826268 1.2740738390
H -0.0296062954 -1.2250788282 -1.3767741531
H 0.0306196778 0.0901708834 -0.2015566255
H 0.9470609276 -1.5168498305 1.4986344841
H 0.9860720177 -2.7624035433 0.2528065382
H 3.1934825005 -1.8455089007 0.4236568566
H 2.5165544236 -1.2892272706 -1.1088854685
H 2.5167714520 0.3931993741 1.4580870025
H 3.7773142914 0.4547396495 0.2212020344
H 1.9235655915 1.0362958399 -1.4857452708
28
CONF498
C -3.6125870750 1.0507776655 0.2511877702
C -2.9670808848 -0.2205645836 0.7906237119
C -2.4702467351 -1.1582588025 -0.3108252576
C -1.3796242232 -0.5757936277 -1.2134247678
C -0.1104947180 -0.1177659372 -0.4920062021
C 0.6148069764 -1.2500328522 0.2303794832
C 1.9077356705 -0.7961676132 0.9091562621
C 2.9538500627 -0.2981524354 -0.0896648024
C 2.8590865762 1.1607376523 -0.3895421081
O 2.2978668860 1.9925741256 0.2821280686
H -4.4081090193 0.8057939744 -0.4493817643
H -4.0391756434 1.6315426478 1.0657922743
H -2.8819724010 1.6726962746 -0.2595266995
H -3.7025793193 -0.7625036922 1.3904263060
H -2.1409314788 0.0450015293 1.4519427031
H -3.3187775843 -1.4316100545 -0.9434279385
H -2.1032459218 -2.0764506113 0.1514683896
H -1.7886439147 0.2726244692 -1.7652015210
H -1.1070321876 -1.3383494302 -1.9477754569
H 0.5576943119 0.3207602709 -1.2387724106
H -0.3469770313 0.6745283574 0.2207104698
H -0.0410237957 -1.6665227803 0.9959010410
H 0.8402347422 -2.0458353622 -0.4840753861
H 1.6866185653 0.0112724197 1.6106015236
H 2.3153445597 -1.6344718181 1.4751166481
H 3.9603615208 -0.4364987653 0.3176253504
H 2.9111856329 -0.8613468180 -1.0228707202
H 3.4020590709 1.4685541970 -1.3037781478
28
CONF465
C -2.8370157343 1.4602180283 -0.0351009332
C -3.1616814107 0.0791516443 0.5235647777
C -2.7603906342 -1.0620790957 -0.4134301284
C -1.2579879153 -1.1764248253 -0.6787885376
C -0.4519936054 -1.5005001460 0.5779945719
C 1.0007392019 -1.8764077693 0.2802002340
C 1.8206707953 -0.7782157215 -0.3994032666
C 1.9335632065 0.4903080038 0.4508400774
C 2.9331389469 1.4458223150 -0.1018107866
O 2.7895307437 2.6420788178 -0.1901583914
H -3.2856746353 1.5875621034 -1.0179906477
H -3.2270375114 2.2338657945 0.6223245428
H -1.7640293240 1.6076381827 -0.1269531710
H -4.2393615463 0.0148837043 0.6933342629
H -2.6732895303 -0.0474727990 1.4908834160
H -3.2722163141 -0.9227863698 -1.3690739213
H -3.1142833873 -2.0033182469 0.0147965225
H -0.9010062394 -0.2478967208 -1.1245041477
H -1.1022866525 -1.9732241030 -1.4106878353
H -0.4759827472 -0.6535948709 1.2634176179
H -0.9231953166 -2.3455737980 1.0860296583
H 1.4878590042 -2.1505951279 1.2185254801
H 1.0097277392 -2.7567403529 -0.3661857693
H 2.8240778018 -1.1655279351 -0.5885158962
H 1.3769228431 -0.5286446195 -1.3635347722
H 0.9737579769 0.9958175091 0.5576197259
H 2.2900982235 0.2141113371 1.4481326864
H 3.8751895253 0.9760576402 -0.4408697253
28
CONF379
C -4.2740602570 -0.4281672351 0.6110737964
C -3.0460504467 -0.3167493161 -0.2853233164
C -1.9383587213 0.4990869717 0.3785631067
C -0.7383230626 0.7551105278 -0.5339524856
C -0.0078149618 -0.4979469148 -1.0234543519
C 0.5002725984 -1.4278473650 0.0785707261
C 1.5872292319 -0.8264750208 0.9705597812
C 2.8690325405 -0.5172150331 0.1933161539
C 2.8973660649 0.8466265216 -0.4122995508
O 2.2884253438 1.8118299032 -0.0161568901
H -5.0503525482 -1.0151624229 0.1261954073
H -4.0156667256 -0.9093489324 1.5518233385
H -4.6760815088 0.5582946169 0.8318056329
H -3.3263924003 0.1594892713 -1.2278441517
H -2.6806365229 -1.3190872656 -0.5139830712
H -1.6132288744 -0.0043236948 1.2905496417
H -2.3478592900 1.4682833228 0.6751574466
H -0.0304935489 1.4016820483 -0.0107528863
H -1.0805559601 1.3072347217 -1.4137847750
H -0.6743601244 -1.0672362388 -1.6744070878
H 0.8378403014 -0.1710776682 -1.6362903306
H -0.3374299097 -1.7335214332 0.7060898319
H 0.8972447493 -2.3308665122 -0.3926931733
H 1.2273409578 0.0923884038 1.4350925952
H 1.8101298501 -1.5396649340 1.7651126887
H 3.7280611650 -0.5380685193 0.8716170687
H 3.0522423551 -1.2645758279 -0.5790863812
H 3.5834121382 0.9484029703 -1.2746815248
28
CONF258
C -4.4647795149 -1.0552159854 0.6589903786
C -3.2218261891 -0.8117440630 -0.1893608504
C -2.5799163517 0.5367301342 0.1309064024
C -1.4170386622 0.8983600169 -0.7954492467
C -0.2327987220 -0.0705886619 -0.7689621360
C 0.4493846564 -0.1490383580 0.5953397355
C 1.6424214553 -1.1074904510 0.6171608771
C 2.8276733110 -0.6042524902 -0.2106766136
C 3.3541700164 0.6902441905 0.3054711089
O 3.7037798965 1.6295509139 -0.3690915375
H -4.2124725043 -1.0373328939 1.7170361589
H -5.2109538071 -0.2856243057 0.4735216577
H -4.9038281140 -2.0224170229 0.4266017081
H -3.4930830243 -0.8385247167 -1.2472101070
H -2.5063696695 -1.6147092123 -0.0067826461
H -2.2442726271 0.5406935520 1.1693515305
H -3.3404120447 1.3161915120 0.0359380532
H -1.0572713836 1.8951647435 -0.5268889087
H -1.7933367593 0.9517049933 -1.8201674502
H -0.5645106760 -1.0662876960 -1.0671404230
H 0.4881693518 0.2740830877 -1.5129482991
H 0.7819421430 0.8508560470 0.8874355209
H -0.2736822400 -0.4906712397 1.3371529085
H 1.9676060637 -1.2406650860 1.6507269540
H 1.3307400657 -2.0799158476 0.2340570809
H 3.6474003299 -1.3236089686 -0.1259210190
H 2.5753694634 -0.5048049929 -1.2662571137
H 3.4248338144 0.7452341288 1.4079689065
28
CONF304
C -3.7525681730 0.2883704209 -1.2631478947
C -3.6779058437 -0.4854000397 0.0487471129
C -2.2602970004 -0.9428170523 0.3960426876
C -1.3193333158 0.2178787527 0.7155188484
C 0.0245895838 -0.2394733311 1.2855695982
C 0.8518841067 -1.1284906783 0.3533617971
C 1.1716140500 -0.5128288240 -1.0106137941
C 1.9634120178 0.7937008465 -0.9042099863
C 3.2684879596 0.5934512100 -0.2150658335
O 3.7355546929 1.3124452104 0.6361575709
H -3.3352440748 -0.3018086565 -2.0760800056
H -4.7871331669 0.5203961681 -1.5049548026
H -3.2036570613 1.2236892658 -1.1958964172
H -4.3191471472 -1.3669707429 -0.0256576974
H -4.0658002993 0.1363036834 0.8590391391
H -1.8646353606 -1.5229079241 -0.4392507682
H -2.3096490939 -1.6024991785 1.2660467631
H -1.7988169489 0.8628537040 1.4564370710
H -1.1533422469 0.8172956937 -0.1792410152
H 0.6118813006 0.6403879849 1.5579332571
H -0.1575402378 -0.7979672747 2.2073300638
H 1.7906532699 -1.3642223551 0.8625163080
H 0.3227156671 -2.0691558668 0.1930585617
H 1.7546826562 -1.2350332330 -1.5854406152
H 0.2481867204 -0.3219688427 -1.5563544642
H 2.1977662764 1.1447203066 -1.9132089010
H 1.3942503008 1.5721584754 -0.3964586465
H 3.8279169638 -0.2994143391 -0.5519808366
28
CONF606
C -3.5645304070 1.0417256222 0.9172013951
C -2.4062820720 0.5799298484 0.0400356842
C -2.5033523328 -0.9116407018 -0.2798634599
C -1.3617391732 -1.4294939567 -1.1670013057
C -0.2514208820 -2.1561155373 -0.4032584106
C 0.5328336092 -1.2989020430 0.5902850913
C 1.3608160510 -0.2079161465 -0.0836719343
C 2.1971315272 0.5710672844 0.9276301878
C 3.0057190342 1.6600911948 0.3114272534
O 3.0346120451 1.9465434125 -0.8611939743
H -4.5150965366 0.8602193128 0.4202536817
H -3.5656830471 0.5027242636 1.8621477444
H -3.4851825184 2.1055849820 1.1277809562
H -1.4656813504 0.7950811137 0.5476038146
H -2.4133458013 1.1465209594 -0.8944258962
H -3.4567243858 -1.0829253858 -0.7852009090
H -2.5274080703 -1.4804947742 0.6520033537
H -0.9380393140 -0.6020558479 -1.7377301114
H -1.7697482714 -2.1386472610 -1.8906483796
H -0.6980994856 -2.9935126081 0.1384991020
H 0.4487330151 -2.5737885803 -1.1312160002
H -0.1537414171 -0.8501759438 1.3090419499
H 1.2063018501 -1.9554518593 1.1467392564
H 2.0251946052 -0.6551096823 -0.8262411457
H 0.7114829216 0.4916467203 -0.6119480105
H 1.5602941509 1.0282175354 1.6900636474
H 2.8875994491 -0.0913563150 1.4566917881
H 3.6189555543 2.2302932398 1.0346635659
28
CONF8
C -4.2385105688 1.0265332045 -0.5061226765
C -3.0398608607 0.0868615651 -0.5676839578
C -2.3862844043 -0.0793970056 0.8030856068
C -1.2557877775 -1.1087293243 0.8205226518
C -0.0315219346 -0.6768849681 0.0149544173
C 1.1190685641 -1.6686747168 0.1597919816
C 2.3638101839 -1.2648245732 -0.6298505161
C 3.0422199361 -0.0132647437 -0.0683393904
C 2.3219054532 1.2543337906 -0.3728240683
O 2.2475687536 2.2150364012 0.3594464662
H -4.6883918294 1.1387822667 -1.4895694869
H -4.9927415770 0.6390740857 0.1752686805
H -3.9325675253 2.0092008431 -0.1536743794
H -2.3129680454 0.4853003321 -1.2771957145
H -3.3638571724 -0.8906044460 -0.9321684218
H -3.1521751732 -0.3912679661 1.5175584788
H -1.9985714978 0.8863424375 1.1372152828
H -1.6274648091 -2.0593294162 0.4311109581
H -0.9514987217 -1.2722399494 1.8572119554
H -0.2980199858 -0.5899941055 -1.0397532012
H 0.2890487487 0.3095578039 0.3617131617
H 1.3786081176 -1.7676487936 1.2161016756
H 0.7848814224 -2.6474620720 -0.1905073768
H 3.0790154091 -2.0873877253 -0.5960318502
H 2.0948857095 -1.0951812043 -1.6740751874
H 3.2026099483 -0.0958142655 1.0078122560
H 4.0215787183 0.0973660263 -0.5449236102
H 1.8742558700 1.2951838891 -1.3831596432
28
CONF401
C -4.3309912696 -0.0560869157 0.3674471527
C -3.1701588368 0.3633019143 -0.5275075649
C -2.2260919983 -0.7902307985 -0.8713041483
C -1.5166985716 -1.4231846078 0.3279392462
C -0.6571552644 -0.4633598754 1.1543490342
C 0.4500913291 0.2467060683 0.3739350241
C 1.4775922868 -0.7136822289 -0.2237476731
C 2.6459478232 0.0493287379 -0.8503374072
C 3.4490964102 0.7785672424 0.1710538173
O 3.9135017580 1.8869216821 0.0457498304
H -4.8709493621 -0.8897421419 -0.0764530098
H -3.9783367626 -0.3578302887 1.3501340412
H -5.0246623257 0.7715311120 0.4971013048
H -2.6128106588 1.1683685249 -0.0459278937
H -3.5728914442 0.7616999577 -1.4621962970
H -1.4816101315 -0.4296709592 -1.5834102101
H -2.8020193609 -1.5717128940 -1.3737155131
H -0.8924439319 -2.2405698224 -0.0375495014
H -2.2627674768 -1.8652636488 0.9906977591
H -1.2986990956 0.2928662392 1.6100056981
H -0.2016171842 -1.0325673344 1.9686437904
H 0.0130076980 0.8523044358 -0.4214122414
H 0.9650411772 0.9324914485 1.0536156105
H 1.8539115688 -1.3754144367 0.5589106386
H 1.0076626740 -1.3282285395 -0.9908872431
H 3.3297234955 -0.6626743656 -1.3218382298
H 2.3020577826 0.7483168157 -1.6141345560
H 3.6224515756 0.2097905542 1.1037539690
28
CONF452
C -2.9606867706 1.3961566774 0.0862409901
C -3.2277856623 0.0275154271 -0.5305817729
C -2.8127549113 -1.1350185475 0.3738484742
C -1.3147467624 -1.2105762254 0.6757897574
C -0.4662223846 -1.4652143278 -0.5691422204
C 0.9917959811 -1.7973773120 -0.2471379497
C 1.7618155353 -0.6827608557 0.4632677668
C 1.8993438086 0.5766875348 -0.3971775667
C 2.6322317583 1.6590721165 0.3141928861
O 3.4787640211 2.3736515773 -0.1682110894
H -1.8953607687 1.5719825770 0.2099802517
H -3.3591163982 2.1811663659 -0.5523461841
H -3.4371385698 1.4727278022 1.0612429935
H -2.7133646349 -0.0479977117 -1.4897438214
H -4.2983943170 -0.0638265985 -0.7293512690
H -3.1239259174 -2.0701031960 -0.0986192328
H -3.3537938415 -1.0490408088 1.3195865671
H -1.1518462677 -2.0274152450 1.3833724672
H -1.0011978326 -0.2875692435 1.1631011535
H -0.8927548767 -2.3106150403 -1.1144379600
H -0.5065129032 -0.6001227772 -1.2312837814
H 1.0170982889 -2.6855650299 0.3877877514
H 1.5076719886 -2.0432418614 -1.1778121800
H 1.2671798963 -0.4305839364 1.4016002795
H 2.7601967747 -1.0531421672 0.7046465090
H 2.3912099361 0.3583881835 -1.3461201947
H 0.9035551872 0.9755457500 -0.6112703463
H 2.3379705135 1.7894722457 1.3723208497
28
CONF451
C -2.9681909495 1.3908264959 -0.1044232302
C -3.2382847050 0.0315770118 0.5315415764
C -2.8094128957 -1.1443262346 -0.3487703490
C -1.3085053554 -1.2172144176 -0.6366220434
C -0.4686868868 -1.4365760196 0.6209663718
C 0.9896332387 -1.7856156766 0.3186184916
C 1.7653129499 -0.7037849035 -0.4348770992
C 1.8979026785 0.5925528404 0.3697436763
C 2.6390963137 1.6406606830 -0.3832345848
O 3.4830729786 2.3746728509 0.0737790805
H -1.9019104961 1.5699253583 -0.2144288042
H -3.4296828591 1.4484237650 -1.0878816860
H -3.3803184189 2.1845410764 0.5144080846
H -4.3108384701 -0.0600233118 0.7193761632
H -2.7346367965 -0.0266819192 1.4976037326
H -3.3427814542 -1.0782094397 -1.3004691174
H -3.1196888211 -2.0725167216 0.1377033536
H -0.9967266686 -0.3039952081 -1.1432079651
H -1.1349690232 -2.0496264897 -1.3231997519
H -0.5089178962 -0.5509646107 1.2554730051
H -0.9021783797 -2.2626522967 1.1898613880
H 1.5012598545 -1.9940567567 1.2607154776
H 1.0148821824 -2.6994635848 -0.2788295052
H 2.7650188017 -1.0850169222 -0.6527327453
H 1.2771631414 -0.4932478117 -1.3867750293
H 0.9010829350 1.0019737903 0.5573488579
H 2.3814005699 0.4161700919 1.3316074361
H 2.3540890625 1.7238531165 -1.4486307433
28
CONF402
C -4.3256182601 -0.1363616787 -0.4029343472
C -3.1729547610 0.4627444284 0.3950625018
C -2.2358673231 -0.5921752731 0.9858686267
C -1.5136533938 -1.4636961028 -0.0441550011
C -0.6412236093 -0.6995751304 -1.0431651283
C 0.4565473155 0.1608614271 -0.4156065993
C 1.4725468835 -0.6497007366 0.3881276968
C 2.6315413817 0.2307687345 0.8587978111
C 3.4512656578 0.7313455907 -0.2802732303
O 3.9122377122 1.8433073512 -0.3844868598
H -4.8740390245 -0.8546932183 0.2027324191
H -5.0142074089 0.6456056349 -0.7148097830
H -3.9634055429 -0.6420922965 -1.2940595152
H -3.5843131515 1.0506215686 1.2195404996
H -2.6083468308 1.1469867041 -0.2403412841
H -2.8196061702 -1.2501859157 1.6347637183
H -1.4990627494 -0.0893949474 1.6148843347
H -2.2526715525 -2.0353849900 -0.6083653327
H -0.8962505518 -2.1858926308 0.4931102350
H -0.1757583073 -1.4277040337 -1.7123073970
H -1.2751357079 -0.0575558185 -1.6572153589
H 0.9831618537 0.6864564947 -1.2180100893
H 0.0095557701 0.9217364792 0.2259805589
H 0.9891365992 -1.0892514010 1.2599592251
H 1.8606531612 -1.4610396676 -0.2308421566
H 2.2760955427 1.0736810452 1.4532766393
H 3.3070289380 -0.3648422494 1.4798819895
H 3.6409341889 -0.0208488196 -1.0687778136
28
CONF453
C -2.9721211120 1.3922679271 -0.1042017259
C -3.2363609763 0.0315433042 0.5309161997
C -2.8054253634 -1.1421309303 -0.3513842241
C -1.3039162668 -1.2139766790 -0.6363800309
C -0.4667626840 -1.4383425794 0.6220734090
C 0.9918486039 -1.7876505710 0.3214860609
C 1.7682408998 -0.7067939605 -0.4327066563
C 1.8886439973 0.5951231982 0.3647911389
C 2.6398344424 1.6381065641 -0.3854942068
O 3.4783847056 2.3746525726 0.0774865970
H -3.3819840160 2.1843131056 0.5182592479
H -1.9067981541 1.5733187769 -0.2201112500
H -3.4392637322 1.4507777153 -1.0849491414
H -4.3082315883 -0.0636159760 0.7207359962
H -2.7306618157 -0.0259956187 1.4959133123
H -3.3369268408 -1.0737291169 -1.3039330222
H -3.1163669018 -2.0716487281 0.1321225915
H -0.9907894910 -0.2989373657 -1.1388463859
H -1.1290763266 -2.0438193162 -1.3257167024
H -0.5073041609 -0.5549304376 1.2596045447
H -0.9019463569 -2.2660251780 1.1873480001
H 1.5024232983 -1.9947340014 1.2644474098
H 1.0180748251 -2.7022612907 -0.2747988141
H 2.7712253041 -1.0849907971 -0.6404460233
H 1.2864833433 -0.5044537581 -1.3896083934
H 0.8890993056 1.0049689550 0.5355386912
H 2.3589924821 0.4258952824 1.3343688585
H 2.3687393373 1.7140677090 -1.4550452337
28
CONF697
C -2.6036800071 0.9457381969 1.1095455031
C -2.9592434079 0.3081705970 -0.2298379596
C -1.7464088110 -0.0318567089 -1.1061009965
C -1.2121863429 -1.4579752780 -0.9455121503
C -0.5677939074 -1.7927173922 0.4015455705
C 0.5799568696 -0.8714095120 0.8155654233
C 1.7465493895 -0.8714944766 -0.1706349595
C 2.8559494854 0.0777828270 0.2774529637
C 2.5001555932 1.5199300554 0.1425100813
O 1.4890898068 1.9664095227 -0.3430503047
H -2.0619360694 0.2558990371 1.7494225351
H -1.9851320229 1.8278740173 0.9538766531
H -3.5089645211 1.2516128184 1.6302001610
H -3.5935771681 1.0111724479 -0.7753263056
H -3.5487603988 -0.5953605701 -0.0590326596
H -0.9500632372 0.6915488972 -0.9243765800
H -2.0407324013 0.0772396263 -2.1533410504
H -0.4835773393 -1.6367596215 -1.7391468630
H -2.0374117391 -2.1568566027 -1.1076628749
H -1.3321541114 -1.7688720113 1.1802605436
H -0.1936469344 -2.8187560485 0.3476716033
H 0.2092744186 0.1476852396 0.9241345075
H 0.9425304685 -1.1963911937 1.7947782299
H 2.1455055234 -1.8827236716 -0.2640493619
H 1.3952408419 -0.5484863999 -1.1511308722
H 3.1333034313 -0.1029584455 1.3187903265
H 3.7602420283 -0.0740326593 -0.3185609957
H 3.2755105063 2.2086303927 0.5291587104
28
CONF296
C -4.1488846115 0.9651923354 0.4866159118
C -3.0255440827 0.3029279829 -0.3029763750
C -2.6749448915 -1.0708164376 0.2654519110
C -1.6601774178 -1.8427878936 -0.5799574684
C -0.2886451687 -1.1763755589 -0.7085008544
C 0.4251416771 -1.0157766289 0.6329283053
C 1.8926986845 -0.6124384628 0.4870466270
C 2.0567925915 0.7973023226 -0.0887419496
C 3.4878748604 1.1778755425 -0.2385644853
O 3.9605613042 2.2600538255 0.0173874181
H -4.3825592959 1.9436176237 0.0736091197
H -5.0493160480 0.3554664874 0.4553521417
H -3.8591640109 1.0920398205 1.5275132672
H -2.1476019104 0.9501555177 -0.2781334416
H -3.3314588936 0.1936320707 -1.3461057999
H -3.5897633213 -1.6662909238 0.3235483458
H -2.2989155675 -0.9563667937 1.2833679918
H -2.0736569897 -1.9793915898 -1.5823373159
H -1.5288021669 -2.8348411576 -0.1409094566
H 0.3276050384 -1.7977500640 -1.3629452994
H -0.4064462640 -0.2053543622 -1.1896888498
H -0.0889112440 -0.2695893974 1.2398999998
H 0.3826891074 -1.9669270512 1.1679271552
H 2.3672182088 -0.6479200286 1.4697212559
H 2.4045500499 -1.3286351281 -0.1584963803
H 1.6291837541 0.8244148995 -1.0950364113
H 1.5407866120 1.5392405234 0.5225233004
H 4.1356655749 0.3714062606 -0.6293195377
28
CONF334
C -3.0475021674 1.2697048928 0.8624391410
C -3.2719731131 0.0583251796 -0.0360335367
C -2.0519426879 -0.8608909208 -0.1112793921
C -0.8816236458 -0.2255421480 -0.8588336856
C 0.2885961861 -1.1813385418 -1.0963648851
C 0.9306601193 -1.7479623901 0.1708691292
C 1.5881620127 -0.7073185823 1.0788332188
C 2.7634730227 0.0008379543 0.4008453202
C 2.3865277925 1.2443106132 -0.3329285254
O 1.4095454007 1.9237459055 -0.1263240308
H -3.9511441021 1.8723068354 0.9175035618
H -2.7853766860 0.9512357830 1.8691259550
H -2.2447938449 1.8955218436 0.4806676564
H -3.5322495198 0.3960219117 -1.0419283355
H -4.1190872511 -0.5138131446 0.3501775095
H -2.3361185557 -1.7841002970 -0.6232589752
H -1.7490100832 -1.1200498410 0.9044031353
H -0.5267627594 0.6523875779 -0.3191891615
H -1.2368378467 0.1203585674 -1.8338043989
H -0.0611650064 -2.0194217443 -1.7048823011
H 1.0474074005 -0.6497183850 -1.6779585682
H 0.1749431266 -2.2848465371 0.7452483884
H 1.6881560963 -2.4772598104 -0.1280511241
H 0.8562620156 0.0410956606 1.3850705795
H 1.9416834342 -1.2158042889 1.9766641403
H 3.4845132928 0.3325029771 1.1549371363
H 3.2953768060 -0.6718676032 -0.2726092286
H 3.1188338365 1.5576567544 -1.1009628091
28
CONF515
C -3.4710928849 1.5903964613 0.0975544938
C -3.0272270193 0.2061771175 -0.3610800605
C -1.7333746363 -0.2304279418 0.3233908793
C -1.2882158200 -1.6186330591 -0.1367410430
C -0.0117301145 -2.1222225354 0.5522493129
C 1.2673081944 -1.9280550161 -0.2669690022
C 1.6408806150 -0.4777716142 -0.5678929704
C 2.0019330929 0.3165027257 0.6840815741
C 2.3670259266 1.7310666981 0.3968591514
O 2.3412300755 2.2660220728 -0.6858035375
H -4.3918535009 1.8824770660 -0.4014190258
H -3.6445453761 1.5987394005 1.1714075503
H -2.7070705950 2.3304260548 -0.1316640155
H -2.8767447536 0.2146530951 -1.4431864992
H -3.8149535573 -0.5187942478 -0.1431022587
H -1.8911447043 -0.2441020167 1.4049402616
H -0.9596847455 0.5081864240 0.1089788345
H -1.1395636312 -1.6108008459 -1.2184804764
H -2.1043230038 -2.3149948824 0.0700038521
H 0.0895263348 -1.6412974734 1.5259528155
H -0.1116195452 -3.1939503585 0.7364311486
H 2.0947710405 -2.3993586062 0.2689311531
H 1.1512134225 -2.4552165446 -1.2163773118
H 2.5001952279 -0.4669757934 -1.2425316602
H 0.8245693392 0.0216176782 -1.0904071548
H 1.1662516291 0.3424869782 1.3883893442
H 2.8399217838 -0.1459574358 1.2116565365
H 2.6768451929 2.3070445163 1.2894749389
28
CONF6
C -3.6578964025 1.4586848872 -0.0259553196
C -2.2942622226 0.8163498333 -0.2527886308
C -2.3366611791 -0.6915918876 -0.0089561714
C -0.9956862180 -1.3852665802 -0.2542578988
C 0.0334632414 -1.0901147177 0.8357684758
C 1.3677111047 -1.8020278002 0.6163004138
C 2.2036514296 -1.2301138517 -0.5293114320
C 2.6860664435 0.1958726255 -0.2537344505
C 1.6277587044 1.2334346661 -0.4046542211
O 1.5209335800 2.2347269036 0.2674656754
H -3.6105292771 2.5294644088 -0.2088313028
H -4.3991708468 1.0266515942 -0.6947792013
H -3.9868693159 1.2997678988 0.9986201627
H -1.5650572408 1.2847116016 0.4116901103
H -1.9743823192 1.0056503860 -1.2806336447
H -3.0860409401 -1.1267603262 -0.6747873172
H -2.6589033968 -0.8810702643 1.0176684150
H -0.6137127841 -1.0753231690 -1.2284079847
H -1.1593593870 -2.4649277309 -0.2916666457
H 0.2087753269 -0.0142219197 0.9010372180
H -0.3799629633 -1.4085839584 1.7957570666
H 1.9526932251 -1.7416187080 1.5366918725
H 1.1758268758 -2.8582256105 0.4163306090
H 3.0773852469 -1.8682034268 -0.6671528879
H 1.6301699254 -1.2473727765 -1.4564804167
H 3.1445264993 0.2783228978 0.7331422405
H 3.4445838472 0.4575803913 -0.9984740540
H 0.9334344776 1.0599646294 -1.2474819844
28
CONF369
C -3.6989825568 0.9752159251 0.5936777924
C -3.7351951188 -0.5408532399 0.4366740380
C -3.0085339765 -1.0366873210 -0.8152121321
C -1.5114639291 -0.7235227979 -0.8563766805
C -0.7295944771 -1.3865069623 0.2768215609
C 0.7862569031 -1.3032706537 0.0911309789
C 1.3223213823 0.1232525645 0.2005696284
C 2.8500557275 0.1510072469 0.1035352041
C 3.4004511886 1.5216316967 0.2942495280
O 4.2962107269 2.0172540906 -0.3469163575
H -4.0804113864 1.4592228157 -0.3028784437
H -4.3144011946 1.2810249110 1.4365865529
H -2.6859541833 1.3264590365 0.7705113539
H -4.7774156590 -0.8631034334 0.3724938910
H -3.3047730886 -1.0095512833 1.3228035765
H -3.4803961112 -0.5869302886 -1.6925155357
H -3.1435496081 -2.1188618143 -0.8880802099
H -1.3682122463 0.3565784988 -0.8276884738
H -1.1173301551 -1.0816412337 -1.8108310461
H -0.9950367714 -0.9245907431 1.2289988761
H -1.0150770543 -2.4399204950 0.3268103064
H 1.2651418601 -1.9186859310 0.8559509719
H 1.0537129824 -1.7174184305 -0.8831636265
H 0.9054218862 0.7364948672 -0.5989791813
H 1.0123014778 0.5541052577 1.1547071958
H 3.2673079788 -0.4634536330 0.9074023949
H 3.1956799708 -0.2551079200 -0.8480766331
H 2.9216121110 2.0957444077 1.1090850333
28
CONF503
C -4.4332897239 -0.8108850083 -0.1499039522
C -3.3040904864 0.0408647560 -0.7187816499
C -2.3361869830 0.5512873072 0.3502699685
C -1.5852672541 -0.5408305043 1.1157024753
C -0.7398442509 -1.4770623650 0.2488201763
C 0.3300577853 -0.7856099407 -0.5979127120
C 1.3795410510 -0.0585347046 0.2406260454
C 2.5105586265 0.4845703027 -0.6367609653
C 3.4876021388 1.2955343712 0.1411047506
O 4.6886131352 1.2643324693 0.0146680850
H -5.1447307242 -1.0645581217 -0.9324702001
H -4.0509372376 -1.7366660916 0.2717340946
H -4.9620105619 -0.2687838770 0.6313016397
H -3.7379060203 0.9072772751 -1.2244330318
H -2.7591372365 -0.5337241384 -1.4692105054
H -2.9005616407 1.1439393954 1.0750271835
H -1.6166353866 1.2216544640 -0.1233079702
H -2.3049410792 -1.1480503945 1.6678016467
H -0.9438806186 -0.0591662417 1.8563541117
H -0.2519441103 -2.1994692425 0.9080538430
H -1.3964962285 -2.0401559873 -0.4164590227
H 0.8283315918 -1.5471173862 -1.2021807235
H -0.1400508960 -0.0800174189 -1.2840510775
H 0.9168038009 0.7702518168 0.7775287617
H 1.7945655095 -0.7487756224 0.9778269588
H 3.0327938770 -0.3186243013 -1.1586346793
H 2.0824294855 1.1556328293 -1.3880769971
H 3.0282952482 1.9761931487 0.8818168576
28
CONF412
C -4.6592856135 -0.0994801016 -0.2608522516
C -3.4630431041 0.5773176119 0.3993778441
C -2.2892339530 -0.3714935031 0.6501343165
C -1.6070767500 -0.8330704022 -0.6362552726
C -0.4543600803 -1.8104994556 -0.3955591614
C 0.7199605279 -1.2502286720 0.4096140900
C 1.3961894542 -0.0584980004 -0.2656153939
C 2.6661707919 0.3553871776 0.4831792355
C 3.2712145857 1.5939464423 -0.0802323091
O 4.4495526127 1.7796126794 -0.2710260206
H -4.9829803878 -0.9556916196 0.3267944937
H -5.4905215865 0.5975415106 -0.3376338331
H -4.4132195367 -0.4419617181 -1.2623371897
H -3.7829937696 0.9938573798 1.3575315785
H -3.1271376448 1.4082678302 -0.2253342616
H -2.6444504665 -1.2439744369 1.2035438320
H -1.5623859561 0.1469659774 1.2775761415
H -1.2472924989 0.0371442928 -1.1879350539
H -2.3404815968 -1.3376289093 -1.2676602647
H -0.8438094199 -2.6859421287 0.1292438798
H -0.0818837215 -2.1480809895 -1.3657897188
H 0.3821055024 -0.9611809401 1.4055569301
H 1.4547505585 -2.0488342982 0.5333820077
H 1.6532625858 -0.3229646278 -1.2932268469
H 0.7104778920 0.7888891170 -0.2959461754
H 2.4034794809 0.5843405225 1.5206767240
H 3.4061305476 -0.4461392855 0.4884018124
H 2.5408935920 2.3875647030 -0.3248132555
28
CONF381
C -4.4753876366 0.2803522891 0.1217594113
C -3.4723682573 -0.6867747099 0.7411687226
C -2.2200544741 -0.8912039606 -0.1140446360
C -1.3093755982 0.3350186985 -0.1433763186
C -0.0997818564 0.1657674304 -1.0649757232
C 0.8628387427 -0.9610665152 -0.6805761069
C 1.4392604544 -0.8645613727 0.7336415044
C 2.2306620927 0.4253519003 0.9678389255
C 3.3871868768 0.5406613644 0.0364613390
O 3.7146501206 1.5369477034 -0.5634275113
H -5.3718595606 0.3369912800 0.7347327401
H -4.0585121717 1.2806884788 0.0407509622
H -4.7608825221 -0.0549192467 -0.8729865892
H -3.9609540746 -1.6542455986 0.8788484220
H -3.1790599467 -0.3220611559 1.7281528295
H -2.5196278370 -1.1426666391 -1.1342197326
H -1.6656900150 -1.7407882391 0.2882265811
H -0.9790648584 0.5627825040 0.8713344995
H -1.8781587617 1.1953445973 -0.5006022368
H -0.4593467125 -0.0320476726 -2.0779483893
H 0.4501945808 1.1088751037 -1.1018068942
H 0.3525576288 -1.9202262908 -0.7818742118
H 1.6879593422 -0.9533284748 -1.3983980669
H 0.6347047913 -0.9232390869 1.4658994195
H 2.0987697610 -1.7195287422 0.8950431445
H 1.5989943511 1.3093496848 0.8824872725
H 2.6497509775 0.4013786174 1.9778452778
H 3.9740656360 -0.3901243486 -0.0766936405
28
CONF491
C -3.5716840105 1.2948097953 0.5790018568
C -2.2434089366 0.5839091317 0.3449090087
C -2.3945070799 -0.5804025387 -0.6319611577
C -1.0673857446 -1.2113894277 -1.0581157687
C -0.3127320783 -1.9164290911 0.0777126224
C 0.7718497573 -1.0511020324 0.7230130878
C 2.0111174632 -0.9136934751 -0.1618772658
C 2.9698384783 0.1455582830 0.3771550459
C 2.4863172402 1.5425363388 0.1763086583
O 1.5003140704 1.8778903220 -0.4340300371
H -3.4481867359 2.1126150354 1.2849703764
H -3.9558545383 1.7019675125 -0.3537585843
H -4.3086997938 0.6018778361 0.9793384817
H -1.8664692732 0.2152307586 1.3004070182
H -1.5156750684 1.2961901410 -0.0529110462
H -2.9014285525 -0.2148094806 -1.5290634892
H -3.0334292657 -1.3458237743 -0.1839073972
H -0.4378033323 -0.4322835209 -1.4911518327
H -1.2821953807 -1.9349369308 -1.8476235231
H -1.0296753124 -2.2236635581 0.8415834994
H 0.1589537318 -2.8235814534 -0.3066620128
H 0.3699441315 -0.0589835515 0.9264035318
H 1.0657219448 -1.4966228721 1.6766561792
H 2.5223331499 -1.8753591025 -0.2237132508
H 1.7100731498 -0.6262104533 -1.1704693752
H 3.1548925695 0.0022046246 1.4442079142
H 3.9409293915 0.0814360356 -0.1216504538
H 3.1354366681 2.3104501540 0.6388128772
28
CONF370
C -3.7270115052 0.9940471772 -0.4756372065
C -3.7474886072 -0.5277499641 -0.3846184754
C -2.9932704982 -1.0709140121 0.8307693774
C -1.4968176783 -0.7532509559 0.8535600959
C -0.7345384008 -1.3743090267 -0.3162502305
C 0.7842854299 -1.2965073442 -0.1536023921
C 1.3190580656 0.1329073985 -0.2241905858
C 2.8467135330 0.1592590138 -0.1330512215
C 3.4006019690 1.5311738942 -0.3037668695
O 4.3198479645 2.0029029265 0.3220977623
H -4.0929403330 1.4347375770 0.4492729327
H -2.7210016483 1.3620356661 -0.6583457304
H -4.3630852264 1.3309348342 -1.2909069003
H -3.3300537019 -0.9533050162 -1.2983135505
H -4.7856139847 -0.8619381949 -0.3152062732
H -3.1226965992 -2.1557534112 0.8624119949
H -3.4485016092 -0.6592346087 1.7351444476
H -1.0831315933 -1.1422101773 1.7874434517
H -1.3578752531 0.3277658282 0.8590944556
H -1.0204067296 -2.4255791208 -0.3987737932
H -1.0167086952 -0.8790836334 -1.2466367309
H 1.0678017696 -1.7429723886 0.8016944338
H 1.2503155256 -1.8858617562 -0.9464043303
H 1.0042291688 0.5906285931 -1.1641160349
H 0.9051361323 0.7224809707 0.5943967607
H 3.1972666348 -0.2639349463 0.8093748090
H 3.2615334548 -0.4419758376 -0.9484387738
H 2.9025527370 2.1299602649 -1.0887267664
28
CONF342
C -4.2110339801 -0.3359660587 -1.0841876664
C -3.6088359603 0.4619774718 0.0668889370
C -2.9402041575 -0.4164896001 1.1263914328
C -1.7419468291 -1.2283196042 0.6307909302
C -0.5724989765 -0.3630801111 0.1638123482
C 0.6469859757 -1.2168204989 -0.1792445552
C 1.8060454099 -0.4132035580 -0.7697173866
C 2.4399827334 0.5383175434 0.2494803213
C 3.5579414957 1.3240288747 -0.3405588323
O 4.6131584193 1.5632973839 0.1973366883
H -4.7599541199 0.3234345782 -1.7525122666
H -3.4375398480 -0.8344227303 -1.6620974165
H -4.8981406621 -1.0894552351 -0.7051898411
H -4.4041976253 1.0317753589 0.5536833446
H -2.8890430881 1.1815868108 -0.3259649949
H -3.6862262299 -1.1092653744 1.5236950036
H -2.6138516601 0.2223786281 1.9509461537
H -2.0536552617 -1.8886031280 -0.1798294305
H -1.4001916221 -1.8632038703 1.4521580322
H -0.8655002976 0.2071842867 -0.7190411412
H -0.3229762703 0.3442037838 0.9568293664
H 0.9880063890 -1.7402880111 0.7162338994
H 0.3487404749 -1.9735274566 -0.9081223534
H 2.5707504385 -1.1073534997 -1.1237024770
H 1.4504597355 0.1601192565 -1.6278379511
H 1.6922701529 1.2689312916 0.5706704039
H 2.7925477645 -0.0005102824 1.1300755915
H 3.3575997156 1.7087572739 -1.3577180697
28
CONF281
C -4.6436163127 0.2258028909 0.4698739638
C -3.7960025246 -0.3524461267 -0.6579578563
C -2.4248899559 -0.8475880360 -0.1936281168
C -1.4877318888 0.2865109216 0.2187200175
C -0.1166968572 -0.1991915535 0.6942765861
C 0.7547301041 -0.7406929012 -0.4378241712
C 2.1079948360 -1.2696490783 0.0429631774
C 3.0214230052 -0.1672453577 0.5858686744
C 3.3294603436 0.8568622702 -0.4511929687
O 3.3524125971 2.0522721591 -0.2783181844
H -4.7633788666 -0.5044798207 1.2670415473
H -4.1855890754 1.1189093010 0.8865321320
H -5.6300561494 0.4941016276 0.0991966910
H -3.6603241179 0.4037062692 -1.4345566869
H -4.3350449667 -1.1910692164 -1.1050313264
H -1.9711891771 -1.4114062023 -1.0105060595
H -2.5568522380 -1.5299201363 0.6491410240
H -1.9494596126 0.8504106192 1.0308792675
H -1.3540444291 0.9701560798 -0.6234724814
H 0.3941670068 0.6426764632 1.1654687967
H -0.2532145120 -0.9756109609 1.4502813583
H 0.2292518976 -1.5558656584 -0.9373720572
H 0.9165745125 0.0523214706 -1.1729717145
H 1.9474382399 -2.0123011701 0.8252691436
H 2.6092092300 -1.7622467077 -0.7923345169
H 2.5983134879 0.3151889301 1.4666448135
H 3.9788926295 -0.6124158020 0.8712211461
H 3.5624164890 0.4381797439 -1.4480611076
28
CONF411
C -4.6801220588 -0.1442768183 -0.2354249897
C -3.4822254894 0.5819777494 0.3666839300
C -2.2889594729 -0.3364048666 0.6386022289
C -1.6082825923 -0.8266512737 -0.6379814070
C -0.4586916616 -1.8024240690 -0.3766572936
C 0.7127567015 -1.2318338718 0.4253189477
C 1.4028761487 -0.0603466691 -0.2708637751
C 2.6622858607 0.3693691424 0.4861165181
C 3.2921235409 1.5808376573 -0.1081499569
O 4.4777845738 1.7574297531 -0.2577568043
H -5.5203416357 0.5382661404 -0.3396929144
H -4.4447971488 -0.5418059212 -1.2190539060
H -4.9854172970 -0.9684893367 0.4054917767
H -3.7904641838 1.0394746487 1.3098562131
H -3.1718108743 1.3866618891 -0.3038756971
H -2.6240595330 -1.1968195165 1.2225375523
H -1.5666287951 0.2148434707 1.2428800831
H -1.2460917484 0.0309733785 -1.2074722580
H -2.3430172790 -1.3418351823 -1.2591520710
H -0.8527212240 -2.6683618294 0.1603674855
H -0.0824533608 -2.1565666954 -1.3395031116
H 0.3682570954 -0.9181903487 1.4114581827
H 1.4412479007 -2.0320981014 0.5733818676
H 1.6745476481 -0.3530822205 -1.2869998774
H 0.7204834822 0.7878374698 -0.3344610412
H 2.3833490861 0.6383912905 1.5098052444
H 3.3941449371 -0.4381308494 0.5361373143
H 2.5744686310 2.3630788724 -0.4178892876
28
CONF488
C -3.6402444788 1.2405298100 0.5972021704
C -2.2920951635 0.5733496865 0.3485491968
C -2.4097644497 -0.5726130606 -0.6540478316
C -1.0653703037 -1.1757307191 -1.0658071655
C -0.3234369871 -1.8854268142 0.0759989988
C 0.7654042903 -1.0263444318 0.7224265618
C 2.0134500187 -0.9165624610 -0.1538364321
C 2.9914502608 0.1235028240 0.3878551667
C 2.5419386889 1.5300581603 0.1760426548
O 1.5682023393 1.8845152138 -0.4431537351
H -4.0366163784 1.6555687406 -0.3269366888
H -4.3566187122 0.5181440413 0.9826689118
H -3.5406544740 2.0465498166 1.3202589737
H -1.9041428737 0.1944852526 1.2955961432
H -1.5845379007 1.3142694445 -0.0329317451
H -2.9062215071 -0.1967192807 -1.5526846869
H -3.0448892030 -1.3559711718 -0.2323574030
H -0.4395073143 -0.3798131372 -1.4731647200
H -1.2530075764 -1.8890365263 -1.8712524574
H -1.0466869664 -2.1831644768 0.8375518823
H 0.1418011637 -2.7985010454 -0.3018505027
H 0.3737228670 -0.0267339140 0.9103586416
H 1.0453958625 -1.4640110218 1.6838363131
H 2.5046371365 -1.8890613715 -0.2087923325
H 1.7247680644 -0.6265978293 -1.1653849298
H 3.1646892459 -0.0185766430 1.4570612934
H 3.9648112025 0.0344850177 -0.1026643839
H 3.2054855114 2.2853736240 0.6388242219
28
CONF419
C -4.1192710918 -0.7504796736 -0.5102726440
C -3.4034300846 0.5222488973 -0.0719037050
C -2.3573287493 0.2832734864 1.0188054125
C -1.1981255749 -0.6339657321 0.6227012478
C -0.3297383855 -0.0562142882 -0.4929483677
C 0.8315148834 -0.9685512334 -0.8943916596
C 1.8438286230 -1.2647773551 0.2151587164
C 2.4810115260 -0.0002463234 0.7988892969
C 3.1921674822 0.7927045531 -0.2421506138
O 3.1330408951 1.9914864930 -0.3796428816
H -4.5465458585 -1.2612550230 0.3499036039
H -4.9238299554 -0.5099431816 -1.2013216371
H -3.4360983982 -1.4302965476 -1.0121639916
H -4.1427761392 1.2255020607 0.3194043408
H -2.9361879168 0.9945408883 -0.9375908049
H -2.8584056285 -0.1505585990 1.8878946856
H -1.9490541154 1.2505215837 1.3233487557
H -1.5850708917 -1.6059693061 0.3132642052
H -0.5863005860 -0.7919927574 1.5124027197
H -0.9443723537 0.1011398779 -1.3811587112
H 0.0535005997 0.9211047798 -0.1918290698
H 0.4249630539 -1.9185149217 -1.2488951472
H 1.3558023695 -0.4999580368 -1.7318473725
H 1.3607160607 -1.8186632998 1.0194285321
H 2.6293617209 -1.8993141565 -0.1997165718
H 1.7463479946 0.6271877437 1.3032055627
H 3.2369222908 -0.2962039478 1.5317848329
H 3.8252415133 0.1893115135 -0.9194105374
28
CONF282
C -4.3004245309 0.4354763406 0.6978267344
C -3.8401087274 -0.3295846622 -0.5379843634
C -2.8133947379 -1.4205002547 -0.2265141325
C -1.4964249816 -0.9244128981 0.3746144342
C -0.7021963459 -0.0269305219 -0.5727913881
C 0.6316626122 0.4366125685 0.0153416248
C 1.6579149743 -0.6877308838 0.1537515573
C 3.0090200250 -0.1455148054 0.6233700134
C 3.6385075481 0.7432081699 -0.3935952840
O 4.2293949061 1.7718421609 -0.1644968210
H -5.1054387013 1.1192484176 0.4386409650
H -4.6658351583 -0.2530274345 1.4566879361
H -3.4874741737 1.0182319539 1.1225793487
H -3.4292047244 0.3702906348 -1.2672810348
H -4.7079699376 -0.8061978010 -1.0004384981
H -2.5938475410 -1.9627787773 -1.1496196345
H -3.2647773263 -2.1295881957 0.4719488937
H -0.8975176359 -1.8013152025 0.6260581555
H -1.6943928107 -0.3854071867 1.3021956932
H -0.5193047774 -0.5608295223 -1.5082222714
H -1.2948062813 0.8585579503 -0.8077604042
H 1.0514767681 1.2124171526 -0.6317206445
H 0.4558339390 0.8894153955 0.9936868406
H 1.3063802068 -1.4253981097 0.8741947716
H 1.7816380874 -1.1855869077 -0.8099020155
H 2.9168191992 0.3879836365 1.5704403836
H 3.7014777760 -0.9801147182 0.7670373442
H 3.5443922373 0.3808246204 -1.4343916155
28
CONF371
C -3.6892022017 1.0585234847 0.3182766901
C -3.7347968107 -0.4586947728 0.4622295957
C -3.0149563771 -1.1953203585 -0.6692632531
C -1.5182407649 -0.8980148144 -0.7798036349
C -0.7306106464 -1.3194219235 0.4600092365
C 0.7840079570 -1.2705540182 0.2542094230
C 1.3129132864 0.1499556178 0.0621368521
C 2.8420883184 0.1673355887 -0.0123222156
C 3.3758326761 1.5232733023 -0.3190396488
O 4.3414867109 2.0340549443 0.1965152100
H -2.6750571151 1.4321989905 0.4311816475
H -4.0616266272 1.3589816486 -0.6587038913
H -4.3078689130 1.5274176963 1.0799339407
H -4.7790327313 -0.7808962514 0.4648597678
H -3.3043009120 -0.7466004912 1.4225025778
H -3.4915373966 -0.9289727507 -1.6161126622
H -3.1507434862 -2.2700389350 -0.5238580319
H -1.3759239691 0.1658885384 -0.9686885138
H -1.1288057055 -1.4415060086 -1.6443608549
H -0.9935069573 -0.6768940098 1.3018459776
H -1.0125331669 -2.3420507213 0.7216898893
H 1.2684213307 -1.7112913045 1.1282406884
H 1.0502181466 -1.8770752621 -0.6140280864
H 0.9064486553 0.5751338344 -0.8561274359
H 0.9862737495 0.7728258961 0.8973343623
H 3.2914884229 -0.2048207140 0.9094379152
H 3.1614424671 -0.4823506508 -0.8331131928
H 2.8118965969 2.0700030190 -1.0973002475
28
CONF407
C -3.9206086168 -0.5100849558 0.1060486856
C -3.0398587564 0.5058904088 -0.6122973444
C -1.8721559754 1.0029240022 0.2421887553
C -0.8776752552 -0.0723010325 0.6843544123
C -0.1940484280 -0.7776200806 -0.4843260968
C 0.8755818765 -1.7764636781 -0.0408412940
C 2.1390602284 -1.1420995688 0.5436227238
C 2.8495809819 -0.2380838559 -0.4663956121
C 2.3405003896 1.1663902280 -0.4738847435
O 1.8445659365 1.7450136918 0.4630736836
H -3.3756155292 -1.4296536200 0.3010482052
H -4.2678279853 -0.1066541448 1.0546853093
H -4.7884151015 -0.7526397645 -0.5028595762
H -3.6488919173 1.3712325210 -0.8853675387
H -2.6619592048 0.0711799243 -1.5390233312
H -2.2749761341 1.4847877545 1.1367194056
H -1.3262964194 1.7663860638 -0.3192035380
H -1.3803085543 -0.8099255090 1.3120223688
H -0.1203934445 0.4223821678 1.2958724681
H -0.9431960853 -1.3182550040 -1.0654753480
H 0.2517921118 -0.0248258787 -1.1410549645
H 0.4438599912 -2.4450306217 0.7068099087
H 1.1619412624 -2.3858728616 -0.9016863982
H 1.8930018607 -0.5527357968 1.4278099057
H 2.8124437260 -1.9426646998 0.8517585573
H 3.9083444262 -0.1510542444 -0.2027496742
H 2.7990212561 -0.6546500702 -1.4724128114
H 2.4910150601 1.7019329316 -1.4310551603
28
CONF481
C -4.5814994765 0.5959733833 0.4989968988
C -3.2009757170 0.7323387168 -0.1326094492
C -2.3001295581 -0.4523717546 0.2089329656
C -0.9161520614 -0.3275876674 -0.4247978825
C -0.0298826611 -1.5304633300 -0.0999443976
C 1.3963412103 -1.3987071921 -0.6555288334
C 2.4440517733 -1.0344657214 0.3993810462
C 2.2040642869 0.3183730625 1.0660052744
C 2.3619075521 1.4870721036 0.1545736842
O 2.7576105981 1.4623412026 -0.9855097252
H -4.5009084607 0.5397388447 1.5822140709
H -5.2049527790 1.4493783943 0.2440872108
H -5.0735460305 -0.3072986799 0.1453858237
H -2.7314024041 1.6552426425 0.2158323493
H -3.3034346917 0.8049096278 -1.2178006068
H -2.7723677770 -1.3745351397 -0.1377912050
H -2.1968554965 -0.5234452765 1.2944205246
H -0.4436708942 0.5950908975 -0.0811400070
H -1.0229926412 -0.2477863239 -1.5095748127
H 0.0082148041 -1.6728187566 0.9820026287
H -0.5030775411 -2.4194638646 -0.5216251204
H 1.7000745409 -2.3465916268 -1.1032670473
H 1.4136650041 -0.6491799386 -1.4486037104
H 2.4601009037 -1.8084259385 1.1686272704
H 3.4237288769 -1.0147905844 -0.0827201237
H 1.2119665202 0.3682243755 1.5176389779
H 2.9205447032 0.4687137167 1.8793300636
H 2.0898869074 2.4540537789 0.6212400059
28
CONF350
C -3.7105563171 1.0513024846 0.3205569188
C -3.7408471213 -0.4665895286 0.4606529073
C -3.0137450135 -1.1929629920 -0.6727887418
C -1.5185367123 -0.8863513289 -0.7780239992
C -0.7312622715 -1.3115979311 0.4607816060
C 0.7834291537 -1.2653118743 0.2547055505
C 1.3155520841 0.1540178235 0.0633117500
C 2.8442111157 0.1664189661 -0.0196181634
C 3.3826701957 1.5232623263 -0.3138525648
O 4.3578577634 2.0205895848 0.1970694882
H -4.3303753404 1.5121423336 1.0862088167
H -2.6995590994 1.4345297952 0.4299228420
H -4.0902085016 1.3507067070 -0.6539978508
H -4.7818248887 -0.7991243977 0.4624520081
H -3.3073502787 -0.7527648027 1.4200734984
H -3.4897282494 -0.9248973781 -1.6194484230
H -3.1431461762 -2.2692114098 -0.5330412476
H -1.3816497845 0.1794897427 -0.9596402466
H -1.1243097663 -1.4220343077 -1.6452064256
H -0.9930147452 -0.6705948647 1.3041350157
H -1.0146195804 -2.3343969756 0.7201930131
H 1.2672453875 -1.7075264148 1.1282869202
H 1.0481647402 -1.8718703704 -0.6139092703
H 0.9054028054 0.5827347212 -0.8515848387
H 0.9953589102 0.7756391296 0.9018766912
H 3.2974721492 -0.2183916379 0.8950858815
H 3.1566571936 -0.4752208247 -0.8494676629
H 2.8129671896 2.0844784067 -1.0775689511
28
CONF344
C -4.1490922341 -0.2418301844 -1.1090788979
C -3.5781205452 0.4682884633 0.1132146716
C -2.9418755171 -0.4867721448 1.1253337526
C -1.7444919194 -1.2812791936 0.6002041689
C -0.5714837147 -0.4001846480 0.1736168886
C 0.6543885236 -1.2394362312 -0.1825898552
C 1.8021709698 -0.4175554939 -0.7698614080
C 2.4233056248 0.5383784009 0.2529409967
C 3.5205305210 1.3524801339 -0.3374227634
O 4.5730432769 1.6114061523 0.1967231866
H -4.8513205203 -1.0152965615 -0.8055622808
H -4.6739729001 0.4673436535 -1.7450428425
H -3.3607955438 -0.7036058526 -1.6973500109
H -4.3852062324 1.0057483968 0.6172109779
H -2.8451856300 1.2107521281 -0.2060015495
H -3.7038228250 -1.1936572681 1.4630743545
H -2.6237561736 0.0932184957 1.9953921294
H -2.0555274232 -1.9055673432 -0.2387850453
H -1.4082123420 -1.9515996620 1.3952729484
H -0.8565917833 0.1960674736 -0.6945531515
H -0.3324529159 0.2828500973 0.9907720036
H 1.0042099927 -1.7688546776 0.7059206872
H 0.3607595895 -1.9912411268 -0.9183863433
H 2.5760231670 -1.0990533363 -1.1284139998
H 1.4373876966 0.1549921210 -1.6247048928
H 1.6626344439 1.2509364499 0.5843376625
H 2.7922846138 0.0001849084 1.1271777074
H 3.3059123280 1.7402578462 -1.3505434238
28
CONF340
C -4.1677200136 -0.2696251454 1.1288398675
C -3.5953997997 0.4628622083 -0.0795746796
C -2.9475878839 -0.4725361173 -1.1026469822
C -1.7464865949 -1.2655463629 -0.5840288144
C -0.5742377625 -0.3836284175 -0.1570703532
C 0.6501313857 -1.2233083512 0.2030491096
C 1.8072562967 -0.3996865292 0.7691583214
C 2.4293944931 0.5330071013 -0.2742941417
C 3.5418332879 1.3430262577 0.2927963298
O 4.5910729832 1.5830983022 -0.2563864661
H -4.8565725703 -1.0487114255 0.8094786607
H -3.3785670871 -0.7278409904 1.7187542483
H -4.7079101823 0.4245461365 1.7684761724
H -2.8694802050 1.2055759848 0.2546872703
H -4.4037107549 1.0020355614 -0.5797229390
H -2.6304053323 0.1218144461 -1.9632913844
H -3.7029035701 -1.1803015726 -1.4532210426
H -1.4102945056 -1.9315464885 -1.3827638017
H -2.0536310278 -1.8942181220 0.2530620135
H -0.3333766414 0.2973212381 -0.9754057147
H -0.8603280204 0.2150452008 0.7090934640
H 0.3579054995 -1.9624798791 0.9520669288
H 0.9904169464 -1.7678854502 -0.6800089186
H 1.4522380632 0.1904705304 1.6160550758
H 2.5781784797 -1.0808451367 1.1347187361
H 2.7838515794 -0.0230021614 -1.1433858568
H 1.6741066931 1.2492030141 -0.6100867553
H 3.3429173895 1.7466471598 1.3029426220
28
CONF101
C -2.9326999142 1.3998321094 0.3039830753
C -2.1984923154 0.6232656964 -0.7830868703
C -2.2009259627 -0.8896164176 -0.5518231282
C -1.5232439106 -1.3500310609 0.7413620456
C -0.0498870096 -0.9596782844 0.8688890424
C 0.8532548881 -1.6644184995 -0.1387080220
C 2.3071649062 -1.2009880508 -0.0517078991
C 2.5037255039 0.2153220229 -0.6004995049
C 1.9677747240 1.2871715504 0.2843283255
O 1.3837780850 2.2798226231 -0.0886835444
H -2.4093442187 1.3300534115 1.2540572412
H -2.9967913683 2.4514468982 0.0342062131
H -3.9416173164 1.0138532382 0.4333825010
H -1.1747039483 0.9952460424 -0.8597890681
H -2.6832740540 0.8180871467 -1.7430194458
H -1.7215117104 -1.3727022105 -1.4052689694
H -3.2383970509 -1.2328100995 -0.5279010652
H -1.6044411010 -2.4382778151 0.8005565531
H -2.0678324528 -0.9369414540 1.5920779132
H 0.0467936242 0.1214759441 0.7526455922
H 0.2872175502 -1.2082797845 1.8786540011
H 0.8117439771 -2.7401553925 0.0444331667
H 0.4874415054 -1.4857799028 -1.1506797909
H 2.6448898381 -1.2417177587 0.9855044613
H 2.9283303384 -1.8809606599 -0.6356930902
H 3.5773626492 0.4153326763 -0.6725470065
H 2.0733600091 0.3144410779 -1.5985066196
H 2.1887671902 1.1463737142 1.3588524106
28
CONF388
C -4.6757375796 0.0679367629 -0.8540726298
C -3.4329156910 0.1750824158 0.0222133008
C -2.7367243177 -1.1757844025 0.1751100909
C -1.5724563187 -1.1566557136 1.1675075891
C -0.4174068313 -0.2205023258 0.8039695734
C 0.2800193932 -0.6051281879 -0.4994958849
C 1.4579899239 0.3074741678 -0.8443395147
C 2.6358918974 0.1555318473 0.1222229185
C 3.8566869090 0.8548970896 -0.3663621817
O 4.6189322220 1.4992372686 0.3140465395
H -5.1547724998 1.0383407377 -0.9600513124
H -4.4124475475 -0.2953269995 -1.8451164717
H -5.3931869118 -0.6232211479 -0.4169680582
H -3.7161101039 0.5479237190 1.0093341721
H -2.7471383219 0.8972553781 -0.4233734104
H -2.3890696584 -1.5160645340 -0.8016679408
H -3.4691373964 -1.9060473138 0.5289312479
H -1.1819821004 -2.1730443789 1.2605310403
H -1.9573233636 -0.8622308253 2.1470758201
H -0.7830612511 0.8048891385 0.7308478974
H 0.3030858071 -0.2532942933 1.6229465308
H 0.6273367541 -1.6382049485 -0.4319731215
H -0.4384004485 -0.5483621380 -1.3182265331
H 1.8014536826 0.0695264601 -1.8532731543
H 1.1229052108 1.3463647968 -0.8420206191
H 2.3926962985 0.5124322830 1.1228309567
H 2.8992465091 -0.9047913619 0.1906468277
H 4.0479822961 0.7379580517 -1.4494049443
28
CONF604
C -3.0423255680 1.6086650492 0.0956170232
C -2.5564378700 0.2677736981 -0.4425018923
C -2.1034566441 -0.6590083465 0.6836743415
C -1.6661190069 -2.0409392003 0.1971446539
C -0.4060038483 -2.0694748100 -0.6722538995
C 0.8695945729 -1.6133338657 0.0501301949
C 1.2445076759 -0.1608271513 -0.2390600794
C 2.5137417918 0.2519238612 0.5013667130
C 2.9010376903 1.6705315417 0.2625991560
O 2.3007463528 2.4649471719 -0.4205244696
H -3.8760358690 1.4674991949 0.7801779948
H -2.2426279630 2.1170129283 0.6306651249
H -3.3699944809 2.2515426490 -0.7178328029
H -1.7323261854 0.4431167715 -1.1357808986
H -3.3630923856 -0.2136852714 -1.0003807568
H -2.9374455107 -0.7910000662 1.3783689785
H -1.2926371530 -0.1876082702 1.2407126280
H -2.4867432070 -2.4821559892 -0.3745311138
H -1.4973770052 -2.6775477778 1.0694066042
H -0.2728164255 -3.1001795300 -1.0080388107
H -0.5581727829 -1.4604698335 -1.5639766736
H 0.7436313989 -1.7503327316 1.1258699128
H 1.7029346746 -2.2458296555 -0.2632645396
H 1.4026330389 -0.0293475929 -1.3119082532
H 0.4364053887 0.5109926502 0.0505788593
H 2.3921648795 0.1254988223 1.5808340791
H 3.3595230094 -0.3758405488 0.2086664110
H 3.8287791891 1.9778426172 0.7815521994
28
CONF326
C -4.9636070626 0.1200382614 0.2980617665
C -3.6291598362 -0.6035285232 0.1583010100
C -2.5513688232 0.3140385615 -0.4163236812
C -1.2175297341 -0.3900711430 -0.6734827609
C -0.4830302764 -0.7685614267 0.6116568462
C 0.8222610912 -1.5276724586 0.3649167111
C 1.8941084260 -0.7486602539 -0.3994562958
C 2.3650931442 0.4981811052 0.3546861593
C 3.4116757242 1.2416848920 -0.3976318964
O 4.4074386051 1.7343090464 0.0777982084
H -5.7188109110 -0.5450667985 0.7098205660
H -4.8638158238 0.9778180081 0.9595958404
H -5.3093800702 0.4745022117 -0.6706131574
H -3.7529202322 -1.4675964962 -0.4985342967
H -3.3211269847 -0.9710989376 1.1383028882
H -2.3920892518 1.1528645486 0.2655904215
H -2.9167534344 0.7241952439 -1.3612312458
H -0.5904142453 0.2791140878 -1.2649504561
H -1.3950918180 -1.2901049241 -1.2666729355
H -0.2874198826 0.1326339329 1.1953988772
H -1.1275599586 -1.4101854611 1.2144927352
H 1.2331584515 -1.8328166293 1.3296795410
H 0.5963336381 -2.4355667324 -0.1982986495
H 2.7497922041 -1.4084192533 -0.5568112720
H 1.5163646817 -0.4593556445 -1.3804141509
H 1.5241630592 1.1888074060 0.4648632137
H 2.7339064047 0.2457589548 1.3498610907
H 3.2148897675 1.3336897428 -1.4820355212
28
CONF511
C -4.4123594538 -0.7260447580 -0.1701387953
C -3.2438804419 0.0765335244 -0.7311960637
C -2.2689798478 0.5558443177 0.3458613643
C -1.5682280473 -0.5593852063 1.1253450817
C -0.7505520584 -1.5324483051 0.2725871103
C 0.3491708705 -0.8880189699 -0.5732251964
C 1.4219368339 -0.1953371013 0.2648881518
C 2.5600949312 0.3282376840 -0.6148766893
C 3.6624532475 0.9281744840 0.1867684069
O 4.2684142130 1.9357011278 -0.0908948107
H -5.1243454237 -0.9564114322 -0.9593632894
H -4.0718126751 -1.6632965881 0.2617940835
H -4.9278515145 -0.1579839712 0.6013891398
H -3.6369598859 0.9560313924 -1.2474729848
H -2.7133037104 -0.5240011223 -1.4715240873
H -2.8181138935 1.1738992282 1.0611365086
H -1.5190720788 1.1961757195 -0.1225699403
H -2.3161221686 -1.1351674585 1.6736520025
H -0.9167819563 -0.0967915383 1.8694678243
H -0.2937759268 -2.2659738793 0.9416462466
H -1.4227685649 -2.0769812871 -0.3926168063
H 0.8207332572 -1.6721260196 -1.1701899235
H -0.0905852063 -0.1700759709 -1.2664490389
H 0.9831842846 0.6411646539 0.8098928852
H 1.8228515483 -0.9011221344 0.9950985564
H 3.0003490695 -0.5111807881 -1.1624188708
H 2.1986126326 1.0546295034 -1.3442662020
H 3.9197150020 0.3639117907 1.1023115517
28
CONF368
C -4.1268275541 -0.1844761348 -1.1100505257
C -3.5301247696 0.5083930439 0.1098709811
C -2.9145867617 -0.4649572358 1.1172269780
C -1.7389507390 -1.2870089405 0.5858420687
C -0.5375369917 -0.4359920551 0.1778765306
C 0.6611506381 -1.3080109350 -0.1922731949
C 1.8445544918 -0.5124431102 -0.7440688659
C 2.4669879597 0.4227782132 0.2961819484
C 3.7608215125 0.9975189684 -0.1661981764
O 4.1231058775 2.1382430029 -0.0026856016
H -4.8422697461 -0.9443525435 -0.8031132746
H -4.6422891498 0.5381479225 -1.7384742878
H -3.3535232922 -0.6598742927 -1.7073458335
H -4.3196614179 1.0667093888 0.6189623914
H -2.7791332100 1.2312649411 -0.2124677679
H -3.6930823075 -1.1535963797 1.4550578547
H -2.5792234045 0.1043458242 1.9878270769
H -2.0643886979 -1.8897185937 -0.2634039170
H -1.4267104210 -1.9781590022 1.3728811558
H -0.7999936154 0.1861534973 -0.6792574626
H -0.2767681598 0.2243079384 1.0065399489
H 0.9814634063 -1.8747171444 0.6844450236
H 0.3472210755 -2.0269566534 -0.9523217922
H 2.6078826858 -1.2129669438 -1.0890337242
H 1.5166388820 0.0744282725 -1.6040479527
H 1.7908563634 1.2315907873 0.5727175020
H 2.6958687271 -0.1561461344 1.1966664522
H 4.4190013839 0.2792050642 -0.6897065975
28
CONF395
C -4.4605772342 0.6359148671 0.2194824364
C -3.7671968756 -0.6689795626 -0.1566681414
C -2.3086132566 -0.4814089800 -0.5788270027
C -1.3980808821 -0.0668299641 0.5756445237
C 0.0629165169 0.1144435189 0.1581546853
C 0.7693159899 -1.2028324070 -0.1537771095
C 2.2212796836 -1.0151104296 -0.5950261188
C 3.0929780868 -0.3941502158 0.4978316152
C 3.1065062222 1.0982579089 0.4869318730
O 2.7989185822 1.8078006300 -0.4402888048
H -5.5117034101 0.4555634820 0.4319395733
H -4.0088388941 1.0799038667 1.1024963766
H -4.3931631015 1.3504760899 -0.5980009911
H -4.3113254995 -1.1272255680 -0.9858803639
H -3.8104733693 -1.3598457968 0.6883374432
H -2.2559039073 0.2742072993 -1.3662460463
H -1.9511302036 -1.4232104235 -0.9987386634
H -1.4558106238 -0.8171923747 1.3678839816
H -1.7547469060 0.8789976349 0.9868300956
H 0.1143149941 0.7700980941 -0.7146429964
H 0.5927210137 0.6204926003 0.9699293046
H 0.7396517735 -1.8435979461 0.7310668770
H 0.2362115350 -1.7176803212 -0.9539689901
H 2.6275166159 -1.9877411999 -0.8746164863
H 2.2532168729 -0.3679636046 -1.4740739909
H 2.7988365614 -0.7455895145 1.4876253502
H 4.1385668171 -0.6852346797 0.3557942672
H 3.4767538626 1.5521853011 1.4261725463
28
CONF377
C -4.1894224755 -0.1769926513 1.0805940608
C -3.5525603678 0.4968501923 -0.1297012332
C -2.9037470535 -0.4921968961 -1.1002577236
C -1.7327810153 -1.2897902546 -0.5232675164
C -0.5375765527 -0.4200708736 -0.1371021250
C 0.6541467876 -1.2728508837 0.2949254894
C 1.8421856846 -0.4492286650 0.7932813663
C 2.4920195657 0.3833642605 -0.3152666485
C 3.7817403040 0.9891013286 0.1181093881
O 4.1565884856 2.1077124569 -0.1414913413
H -4.8978219616 -0.9387031571 0.7619862944
H -3.4369806803 -0.6466845960 1.7082886028
H -4.7214455938 0.5559974966 1.6826067890
H -2.8131080134 1.2256003271 0.2058282988
H -4.3252318810 1.0460463117 -0.6734056152
H -2.5532032065 0.0605850157 -1.9755670680
H -3.6677052921 -1.1957819129 -1.4405060757
H -1.4099978799 -2.0109825621 -1.2784255269
H -2.0663645677 -1.8588956617 0.3457068158
H -0.2628385997 0.1990509847 -0.9926214475
H -0.8132625278 0.2435410188 0.6840641214
H 0.3331237510 -1.9358901343 1.1013498127
H 0.9723376909 -1.9004135657 -0.5401110496
H 1.5121495865 0.2141562937 1.5948272622
H 2.5907491696 -1.1276160533 1.2077105069
H 2.7329468129 -0.2768620425 -1.1545627791
H 1.8283135328 1.1680857862 -0.6777761199
H 4.4239033094 0.3171617206 0.7176201782
28
CONF12
C -4.8756776856 -0.7442900258 0.2188642341
C -3.7536741871 0.1376386037 -0.3163984889
C -2.3895802313 -0.2887462172 0.2222792762
C -1.2644059632 0.5885458256 -0.3238574755
C 0.1019953400 0.2772966342 0.2891914808
C 0.6453654705 -1.0920049821 -0.1090710374
C 2.0539232725 -1.3528935891 0.4246945330
C 3.1147468358 -0.4666981521 -0.2320322052
C 3.1149014315 0.9413163694 0.2535670910
O 3.3599028908 1.9177351452 -0.4186302869
H -5.8366896298 -0.4202851439 -0.1729495582
H -4.7172265606 -1.7803558354 -0.0718040386
H -4.9127526725 -0.6951066851 1.3048474964
H -3.9438189070 1.1764560005 -0.0366694546
H -3.7413452374 0.0874448215 -1.4075300177
H -2.2134413742 -1.3303628779 -0.0507405313
H -2.3988676354 -0.2251197039 1.3129511349
H -1.5065158155 1.6345637862 -0.1194105771
H -1.2081095805 0.4725800585 -1.4087077622
H 0.8068926280 1.0474817192 -0.0375468145
H 0.0285915358 0.3376891027 1.3776543373
H -0.0160869621 -1.8675931516 0.2788968877
H 0.6511733097 -1.1724827258 -1.1982288509
H 2.0686624266 -1.1973964414 1.5050562380
H 2.3103690702 -2.3951468572 0.2315736705
H 4.1045289538 -0.8543356329 0.0300005924
H 3.0287166579 -0.4807654391 -1.3197199279
H 2.9192899230 1.0523698000 1.3363354158
28
CONF103
C -2.9846955642 1.3518915386 -0.4430955116
C -2.2074213067 0.7080221510 0.6994838924
C -2.1812770127 -0.8205812653 0.6267646125
C -1.5147178565 -1.4002835226 -0.6234289252
C -0.0426075378 -1.0233481268 -0.7977248610
C 0.8724039648 -1.6613928443 0.2431634332
C 2.3230551372 -1.1966480437 0.1173143669
C 2.5170563632 0.2486950951 0.5856084211
C 1.9636871147 1.2672910286 -0.3498747425
O 1.3698172380 2.2709646072 -0.0248184523
H -3.9866965826 0.9327423812 -0.5063227205
H -3.0682923702 2.4240711957 -0.2814548612
H -2.4819966029 1.1953616798 -1.3939376537
H -2.6742125183 0.9919816442 1.6459869965
H -1.1909471064 1.1070369534 0.7120108730
H -3.2116954328 -1.1838437017 0.6574487021
H -1.6782398435 -1.2024781558 1.5170910194
H -2.0672289658 -1.0685915651 -1.5040148355
H -1.5950890954 -2.4893206660 -0.5801478439
H 0.2811411170 -1.3403144163 -1.7925331486
H 0.0575262301 0.0628528920 -0.7557738400
H 0.5129809794 -1.4246014883 1.2454675959
H 0.8355289975 -2.7463807558 0.1251755959
H 2.9530726027 -1.8401964613 0.7322828340
H 2.6517456051 -1.2930006625 -0.9191043900
H 2.0972439512 0.3994677117 1.5815755612
H 3.5901794901 0.4581810470 0.6335803241
H 2.1804028419 1.0739493534 -1.4170506207
28
CONF440
C -4.5718519153 -0.2360666653 -0.7822962836
C -3.3860743912 -0.7329143642 0.0368313697
C -2.3404693961 0.3632749768 0.2315098812
C -1.1947807998 -0.0435422279 1.1599302396
C -0.3485539653 -1.2200644159 0.6666337341
C 0.3106140972 -1.0183812139 -0.6994964279
C 1.2367097967 0.1946608753 -0.7965148842
C 2.4382083408 0.0925618939 0.1473752305
C 3.3330796514 1.2766672890 0.0419207119
O 4.5412756835 1.2507979184 0.0401138012
H -4.2436336411 0.0973224885 -1.7644530583
H -5.3041659876 -1.0285724797 -0.9161661606
H -5.0580056603 0.5995640724 -0.2833897516
H -2.9371893719 -1.5873397824 -0.4719711744
H -3.7376189596 -1.0729096006 1.0138441550
H -2.8323673291 1.2392799192 0.6626879491
H -1.9451461267 0.6607225629 -0.7411689508
H -1.6149537170 -0.3150344323 2.1317954540
H -0.5527550331 0.8248994862 1.3191414527
H 0.4212252003 -1.4239580608 1.4136639702
H -0.9763840156 -2.1109279877 0.6103250899
H 0.8831581766 -1.9177591445 -0.9371416526
H -0.4643073644 -0.9184428325 -1.4607080052
H 1.6017742289 0.2675798715 -1.8231468798
H 0.6801575452 1.1064840562 -0.5781346042
H 2.0812694086 0.0746357265 1.1811782854
H 3.0094281864 -0.8194204001 -0.0322189367
H 2.8026815545 2.2442970667 -0.0311363239
28
CONF572
C -3.3555222212 1.4616706262 -0.0437307324
C -3.5462510492 0.0048547082 -0.4520289112
C -2.6081667148 -0.9560184489 0.2805101541
C -1.1432755741 -0.7982447770 -0.1249444938
C -0.2550253660 -1.8189816265 0.5830261572
C 1.1991552608 -1.8242813759 0.1063922219
C 1.9575440559 -0.5211277869 0.3880306371
C 1.9893834053 0.4281308161 -0.8080213589
C 2.6607526801 1.7241519591 -0.5120839278
O 3.1289016634 2.0563622302 0.5506394090
H -3.4713431234 1.5722262205 1.0322692572
H -2.3689028232 1.8224693661 -0.3218565624
H -4.0952792800 2.0900606995 -0.5341154610
H -3.3935066283 -0.0937651571 -1.5291408396
H -4.5772339648 -0.2860524291 -0.2376542472
H -2.9226098251 -1.9809260173 0.0677352800
H -2.7039361618 -0.8000621228 1.3577056563
H -0.8099590996 0.2081988794 0.1282604359
H -1.0581872154 -0.9312677957 -1.2061699226
H -0.2779777258 -1.6275931747 1.6584679982
H -0.6709310504 -2.8167497694 0.4207220694
H 1.7079572654 -2.6444921927 0.6159085967
H 1.2267961336 -2.0393400009 -0.9633750001
H 1.5104484703 -0.0067274793 1.2406491310
H 2.9898362314 -0.7461993045 0.6631976109
H 2.5160002910 -0.0283143307 -1.6503403175
H 0.9819114923 0.6582314899 -1.1617739546
H 2.7077518845 2.4145528516 -1.3755941669
28
CONF427
C -4.4272160843 -0.8028415826 -0.9218717327
C -3.9281549698 -0.7613874143 0.5180728893
C -2.9650365204 0.3956016328 0.7914974649
C -1.6673828868 0.3686727614 -0.0190450756
C -0.8060238191 -0.8610241390 0.2639019992
C 0.5474925197 -0.8239958863 -0.4488919810
C 1.5168332728 0.1892843097 0.1579172993
C 2.8879703682 0.1200108597 -0.5194526244
C 3.8226210310 1.1601988990 -0.0074975001
O 4.9948823312 0.9968258903 0.2341851718
H -5.1871057938 -1.5726950181 -1.0343513969
H -4.8642591076 0.1537508424 -1.2000871636
H -3.6167215763 -1.0257539365 -1.6104488261
H -3.4477999224 -1.7093204518 0.7650651896
H -4.7864571149 -0.6498222368 1.1852800585
H -2.7124772533 0.3907640819 1.8549124754
H -3.4832134097 1.3347659549 0.5814321578
H -1.1044540573 1.2696206039 0.2313763387
H -1.8971856157 0.4121069483 -1.0847373869
H -0.6443799599 -0.9495069174 1.3407070192
H -1.3407556801 -1.7532345660 -0.0651833228
H 0.9998049131 -1.8162107550 -0.3895772330
H 0.3921128966 -0.5927328763 -1.5046492767
H 1.1177495795 1.1985077320 0.0511500525
H 1.6312138668 -0.0165749024 1.2239898766
H 3.3396785076 -0.8666907813 -0.4071227145
H 2.7634539171 0.3167596308 -1.5888749063
H 3.3615345380 2.1539934564 0.1426836548
28
CONF575
C -3.3547543134 1.4585176433 -0.0907354382
C -3.5639757443 -0.0136601678 -0.4286692223
C -2.6099010471 -0.9478148902 0.3174989329
C -1.1518598304 -0.7954721255 -0.1140478053
C -0.2538543381 -1.8149166715 0.5833489798
C 1.1943410980 -1.8194754284 0.0887397083
C 1.9609480672 -0.5222962027 0.3753836127
C 1.9791062201 0.4430829760 -0.8079341506
C 2.6664791738 1.7292150013 -0.5054317206
O 3.1587523590 2.0407708058 0.5526063474
H -4.1116791083 2.0678655816 -0.5789868466
H -3.4286735940 1.6156910901 0.9831628377
H -2.3789737981 1.8031080522 -0.4224358976
H -3.4429706557 -0.1598907985 -1.5044156757
H -4.5895078099 -0.2894367515 -0.1721934722
H -2.9231504289 -1.9796851291 0.1392632736
H -2.6901738367 -0.7611041806 1.3910821066
H -0.8124903015 0.2114293843 0.1288477739
H -1.0850990685 -0.9338864790 -1.1958805878
H -0.2636036332 -1.6236051829 1.6590006089
H -0.6710587232 -2.8129913194 0.4262644185
H 1.7066993942 -2.6465647180 0.5833907498
H 1.2082492529 -2.0233339472 -0.9834881379
H 1.5283096592 -0.0178044593 1.2412890529
H 2.9964574570 -0.7543685668 0.6321400356
H 2.4874394428 -0.0054562680 -1.6655934508
H 0.9676636677 0.6860206441 -1.1409873450
H 2.7016634394 2.4328640983 -1.3587414525
28
CONF590
C -3.2939734601 1.1074194764 -0.5436096584
C -3.9104947346 -0.2270273611 -0.1411804571
C -3.0090916485 -1.0867703069 0.7479511192
C -1.7177904824 -1.5630814782 0.0671782547
C -0.4985649122 -0.7058163255 0.4075474446
C 0.7542606347 -1.2075349980 -0.3088325372
C 2.0181589493 -0.4387572854 0.0736819930
C 2.0122291564 1.0044859347 -0.4237162231
C 3.3040201478 1.7096734869 -0.1945822763
O 4.2854308553 1.2432265496 0.3324568511
H -4.0226010910 1.7082881051 -1.0834860015
H -2.9793860921 1.6619919677 0.3377794798
H -2.4345197022 0.9581975717 -1.1910435684
H -4.1667230891 -0.7914465885 -1.0409317511
H -4.8403594846 -0.0357072149 0.4004227203
H -3.5896324584 -1.9585038900 1.0578165763
H -2.7577605523 -0.5277693824 1.6517556155
H -1.8617971631 -1.5762234026 -1.0151452803
H -1.5066656092 -2.5896964947 0.3754089004
H -0.6933303642 0.3295374719 0.1318259323
H -0.3306445487 -0.7384296135 1.4867337050
H 0.9011504028 -2.2608869812 -0.0601118527
H 0.6047793478 -1.1441495617 -1.3890383574
H 2.1391648105 -0.4429528518 1.1587658058
H 2.8896929512 -0.9438082705 -0.3487626588
H 1.8055738518 1.0429707297 -1.4967974405
H 1.2327033334 1.5913456804 0.0673912589
H 3.3174568363 2.7541600037 -0.5594903869
28
CONF424
C -4.0315902410 -0.4003962613 -0.9854568857
C -3.1825876739 -1.0820269107 0.0815804971
C -2.5217913885 -0.0963993456 1.0470096688
C -1.5472051769 0.8906772992 0.3986238987
C -0.3908855039 0.2566290656 -0.3772382245
C 0.5345982231 -0.5810642836 0.5028179399
C 1.6806731500 -1.2315727646 -0.2754114851
C 2.6796086505 -0.2133529472 -0.8324269542
C 3.3157427596 0.5852593725 0.2524405033
O 3.5070787396 1.7779365991 0.2319506271
H -4.5522263874 -1.1440456390 -1.5843900391
H -4.7729120555 0.2482885058 -0.5236276073
H -3.4161141546 0.1996285261 -1.6504278021
H -2.4207460303 -1.6981354771 -0.3980632050
H -3.8201005329 -1.7506973020 0.6653282440
H -2.0013048012 -0.6619675652 1.8223329229
H -3.3046415807 0.4832729907 1.5429550695
H -1.1313088916 1.5237986306 1.1871523215
H -2.1006994487 1.5435563160 -0.2788415126
H -0.7827521559 -0.3635342320 -1.1848136476
H 0.1817836904 1.0679239331 -0.8314766669
H 0.9462227111 0.0529504356 1.2930593135
H -0.0445053230 -1.3738148299 0.9785964054
H 2.2103869521 -1.9176200807 0.3881511467
H 1.2711958669 -1.8120796435 -1.1030231845
H 3.4887490625 -0.7527952430 -1.3329956632
H 2.2175870146 0.4541358450 -1.5595249029
H 3.6333194256 -0.0105258504 1.1287221213
28
CONF308
C -4.6338169795 -1.2032254252 -0.3328078126
C -4.0765161716 0.2094364072 -0.1961623865
C -2.5526551938 0.2678253518 -0.3127555390
C -1.8363752770 -0.4223481584 0.8475310162
C -0.3293163947 -0.1612730699 0.8601929412
C 0.3913081501 -0.7840046780 -0.3350828186
C 1.9143280794 -0.7451273604 -0.2053342466
C 2.4722351568 0.6806394990 -0.2217904909
C 3.9562738797 0.7024906426 -0.3444952762
O 4.7018490949 1.4407591196 0.2541599416
H -4.3020359102 -1.8338475601 0.4875249190
H -5.7210982010 -1.1818712019 -0.3251448747
H -4.3062380221 -1.6515324487 -1.2682008086
H -4.3815469327 0.6277478052 0.7659042888
H -4.5094801885 0.8358860853 -0.9797621793
H -2.2463972216 1.3165762893 -0.3390380174
H -2.2546873704 -0.1913525775 -1.2567271494
H -2.0100675356 -1.4986330215 0.8008505920
H -2.2606588197 -0.0573685354 1.7862587931
H -0.1584138303 0.9163435669 0.8778355046
H 0.0880711303 -0.5803947247 1.7789898602
H 0.0815452352 -1.8275604208 -0.4236591949
H 0.0977620802 -0.2700113169 -1.2511688761
H 2.2121115710 -1.2365522619 0.7228535259
H 2.3521335824 -1.3041758667 -1.0349341988
H 2.0859242106 1.1985897300 -1.1054445501
H 2.1739224828 1.2437960190 0.6623054333
H 4.3661211784 -0.0302238518 -1.0645344106
28
CONF279
C -4.6434758307 0.2006822147 -0.5118084738
C -3.8149337011 -0.3626647440 0.6376316029
C -2.4327860349 -0.8548555142 0.2045291476
C -1.4989114892 0.2767732582 -0.2222796032
C -0.1041988048 -0.2101614249 -0.6230365083
C 0.7467651257 -0.6365406296 0.5724358528
C 2.0870891927 -1.2552736351 0.1697704596
C 3.0173504149 -0.2625846472 -0.5330173372
C 3.3512284075 0.8970352236 0.3404017297
O 3.3868529130 2.0541032218 -0.0051097540
H -4.7364649947 -0.5343188585 -1.3082614103
H -5.6412788361 0.4587641562 -0.1649027458
H -4.1863159837 1.0973860358 -0.9214599282
H -4.3576914061 -1.2003531290 1.0820160346
H -3.6985371107 0.4014729579 1.4095987014
H -2.5463451919 -1.5582638523 -0.6236123188
H -1.9861405068 -1.3959958749 1.0406056786
H -1.4070985400 0.9990816274 0.5926825461
H -1.9385349536 0.7959354623 -1.0754345895
H -0.2035672942 -1.0482835584 -1.3163718452
H 0.4021209345 0.6024602055 -1.1476819946
H 0.9254525720 0.2336325142 1.2098342421
H 0.1972692005 -1.3724209979 1.1613404183
H 2.5839113319 -1.6306777923 1.0663866640
H 1.9076680208 -2.1007613319 -0.4953727278
H 3.9642853632 -0.7639654947 -0.7528414200
H 2.5963696699 0.0923099644 -1.4734295605
H 3.5907859510 0.6247055600 1.3853730152
28
CONF58
C -3.8452784315 -0.2755078908 0.9666272562
C -3.0105512541 0.7925720942 0.2688097463
C -2.3693979662 0.3053004194 -1.0321751082
C -1.3730192045 -0.8441196246 -0.8714233541
C -0.1470973040 -0.4712821719 -0.0398479881
C 0.8906536934 -1.5899276197 -0.0307422021
C 2.1363555321 -1.2475946906 0.7859932810
C 2.9754692725 -0.1370105891 0.1499566184
C 2.3892074945 1.2243837222 0.2960480323
O 2.4542608147 2.1106715486 -0.5255068630
H -4.3609051442 0.1512268936 1.8237084184
H -4.5896939706 -0.6801650858 0.2844929085
H -3.2208821832 -1.0915696043 1.3198203247
H -2.2374432654 1.1551857464 0.9481267976
H -3.6542209529 1.6425292124 0.0291883691
H -1.8561377332 1.1482793601 -1.5026604805
H -3.1628376240 -0.0171856749 -1.7109762370
H -1.0408281908 -1.1451031273 -1.8682183747
H -1.8698044232 -1.7045178145 -0.4207116870
H 0.2974477947 0.4382813289 -0.4539224322
H -0.4494517605 -0.2574180167 0.9867607808
H 0.4342086572 -2.4893524761 0.3879614297
H 1.1844697823 -1.8174434925 -1.0578316201
H 1.8421251055 -0.9489672788 1.7938708348
H 2.7554682737 -2.1416964106 0.8673605330
H 3.9386538502 -0.0863828165 0.6678531541
H 3.1735103871 -0.3410196954 -0.9035151109
H 1.9056038395 1.4122590108 1.2726406138
28
CONF254
C -4.2402091571 0.7484877877 0.5334690526
C -3.8983687051 -0.5852353242 -0.1215244492
C -2.4296035207 -0.9775969961 0.0457245201
C -1.4739437988 -0.0484991006 -0.7024680293
C -0.0367105351 -0.5701781803 -0.7544429774
C 0.6506808729 -0.5605928318 0.6099543817
C 2.0681394726 -1.1365408532 0.5763545801
C 3.0438028685 -0.2789191727 -0.2340950766
C 3.1777511838 1.0927566897 0.3314143689
O 3.2176069991 2.1183977815 -0.3057579204
H -5.3072490531 0.9438351234 0.4567312464
H -3.9687355510 0.7348703532 1.5867879616
H -3.7108174580 1.5660412133 0.0515019890
H -4.1406478180 -0.5385359914 -1.1857506764
H -4.5194662133 -1.3657711990 0.3243303095
H -2.2962410939 -1.9942338516 -0.3321789038
H -2.1876289876 -0.9823780640 1.1098348231
H -1.4735989734 0.9382640711 -0.2359530517
H -1.8363225870 0.0695141728 -1.7268167632
H -0.0366629330 -1.5873820168 -1.1528454853
H 0.5265867448 0.0611379041 -1.4444435705
H 0.6852679346 0.4660838832 0.9843354552
H 0.0604405016 -1.1522657783 1.3109401853
H 2.4378993974 -1.2183437004 1.6001873140
H 2.0393642274 -2.1387947110 0.1473053257
H 4.0382477044 -0.7312581017 -0.1796711660
H 2.7579121816 -0.2190011326 -1.2840099094
H 3.2559673646 1.1240108707 1.4343230820
28
CONF382
C -4.4795429587 0.2532160845 -0.1802957271
C -3.4724923558 -0.7834690263 -0.6662807644
C -2.2191672571 -0.8666081973 0.2077167861
C -1.3091689735 0.3522944908 0.0659488366
C -0.1088410025 0.3217967611 1.0142991910
C 0.8530561557 -0.8521148374 0.8133594189
C 1.4522856750 -0.9640397877 -0.5902486161
C 2.2519053407 0.2768257487 -0.9977587287
C 3.3875615924 0.5318226252 -0.0684766230
O 3.7032638544 1.6071772082 0.3827527983
H -4.0660112450 1.2569659344 -0.2305472436
H -5.3752223965 0.2259950282 -0.7964401239
H -4.7655642681 0.0503320036 0.8495147447
H -3.1810171544 -0.5525866561 -1.6933610530
H -3.9570993035 -1.7626367019 -0.6730846524
H -1.6644508838 -1.7634130834 -0.0733231964
H -2.5178976922 -0.9743008150 1.2531419197
H -1.8815383684 1.2547241567 0.2880299082
H -0.9689850316 0.4298083392 -0.9679637339
H 0.4439959349 1.2585987720 0.9141487789
H -0.4786446927 0.2795131673 2.0419238087
H 1.6667521327 -0.7430725384 1.5359102940
H 0.3355650150 -1.7845098266 1.0444374530
H 2.1112989778 -1.8341512907 -0.6140224528
H 0.6594266886 -1.1280851041 -1.3192723019
H 2.6931417064 0.1017429524 -1.9831068737
H 1.6206156370 1.1629780909 -1.0602519166
H 3.9698795461 -0.3707730764 0.1958835648
28
CONF485
C -4.1775986902 0.3087824957 -0.1262590687
C -3.2002136645 -0.8019365962 -0.4939181371
C -2.1719218865 -1.0886391329 0.6018252519
C -1.2456364317 0.0815872379 0.9412746570
C -0.4052961135 0.6008539226 -0.2274674034
C 0.5062228608 -0.4391071387 -0.8833401328
C 1.5042327643 -1.1115279964 0.0620210338
C 2.4640976752 -0.1175326583 0.7223039268
C 3.2759633137 0.6194780665 -0.2855524687
O 3.5030675787 1.8061105849 -0.2790333994
H -4.6630944242 0.0896412202 0.8224238329
H -3.6685819403 1.2652191342 -0.0401645116
H -4.9455807941 0.4030811427 -0.8906995346
H -2.6905078502 -0.5436118910 -1.4234603928
H -3.7641840029 -1.7199144782 -0.6771704222
H -1.5720767730 -1.9484739777 0.2981267370
H -2.7061476674 -1.3711777685 1.5126957177
H -0.5848650742 -0.2318739754 1.7516017681
H -1.8434234092 0.9110904206 1.3235263843
H -1.0686175609 1.0009499012 -0.9967133470
H 0.2015632924 1.4373150970 0.1270178407
H -0.1072764191 -1.2141824690 -1.3456324753
H 1.0605534871 0.0594075004 -1.6837381780
H 0.9690517713 -1.6542659877 0.8405372413
H 2.0849387181 -1.8372675267 -0.5108544396
H 1.9375349411 0.5911967119 1.3611277911
H 3.1729696865 -0.6741844030 1.3419044633
H 3.6950109123 -0.0186046028 -1.0859572873
28
CONF689
C -3.0325320414 0.0818424273 1.5557962850
C -3.4850367195 -0.4064633788 0.1830461322
C -2.6372812462 0.1429600836 -0.9739395610
C -1.5728026911 -0.8275258297 -1.4933494570
C -0.4776476784 -1.2036559464 -0.4951006069
C 0.4190381017 -0.0293752422 -0.1097961741
C 1.5470607150 -0.4677720948 0.8228619762
C 2.4310450882 0.7042515383 1.2442229441
C 3.3186344075 1.2153512577 0.1604558355
O 3.4647506758 0.7310455449 -0.9354233379
H -2.0117146703 -0.2219636880 1.7670795899
H -3.0852820138 1.1674852420 1.6060080557
H -3.6775979646 -0.3261476129 2.3311123404
H -4.5235524795 -0.0990560740 0.0411083772
H -3.4661133187 -1.4978209405 0.1594761097
H -2.1672636042 1.0789294821 -0.6699062612
H -3.2947556719 0.3753230577 -1.8149709003
H -1.1010363844 -0.3818577179 -2.3732119954
H -2.0723160795 -1.7432532821 -1.8200995558
H -0.9278622067 -1.6327901784 0.4011814770
H 0.1440752990 -1.9795735660 -0.9493603533
H 0.8497647749 0.4052368317 -1.0147076490
H -0.1738341224 0.7422753534 0.3843917959
H 1.1191963586 -0.9331870541 1.7124899147
H 2.1642715701 -1.2111512356 0.3140850804
H 1.8280091685 1.5391356283 1.6085900919
H 3.0909276355 0.4123452241 2.0663163305
H 3.8897821448 2.1203878131 0.4433012638
28
CONF294
C -4.6475168028 -1.0552324845 -0.5448742737
C -4.0785195429 0.2367522677 0.0312507369
C -2.5567294273 0.3295657699 -0.0899538532
C -1.8241262537 -0.7055173837 0.7629140448
C -0.3159901299 -0.4609301124 0.8366527929
C 0.3805502117 -0.6367203705 -0.5122343900
C 1.9055640654 -0.6531834050 -0.4036883670
C 2.4753133497 0.6988214555 0.0360293981
C 3.9593064668 0.6709155005 0.1461648786
O 4.7103662230 1.5454643685 -0.2160080818
H -4.3075597699 -1.9175576570 0.0221555867
H -5.7343793833 -1.0357862097 -0.5125327383
H -4.3374835428 -1.1778430661 -1.5803106051
H -4.3631660760 0.3206070906 1.0827132810
H -4.5215704828 1.0835677275 -0.4983996587
H -2.2438058708 1.3283294770 0.2246219423
H -2.2793182192 0.2076480608 -1.1382660610
H -2.0027267724 -1.7051582387 0.3636137845
H -2.2316839517 -0.6742226733 1.7765124310
H -0.1429821905 0.5474404504 1.2169515075
H 0.1145883491 -1.1676865409 1.5501163427
H 0.0590515324 -1.5837428251 -0.9507767020
H 0.0800733074 0.1628060677 -1.1903706129
H 2.2115100825 -1.4229432530 0.3073270803
H 2.3250322054 -0.9109124510 -1.3781838017
H 2.1707914794 1.4978585528 -0.6414295360
H 2.1015282977 0.9358396849 1.0361034230
H 4.3645943454 -0.2455878334 0.6137392409
28
CONF448
C -3.4345376981 1.2376219846 0.3944894618
C -3.6037567395 -0.2511839754 0.1115818106
C -2.2973428572 -1.0374472459 0.2311956804
C -1.2802725044 -0.6755021358 -0.8502301020
C -0.0872457303 -1.6319110943 -0.8968042356
C 0.7519097913 -1.6780815176 0.3824559810
C 1.3439242917 -0.3357685798 0.8144157946
C 2.2887487804 0.2602876597 -0.2331062487
C 3.0632688701 1.4124387832 0.3053873920
O 3.2715328716 2.4532051674 -0.2715400931
H -2.9964870100 1.3903451083 1.3786249637
H -2.7915466960 1.7053666260 -0.3463477547
H -4.3996081419 1.7383640636 0.3684826783
H -4.0154728796 -0.3845502933 -0.8915634284
H -4.3249018690 -0.6638916812 0.8212073862
H -2.5248700670 -2.1036777501 0.1545070464
H -1.8696461080 -0.8580893876 1.2191537329
H -0.9272365683 0.3449784359 -0.7004557991
H -1.7787342860 -0.7080578000 -1.8225854440
H -0.4574580956 -2.6413198237 -1.0923084381
H 0.5501434475 -1.3535801516 -1.7379041914
H 0.1372641426 -2.0603775844 1.1986141000
H 1.5669461476 -2.3887719719 0.2280633697
H 0.5430683350 0.3741689862 1.0227354764
H 1.8982646654 -0.4882873783 1.7430232476
H 3.0246804106 -0.4997404680 -0.5139341238
H 1.7553382445 0.5714493018 -1.1312057681
H 3.4709477346 1.2536087748 1.3212588720
28
CONF480
C -4.5481396204 0.5615715418 -0.5642611425
C -3.1706545524 0.7545249007 0.0590905532
C -2.2807058541 -0.4708495914 -0.1363949875
C -0.8968341270 -0.2823786404 0.4814013764
C -0.0174453713 -1.5206428574 0.3040568221
C 1.4143020514 -1.3219046494 0.8237024210
C 2.4488476827 -1.0797401327 -0.2784216656
C 2.1827762127 0.1710989129 -1.1133663603
C 2.3050846651 1.4508242359 -0.3591602754
O 2.6994828534 1.5840739888 0.7738231144
H -4.4607082147 0.3840587831 -1.6337810938
H -5.0519688981 -0.2917650233 -0.1159714093
H -5.1642907469 1.4441218331 -0.4111238723
H -3.2797369609 0.9527014376 1.1278425843
H -2.6878648845 1.6261065417 -0.3892238195
H -2.1762858708 -0.6716366927 -1.2054261515
H -2.7617225701 -1.3409373152 0.3165127653
H -1.0044085895 -0.0734326734 1.5487946699
H -0.4172975008 0.5899175882 0.0321035081
H -0.4877899159 -2.3467695060 0.8410166135
H 0.0096215845 -1.8008147356 -0.7509816694
H 1.4367472297 -0.4852095732 1.5240493256
H 1.7272175062 -2.2104703900 1.3748775924
H 3.4310372572 -0.9833094790 0.1890435873
H 2.4726234828 -1.9459114425 -0.9419601088
H 2.9033398891 0.2333365226 -1.9346581265
H 1.1943064929 0.1381540172 -1.5743226691
H 2.0057524468 2.3417712510 -0.9453476802
28
CONF567
C -3.8176710614 0.6523366435 -1.0684542573
C -3.4566555696 0.5102559967 0.4062427791
C -2.5657549821 -0.6990392482 0.6952261112
C -1.1608101271 -0.5711136551 0.1075584958
C -0.2776825366 -1.7477178448 0.5173614489
C 1.0923281895 -1.7747225798 -0.1639440576
C 2.0013648189 -0.5954383107 0.2036775752
C 1.9517486870 0.5457240716 -0.8100724894
C 2.8026982630 1.7068378678 -0.4283866387
O 3.4666801674 1.8024250008 0.5760814031
H -4.5165046442 1.4739025740 -1.2071436402
H -2.9356449679 0.8538776510 -1.6700552401
H -4.2840892274 -0.2599329196 -1.4336594971
H -4.3777807704 0.4083587095 0.9848807502
H -2.9536649130 1.4184155187 0.7466864988
H -3.0435036535 -1.5990384394 0.3008932739
H -2.4812959213 -0.8194234262 1.7783213819
H -0.7202386266 0.3622766826 0.4628409784
H -1.2222605126 -0.5344426629 -0.9812108249
H -0.1376504512 -1.7311487794 1.6008896489
H -0.7995980707 -2.6758250396 0.2705905655
H 1.5859289321 -2.7026218849 0.1304823393
H 0.9565438074 -1.8082620955 -1.2464755659
H 1.7314603986 -0.2104224305 1.1887428139
H 3.0367357286 -0.9353270704 0.2720637257
H 2.2863945913 0.2045074752 -1.7933359835
H 0.9339845199 0.9194017658 -0.9419249789
H 2.7911132677 2.5345115924 -1.1627704970
28
CONF431
C -4.3992701205 -0.3440700765 -1.0090045306
C -3.9280925625 -0.8710099888 0.3418135596
C -2.9221075447 0.0515939581 1.0333568831
C -1.6106865020 0.2708667682 0.2757503819
C -0.7867458505 -1.0054016481 0.1151575296
C 0.5406582406 -0.7786860071 -0.6111855727
C 1.5564488195 0.0040224521 0.2193613951
C 2.8896860388 0.1410508048 -0.5202861019
C 3.9281920734 0.8132321129 0.3089864607
O 4.7207888363 1.6356617409 -0.0842831913
H -5.1910401728 -0.9764445611 -1.4038546917
H -4.7862481495 0.6677102618 -0.9083268784
H -3.5861438806 -0.3325897997 -1.7297372971
H -3.4950411257 -1.8642821010 0.2145070397
H -4.7941667133 -0.9774341132 0.9996775384
H -2.6919241131 -0.3630633636 2.0180323494
H -3.3959594526 1.0241200856 1.1893563707
H -1.0286099346 1.0090800766 0.8305842838
H -1.8200534137 0.6928860455 -0.7083301371
H -0.5920616485 -1.4357318349 1.1001489836
H -1.3653792220 -1.7328320346 -0.4560458532
H 0.9704682607 -1.7510409226 -0.8616676674
H 0.3515143070 -0.2490294767 -1.5470576659
H 1.1696998165 0.9999558363 0.4375787734
H 1.7195073619 -0.5099645795 1.1686022811
H 3.2752230263 -0.8585416088 -0.7446536123
H 2.7690669173 0.6762386160 -1.4632129920
H 3.9429499807 0.4944225989 1.3677100030
28
CONF434
C -3.5248123116 1.1823090080 -0.3478824392
C -3.6518997185 -0.3206991078 -0.1234733033
C -2.3197497071 -1.0617579777 -0.2481101825
C -1.3279967979 -0.6979465667 0.8559001778
C -0.1041961393 -1.6155479592 0.8890390466
C 0.7481964138 -1.6027592972 -0.3821782107
C 1.2920484802 -0.2304440241 -0.7813087744
C 2.2286999190 0.3601709306 0.2766767315
C 2.7561331126 1.6913282981 -0.1282405038
O 3.8945261611 2.0720592139 0.0110473796
H -4.5069652008 1.6492165212 -0.3364269585
H -2.9229562658 1.6436815178 0.4305056278
H -3.0614459046 1.3847147205 -1.3111950177
H -4.3471813645 -0.7289523280 -0.8608984254
H -4.0767308731 -0.5042675024 0.8661894199
H -1.8859555628 -0.8413285650 -1.2250070372
H -2.5140283428 -2.1363718267 -0.2046815189
H -1.8360868603 -0.7757972925 1.8206321767
H -1.0090500220 0.3377243238 0.7390283538
H 0.5161971305 -1.3410769491 1.7444270393
H -0.4421307825 -2.6413542867 1.0546475792
H 1.5884691133 -2.2850049783 -0.2354365375
H 0.1568635873 -1.9908144434 -1.2126227339
H 1.8429758789 -0.3383189567 -1.7179506025
H 0.4670912010 0.4593119123 -0.9614385536
H 1.6667502544 0.5244324667 1.2005222316
H 3.0574114840 -0.3147560398 0.4955371525
H 2.0034472672 2.3604211558 -0.5854021896
28
CONF423
C -4.1498528684 -0.7970606221 0.4954992844
C -3.4486348004 0.4782175155 0.0407606267
C -2.3716091637 0.2310180186 -1.0176500703
C -1.1890515358 -0.6239795970 -0.5563997185
C -0.3267549992 0.0659125377 0.4987759450
C 0.8134557900 -0.8114758407 1.0203804809
C 1.8163730765 -1.2756891960 -0.0388056088
C 2.4870594042 -0.1147295689 -0.7789397113
C 3.2302165925 0.7794510230 0.1517912711
O 3.2097670533 1.9872879874 0.1377772642
H -4.9774535928 -0.5550369800 1.1581482632
H -4.5431959217 -1.3400225077 -0.3610412971
H -3.4671236554 -1.4485360217 1.0340326960
H -3.0129357637 0.9821502875 0.9050294910
H -4.1921189254 1.1553635866 -0.3868641031
H -1.9915311232 1.1975805525 -1.3585549203
H -2.8393988467 -0.2593657643 -1.8750866823
H -0.5784674440 -0.8432746310 -1.4338904539
H -1.5522387532 -1.5742176949 -0.1624887829
H 0.0766263742 0.9960871914 0.0926776586
H -0.9503671920 0.3345556697 1.3533876330
H 1.3492747616 -0.2489172568 1.7899518098
H 0.3850732628 -1.6966673427 1.4961247511
H 2.5849908997 -1.8724011655 0.4561886517
H 1.3167804273 -1.9151530112 -0.7657377925
H 3.2278810979 -0.5236099442 -1.4718485157
H 1.7680183457 0.4675527076 -1.3548039056
H 3.8489708898 0.2457726547 0.8974026569
28
CONF586
C -3.3253210361 1.0257609104 0.6854342719
C -3.9286455226 -0.2509275382 0.1120303108
C -3.0014538480 -0.9976057558 -0.8496098116
C -1.7207605871 -1.5371678026 -0.1958570463
C -0.4973461159 -0.6538933210 -0.4420427283
C 0.7392951276 -1.2003767395 0.2699148261
C 2.0195695617 -0.4396640250 -0.0716974404
C 2.0186191113 0.9965830623 0.4453015409
C 3.3243387485 1.6881812312 0.2567362278
O 4.3155844766 1.2124578831 -0.2428742279
H -3.0011755764 1.6861698173 -0.1158701468
H -4.0646412046 1.5526766194 1.2847314007
H -2.4739305740 0.8005823873 1.3215637254
H -4.8456542534 0.0032212488 -0.4255688447
H -4.2046210447 -0.9187313403 0.9315878907
H -2.7357014816 -0.3367847755 -1.6773638994
H -3.5666147817 -1.8319266903 -1.2706804907
H -1.5056301648 -2.5328489450 -0.5903684920
H -1.8796092618 -1.6458345103 0.8789454707
H -0.3019407540 -0.6095779210 -1.5161907008
H -0.7056495953 0.3585003166 -0.0984642599
H 0.5781142047 -1.1731075519 1.3499241529
H 0.8735125288 -2.2463407829 -0.0146911834
H 2.8756803737 -0.9608426876 0.3625686117
H 2.1649971035 -0.4295523514 -1.1537767800
H 1.2574585959 1.5990708805 -0.0553805942
H 1.7880543569 1.0229529865 1.5139462059
H 3.3387605998 2.7313099937 0.6254280492
28
CONF433
C -4.4220106297 -0.4766735447 1.0160110036
C -3.9209524367 -0.8530696728 -0.3737581603
C -2.9245080122 0.1544198846 -0.9509822342
C -1.6295387765 0.3203443001 -0.1527152784
C -0.8010483076 -0.9609078494 -0.0761903466
C 0.5480934333 -0.7651351742 0.6189082142
C 1.5523457769 0.0136686953 -0.2293316379
C 2.9088037732 0.1190966700 0.4725730725
C 3.9335184927 0.7818953507 -0.3810385645
O 4.7441181670 1.5954505141 -0.0065905079
H -3.6193917177 -0.5228369396 1.7471066738
H -4.8288201183 0.5322935265 1.0127564980
H -5.2058245660 -1.1614508128 1.3313917072
H -4.7752099110 -0.9085111873 -1.0530345540
H -3.4682477692 -1.8451829781 -0.3417435258
H -3.4156671204 1.1286196270 -1.0169884655
H -2.6705914246 -0.1546282248 -1.9681339365
H -1.8600014286 0.6632122525 0.8571477899
H -1.0418694326 1.1028286101 -0.6364578152
H -1.3632229784 -1.7146704976 0.4770279479
H -0.6351714032 -1.3445498208 -1.0854502118
H 0.3922987874 -0.2464517692 1.5669226295
H 0.9702701240 -1.7470338084 0.8435680197
H 1.6800453807 -0.4898181339 -1.1895616041
H 1.1756676013 1.0183929278 -0.4239077126
H 2.8254812939 0.6459948361 1.4240487579
H 3.2823213529 -0.8898169144 0.6739297683
H 3.9180130033 0.4652246488 -1.4404166730
28
CONF630
C -3.4127685026 0.6251275894 1.1020740235
C -3.1259624355 0.3881711301 -0.3763699654
C -3.0298203290 -1.0938003465 -0.7407368389
C -1.8459179660 -1.8479424725 -0.1293527966
C -0.4712527625 -1.3602522758 -0.6103296829
C 0.2249721077 -0.4242267008 0.3770582373
C 1.5816069009 0.0376264982 -0.1487042423
C 2.2850813521 0.9696209700 0.8337586964
C 3.6158198058 1.4383835742 0.3558055624
O 4.1378891864 1.1451258504 -0.6927960330
H -4.3297880656 0.1183984652 1.3949977639
H -2.6029430796 0.2532030188 1.7238263559
H -3.5315384740 1.6884154478 1.2976480549
H -2.2046665356 0.8973860057 -0.6617971605
H -3.9347722031 0.8297891146 -0.9642301634
H -2.9690901862 -1.1807179968 -1.8286654010
H -3.9521682206 -1.5885487447 -0.4251366076
H -1.9623034803 -2.8998019153 -0.3993874501
H -1.8941371719 -1.7910560629 0.9585933015
H 0.1799009303 -2.2221346958 -0.7730306200
H -0.5803858808 -0.8557307173 -1.5725840868
H -0.4001673520 0.4482803585 0.5684797678
H 0.3655811217 -0.9486857719 1.3251635685
H 2.2204060625 -0.8276082947 -0.3388722711
H 1.4528239389 0.5565572248 -1.1010446265
H 1.6769717968 1.8562957029 1.0323817144
H 2.4382935029 0.4753365416 1.7968730874
H 4.1346589221 2.1150375253 1.0609307153
28
CONF417
C -4.6434711914 -0.1248821225 -0.2510274890
C -3.4223376417 0.6651652242 0.2069498661
C -2.2433943061 -0.2213856644 0.6136944038
C -1.5834333091 -0.9203417341 -0.5734125407
C -0.4671344735 -1.8844060128 -0.1657680220
C 0.7199228562 -1.2431845795 0.5560099589
C 1.4564365446 -0.2120720517 -0.2969360147
C 2.7093416381 0.3031479355 0.4158982611
C 3.4951407226 1.2423864420 -0.4316017365
O 4.0291654533 2.2568745777 -0.0508498781
H -4.9567221625 -0.8212556661 0.5237118581
H -5.4705736545 0.5493041011 -0.4608509492
H -4.4303744019 -0.6886816916 -1.1552562722
H -3.7067793482 1.2800440873 1.0642279374
H -3.1060795654 1.3403845284 -0.5915977222
H -2.5889598663 -0.9716138949 1.3287995969
H -1.5052640851 0.4045472638 1.1181963277
H -1.1943849840 -0.1696118370 -1.2635108073
H -2.3369022988 -1.4973726236 -1.1123655288
H -0.8916673425 -2.6504384863 0.4872848879
H -0.1001407096 -2.3854017602 -1.0647754915
H 0.3811601313 -0.7758881630 1.4812872435
H 1.4179578811 -2.0380064015 0.8285873668
H 1.7406160184 -0.6656996668 -1.2484779660
H 0.7985785268 0.6316394541 -0.5078728133
H 2.4600040413 0.7835641938 1.3631526762
H 3.3697800433 -0.5433499992 0.6291561424
H 3.5771269036 0.9399150821 -1.4920494761
28
CONF447
C -3.4119109526 1.2427562287 0.4006707385
C -3.5948493292 -0.2437593774 0.1140591387
C -2.2947311521 -1.0413686321 0.2267292195
C -1.2774273458 -0.6822978289 -0.8553250710
C -0.0848752336 -1.6393453976 -0.8998998558
C 0.7526859489 -1.6845766605 0.3805553093
C 1.3367337657 -0.3402325488 0.8170455025
C 2.2792160914 0.2640357403 -0.2272398493
C 3.0430403338 1.4236538948 0.3105048997
O 3.2667841779 2.4542074536 -0.2789624985
H -2.7712807223 1.7082530096 -0.3436383948
H -4.3731699489 1.7511155280 0.3841861470
H -2.9648400306 1.3885341042 1.3817958474
H -4.0114981919 -0.3706218743 -0.8878734597
H -4.3167376138 -0.6524412647 0.8252533554
H -2.5308156044 -2.1054453320 0.1459753144
H -1.8632781423 -0.8697304871 1.2143872644
H -0.9236175019 0.3381823072 -0.7074653608
H -1.7759531696 -0.7162367005 -1.8275856438
H -0.4549214961 -2.6488600445 -1.0951555319
H 0.5534496475 -1.3616167844 -1.7405156601
H 0.1390592188 -2.0726362167 1.1947864731
H 1.5717535474 -2.3904168577 0.2253125322
H 0.5313521401 0.3642640605 1.0263663416
H 1.8905485680 -0.4922384743 1.7460541395
H 3.0233395657 -0.4889664514 -0.5060100039
H 1.7469357503 0.5688226325 -1.1282958149
H 3.4277799503 1.2809950164 1.3376790408
28
CONF584
C -4.1172658329 0.9916373520 -0.4054125604
C -2.8463743582 0.1515023888 -0.4684194991
C -2.8011234458 -0.8791608737 0.6570479052
C -1.6225510333 -1.8515554761 0.5726424369
C -0.2447082428 -1.1912428401 0.7296121610
C 0.4533272606 -0.9330655418 -0.6061094370
C 1.8588489151 -0.3547314328 -0.4451636392
C 1.8609506792 1.0713084593 0.0994625554
C 3.2173605459 1.6864015111 0.1271435857
O 4.2454088897 1.1573936208 -0.2216158124
H -4.1315208946 1.7261255545 -1.2071647154
H -4.9979797244 0.3604748189 -0.5027716229
H -4.1789171836 1.5180991084 0.5446297850
H -1.9821215111 0.8128648043 -0.3960279680
H -2.8001913482 -0.3631945025 -1.4308134155
H -3.7262825430 -1.4610517588 0.6322970282
H -2.7693220029 -0.3593120833 1.6177582447
H -1.6643020173 -2.3840435999 -0.3797670085
H -1.7532989218 -2.5932913297 1.3634896503
H -0.3614588975 -0.2570313613 1.2798366315
H 0.3996657047 -1.8423772500 1.3245716295
H 0.5329701325 -1.8810135546 -1.1426981812
H -0.1456373187 -0.2590056062 -1.2191115524
H 2.4474046988 -0.9913009748 0.2187906652
H 2.3605049106 -0.3517909322 -1.4154128623
H 1.2210598541 1.7187688473 -0.5064363597
H 1.4702831303 1.1081522952 1.1190151696
H 3.2333140347 2.7245172801 0.5097852046
28
CONF654
C -3.7628350367 1.1397947897 0.5051555245
C -2.9431266842 0.1554722077 -0.3214779108
C -2.2477089021 -0.8779645836 0.5622494355
C -1.4667783234 -1.9283641876 -0.2280979679
C -0.2446606351 -1.4089778664 -0.9907877657
C 0.8676411355 -0.8507305956 -0.0913755208
C 0.8673927056 0.6761453457 -0.0050709736
C 1.9600578597 1.1920136835 0.9298401909
C 3.3408585529 1.0673259578 0.3811671514
O 3.6412777688 0.7085734634 -0.7315583619
H -4.2519945876 1.8665289080 -0.1389591105
H -4.5275807714 0.6157843080 1.0744094968
H -3.1246809938 1.6754990671 1.2046219950
H -2.2025938711 0.7071394033 -0.9026303920
H -3.5989843472 -0.3602447169 -1.0268225601
H -3.0087183227 -1.3940480493 1.1537439016
H -1.5821808550 -0.3729149771 1.2634338883
H -2.1445235263 -2.3980217684 -0.9457583525
H -1.1346341800 -2.7069735545 0.4633698396
H 0.1542469792 -2.2460636117 -1.5678266385
H -0.5511262150 -0.6471128991 -1.7082836193
H 0.7681672178 -1.2739091663 0.9106976616
H 1.8377572263 -1.1633093488 -0.4834836830
H 1.0366848004 1.0867459396 -1.0028584892
H -0.0998508767 1.0304989889 0.3490279710
H 1.8128215735 2.2546649653 1.1436602188
H 1.9313492568 0.6730378904 1.8908090958
H 4.1323869358 1.3587814199 1.0980360664
28
CONF494
C -4.3618192377 0.4095565359 0.2931603296
C -3.3301772144 0.1806947805 -0.8061907007
C -2.2295375116 -0.8060081103 -0.4112854000
C -1.2904705928 -0.2579502588 0.6615508114
C -0.2160467265 -1.2582320857 1.0929530186
C 0.7576773615 -1.6863422350 -0.0080872562
C 1.5160013268 -0.5410265345 -0.6804473581
C 2.3778606301 0.2566580408 0.3020413206
C 3.3013783813 1.1928798787 -0.3963138383
O 3.5377251677 2.3295395786 -0.0622115649
H -4.7968516843 -0.5364219303 0.6080273333
H -3.9128464796 0.8879467648 1.1594970264
H -5.1616505830 1.0511594468 -0.0692181006
H -2.8759348002 1.1355980492 -1.0812279976
H -3.8424241076 -0.2067662151 -1.6901688762
H -1.6523142039 -1.0476375640 -1.3055199890
H -2.6884213062 -1.7299763543 -0.0514452878
H -1.8734234899 0.0038410323 1.5464217186
H -0.8241435062 0.6594806163 0.2976617999
H 0.3466334528 -0.8259475720 1.9223011718
H -0.7103121114 -2.1561134961 1.4717344789
H 1.4805516264 -2.3778611383 0.4306266898
H 0.2114605431 -2.2338271935 -0.7775624334
H 2.1615249326 -0.9638617125 -1.4532955182
H 0.8127931131 0.1317315730 -1.1721535121
H 1.7709333391 0.8133945673 1.0159776531
H 3.0117814581 -0.4406261389 0.8589982363
H 3.7974800235 0.7653562559 -1.2877400182
28
CONF333
C -4.7293098803 0.2717514954 0.5277958002
C -4.1439903636 -0.9781930803 -0.1203012395
C -2.6284970146 -1.0908251458 0.0525063286
C -1.8594161269 0.0006996239 -0.6911338304
C -0.3505412646 -0.2477882653 -0.7390277697
C 0.3156828082 -0.1361454274 0.6311742311
C 1.8243295301 -0.3841453107 0.5893856464
C 2.5894403554 0.7417666561 -0.1131142263
C 4.0493943608 0.4622855143 -0.1856147801
O 4.9322729884 1.2622446928 0.0165384316
H -4.3621172516 1.1712428389 0.0411690962
H -5.8140546585 0.2636588737 0.4504616033
H -4.4610056491 0.3141905097 1.5811606649
H -4.3876129345 -0.9819496801 -1.1853286266
H -4.6109638147 -1.8587604276 0.3275013769
H -2.3074861289 -2.0650438123 -0.3246326762
H -2.3936491518 -1.0514745083 1.1174605857
H -2.0437126315 0.9679048534 -0.2210281471
H -2.2350046352 0.0518102887 -1.7161950899
H -0.1624875944 -1.2413993959 -1.1524074113
H 0.0906424881 0.4847792800 -1.4175371181
H 0.1220509636 0.8539922201 1.0484983326
H -0.1274219865 -0.8722663061 1.3028080677
H 2.1950847224 -0.4716023145 1.6124856503
H 2.0212391039 -1.3291211623 0.0796856966
H 2.2445369812 0.8185751211 -1.1481729957
H 2.4211686849 1.7019698415 0.3765343801
H 4.3006681619 -0.5793695292 -0.4590545952
28
CONF496
C -4.4177441875 0.3262999227 0.3022884333
C -3.3686435471 0.1809319835 -0.7947968243
C -2.2353625941 -0.7789533877 -0.4262355190
C -1.3006583302 -0.2176498354 0.6437868562
C -0.2287689293 -1.2129631158 1.0923609065
C 0.7442234867 -1.6609294476 -0.0011306745
C 1.5223392695 -0.5304474521 -0.6760815432
C 2.3886112048 0.2622152587 0.3064710842
C 3.3477508204 1.1624390500 -0.3913680717
O 3.6098896522 2.2973360648 -0.0707641951
H -3.9906167658 0.7679543170 1.1986695104
H -5.2292052707 0.9667903895 -0.0353560459
H -4.8327529423 -0.6453657904 0.5610503000
H -2.9483102139 1.1621375889 -1.0276852142
H -3.8589183783 -0.1898937560 -1.6980988182
H -1.6605548499 -0.9923017659 -1.3292120852
H -2.6639983829 -1.7202313207 -0.0740309789
H -1.8871418836 0.0554105036 1.5229403443
H -0.8327069722 0.6952364394 0.2705167601
H 0.3342623537 -0.7690425874 1.9152436024
H -0.7257910437 -2.1034771186 1.4847301184
H 1.4554023532 -2.3596307982 0.4452727073
H 0.1939608293 -2.2052070294 -0.7699404041
H 2.1671397906 -0.9676621495 -1.4415507197
H 0.8319041277 0.1485080873 -1.1772097704
H 1.7851233821 0.8460850147 1.0012946048
H 2.9960388069 -0.4411232181 0.8849443328
H 3.8468138964 0.7073100441 -1.2672061306
28
CONF443
C -3.9980887779 0.7580158893 -0.3016562221
C -3.0870050866 0.2630580812 0.8162853043
C -1.9807219309 -0.6737145863 0.3267271879
C -0.8972958045 0.0510394168 -0.4692281215
C 0.1490604195 -0.8858773873 -1.0759730611
C 0.9423049982 -1.7206782422 -0.0698170093
C 1.8399401660 -0.9112659640 0.8671943782
C 2.9436958055 -0.1655382134 0.1132032900
C 2.5484992134 1.1981882159 -0.3471181528
O 1.7007113804 1.8979753600 0.1533139280
H -4.8029789885 1.3631794104 0.1088342015
H -3.4480773589 1.3670723065 -1.0142154725
H -4.4372766877 -0.0832100794 -0.8335595125
H -3.6952720362 -0.2698166456 1.5510978709
H -2.6326680905 1.1188981567 1.3207582531
H -2.4221044367 -1.4579525627 -0.2933826883
H -1.5282771015 -1.1504642089 1.1978839931
H -0.4085578034 0.7899656729 0.1688526099
H -1.3622822480 0.5986309543 -1.2916929769
H -0.3549668578 -1.5695860420 -1.7639241937
H 0.8434080543 -0.2814336050 -1.6672444610
H 0.2504809642 -2.3113385248 0.5315154511
H 1.5666399518 -2.4233033341 -0.6279121294
H 1.2456279232 -0.1877078976 1.4265791122
H 2.2922762014 -1.5984435294 1.5832770118
H 3.7979297364 0.0020309617 0.7770015475
H 3.3057709930 -0.7477762780 -0.7344151697
H 3.1405669262 1.5805756219 -1.2002410035
28
CONF472
C -3.8293773990 0.8487106333 -0.3558774407
C -2.9863635743 0.2300853518 0.7535713822
C -2.6474285003 -1.2408669851 0.5053124915
C -1.8137805139 -1.5100859479 -0.7500704101
C -0.4597086725 -0.7991403807 -0.7894986749
C 0.4673918741 -1.2187236180 0.3504127740
C 1.9045764856 -0.7307207963 0.1652296966
C 2.0223792052 0.7950395490 0.2235184024
C 3.4412740467 1.2450595076 0.2738839552
O 3.9067073147 2.1777975515 -0.3364416399
H -3.2737731813 0.8976673925 -1.2885758448
H -4.7297076883 0.2608964329 -0.5216255350
H -4.1253330633 1.8597251571 -0.0852621176
H -3.5393574045 0.2956921538 1.6939243677
H -2.0690294229 0.8075648977 0.8765348405
H -3.5814777520 -1.8016303716 0.4165031651
H -2.1187964539 -1.6299479753 1.3774341389
H -2.3876918068 -1.2159002317 -1.6305964372
H -1.6463938962 -2.5880487129 -0.8190680893
H 0.0214904461 -1.0404420891 -1.7407253404
H -0.6162288940 0.2791695418 -0.7661834535
H 0.0823378450 -0.8411864198 1.2986084786
H 0.4802274751 -2.3095287973 0.4060246023
H 2.5268850965 -1.1621066036 0.9520775831
H 2.2868678769 -1.0837604591 -0.7944637229
H 1.5207812488 1.2732887492 -0.6175924908
H 1.5568956037 1.1480063513 1.1492630408
H 4.0853498851 0.6499706495 0.9479116784
28
CONF641
C -4.0136845160 -1.3503686254 0.5839884141
C -4.0285937236 0.1125588042 0.1570198746
C -2.8668383239 0.5037273335 -0.7591655559
C -1.4839450230 0.4153355668 -0.0961214648
C -0.7267990521 -0.8617899915 -0.4615636166
C 0.5890581704 -1.0231346272 0.3010807027
C 1.6403263336 0.0140918653 -0.0867753583
C 2.9772322377 -0.2539047125 0.5988736632
C 4.0303162714 0.7396500911 0.2481410427
O 3.8979062320 1.6831042828 -0.4937747123
H -3.9902789937 -2.0007298635 -0.2877394704
H -3.1480751051 -1.5658053264 1.2042618157
H -4.9077001396 -1.5815086286 1.1590829191
H -4.0110536614 0.7477231495 1.0458814677
H -4.9637340638 0.3151791991 -0.3712251971
H -3.0395653758 1.5304771609 -1.0892310079
H -2.8832826737 -0.1287609957 -1.6491687797
H -1.5976976504 0.4721371855 0.9884222962
H -0.8869057979 1.2743283889 -0.4060264724
H -1.3570617559 -1.7265699279 -0.2509214688
H -0.5206323516 -0.8582892743 -1.5345682080
H 0.3931983011 -0.9577028143 1.3736715035
H 0.9876725630 -2.0194952727 0.0961988432
H 1.7874674752 0.0030908693 -1.1688768165
H 1.3038327417 1.0155709674 0.1846864462
H 2.8653755779 -0.2429784496 1.6863990066
H 3.3598045373 -1.2437288298 0.3354480171
H 5.0055832350 0.5538221249 0.7365143713
28
CONF376
C -4.6431101279 -0.5520341161 -0.9858587979
C -4.1679613480 -0.6636445716 0.4586617545
C -2.6493348989 -0.7969675240 0.5825011536
C -1.9013834943 0.4614888980 0.1436587069
C -0.4106445054 0.4314600853 0.4870556276
C 0.3677477678 -0.6013537756 -0.3264642467
C 1.8525990104 -0.6601082790 0.0351664699
C 2.6122831117 0.6133008883 -0.3464785212
C 4.0865575269 0.4487257517 -0.2145870055
O 4.8504645674 1.2750048335 0.2245144832
H -4.2815634662 0.3639653009 -1.4450634011
H -4.2841593367 -1.3968166823 -1.5695592167
H -5.7298604637 -0.5448219457 -1.0257015283
H -4.6322558164 -1.5410409620 0.9152687070
H -4.5005106976 0.2136395464 1.0184028733
H -2.3234329672 -1.6510181283 -0.0134858516
H -2.4024225119 -1.0048861481 1.6266334169
H -2.3538469120 1.3236181025 0.6400741115
H -2.0134002122 0.6013310616 -0.9326273454
H 0.0012608476 1.4241556403 0.2988762222
H -0.2904627557 0.2176220564 1.5516298905
H -0.0602564678 -1.5888386982 -0.1496667091
H 0.2608244360 -0.3770987234 -1.3897385115
H 1.9559177965 -0.8324725542 1.1080767633
H 2.3059450566 -1.5068902417 -0.4843576075
H 2.4233718192 0.8323995338 -1.4022208777
H 2.2921211077 1.4722589291 0.2429250729
H 4.4719273005 -0.5246121464 -0.5711000250
28
CONF605
C -4.8355176091 -0.3330563805 -0.3531389645
C -3.3276187404 -0.5137978787 -0.4849005742
C -2.5643692075 0.4952694680 0.3711151240
C -1.0470437416 0.4255982038 0.1868548986
C -0.4422392467 -0.8770845809 0.7077633490
C 1.0863823608 -0.8746149706 0.7830307825
C 1.7858783104 -0.7970993892 -0.5807274650
C 2.1488252170 0.6273381945 -0.9979400937
C 3.2976025886 1.1972540147 -0.2377186094
O 3.9667903116 0.6246617525 0.5881436826
H -5.1310773878 0.6622591007 -0.6778103403
H -5.3635629565 -1.0638027384 -0.9609194790
H -5.1444813332 -0.4599299769 0.6821559869
H -3.0386459491 -0.3898699359 -1.5310357008
H -3.0629184560 -1.5280071595 -0.1823671942
H -2.8090763451 0.3325333607 1.4235669059
H -2.9019607706 1.5008855826 0.1073979036
H -0.5968743976 1.2618494369 0.7281677122
H -0.8202276660 0.5402450102 -0.8744084857
H -0.8303656416 -1.0619505170 1.7126407984
H -0.7586394317 -1.7076470421 0.0745148060
H 1.4248260146 -0.0494167223 1.4130918295
H 1.3928383316 -1.7980471509 1.2785044298
H 2.7124479031 -1.3732401602 -0.5362147721
H 1.1473230119 -1.2485321374 -1.3407497971
H 2.4331957254 0.6572866510 -2.0536327184
H 1.3051600206 1.3093119185 -0.8822033557
H 3.5263284553 2.2484553637 -0.4993066494
28
CONF421
C -4.0691040916 -0.3809947410 0.9750268201
C -3.1951739651 -1.0915854310 -0.0522693457
C -2.5187427870 -0.1337299277 -1.0346518096
C -1.5617757182 0.8779209625 -0.3982792194
C -0.4163647201 0.2737041603 0.4165254492
C 0.5202178907 -0.5979925927 -0.4176107461
C 1.6785252177 -1.1830451016 0.3940773260
C 2.6912814914 -0.1239979732 0.8367880813
C 3.3390661875 0.5435433688 -0.3269361157
O 3.5733706984 1.7247847279 -0.4231182683
H -3.4696601518 0.2385634952 1.6366100220
H -4.8001160211 0.2531409412 0.4779542925
H -4.6028598288 -1.1080353317 1.5827311457
H -3.8176433199 -1.7812978066 -0.6277043472
H -2.4408868819 -1.6885242049 0.4622667529
H -3.2938052820 0.4260101864 -1.5645858443
H -1.9797390349 -0.7207642160 -1.7807729892
H -2.1310257451 1.5472878260 0.2493625483
H -1.1350519952 1.4896037442 -1.1978674030
H 0.1502050440 1.1014064217 0.8480491082
H -0.8193920269 -0.3153040076 1.2417928811
H -0.0481570966 -1.4253829098 -0.8447092662
H 0.9205430317 -0.0047959843 -1.2444419467
H 1.2822984458 -1.6854795438 1.2773208853
H 2.1940222528 -1.9282783138 -0.2147405782
H 2.2405930654 0.6254231088 1.4871563368
H 3.4945338578 -0.6151262480 1.3937178749
H 3.6236499339 -0.1445474820 -1.1449594304
28
CONF470
C -4.4561037577 0.2399159376 -0.3409807147
C -3.4060524818 0.2279157884 0.7646523733
C -2.2617402041 -0.7541081646 0.5048218590
C -1.3485677991 -0.3198113842 -0.6400972908
C -0.2392160433 -1.3290381621 -0.9443249281
C 0.7463160717 -1.5832824841 0.1990857318
C 1.4667951838 -0.3392279561 0.7201935044
C 2.3344009645 0.3285575634 -0.3506234460
C 3.0268584873 1.5387114544 0.1690564522
O 4.1740050582 1.8464753509 -0.0537254986
H -4.0359268683 0.5937435834 -1.2786540549
H -4.8538105379 -0.7604651529 -0.4971516854
H -5.2791395948 0.8974967378 -0.0709460773
H -3.8922244325 -0.0463048342 1.7039530991
H -2.9973846939 1.2336874944 0.8872556920
H -2.6783511057 -1.7390004631 0.2810793712
H -1.6736791244 -0.8422742099 1.4199825260
H -0.9168283581 0.6546699707 -0.4051274230
H -1.9445850795 -0.2004265847 -1.5466700016
H -0.7013362996 -2.2839682332 -1.2055869302
H 0.3097004328 -0.9880949401 -1.8243780050
H 0.2173256271 -2.0463445118 1.0331787879
H 1.4917980671 -2.3013695725 -0.1496018986
H 0.7404016941 0.3798604434 1.0997913005
H 2.1048022864 -0.6359058395 1.5552745510
H 3.0663447232 -0.3684798014 -0.7611719202
H 1.6929937214 0.6730434498 -1.1668431846
H 2.3954882128 2.1881146062 0.8038514243
28
CONF364
C -4.8440002616 0.1898331648 0.3098164608
C -3.9898878650 -0.6641180929 -0.6210785159
C -2.5078360299 -0.2840779727 -0.6027767892
C -1.8096913400 -0.6605948723 0.7030332256
C -0.3422089141 -0.2306118874 0.7468168127
C 0.5355709235 -0.9851740911 -0.2514633516
C 2.0309636737 -0.7655123522 -0.0196465826
C 2.4589549938 0.6852353925 -0.2572772149
C 3.9402066317 0.8393461728 -0.2712825010
O 4.5589704811 1.7455939888 0.2338960202
H -4.5621009635 0.0408465534 1.3487466402
H -4.7289301311 1.2445387939 0.0693524967
H -5.8938958599 -0.0731842621 0.2041487828
H -4.3655253243 -0.5504969383 -1.6407848109
H -4.0945790651 -1.7163259512 -0.3467739683
H -2.4124301098 0.7919281832 -0.7662144201
H -2.0135638516 -0.7930561703 -1.4319102745
H -1.8752564691 -1.7418532472 0.8464532418
H -2.3289841334 -0.1843242678 1.5363043766
H -0.2850377124 0.8421940595 0.5560590100
H 0.0404122534 -0.4112307175 1.7543199710
H 0.3284911033 -2.0536897450 -0.1604548011
H 0.2844259564 -0.6823619917 -1.2687803511
H 2.2852391229 -1.0516435304 1.0027137427
H 2.5906868509 -1.4137061917 -0.6971316487
H 2.1108108824 0.9965587106 -1.2473351183
H 2.0317606838 1.3610472625 0.4833866441
H 4.4780721133 0.0373533755 -0.8106004242
28
CONF420
C -4.0573020318 -0.2818015556 0.9900305672
C -3.1928773051 -1.0884630529 0.0276901620
C -2.5170941691 -0.2284772192 -1.0418637275
C -1.5513504421 0.8318654831 -0.5058000070
C -0.4024141228 0.2986263597 0.3525346014
C 0.5349122864 -0.6344662545 -0.4113748014
C 1.6795254027 -1.1752339098 0.4487730537
C 2.6768724638 -0.0916880459 0.8674281040
C 3.3294413231 0.5452458901 -0.3106041566
O 3.5429590325 1.7265355032 -0.4465548835
H -4.7897051180 0.3060478722 0.4408429193
H -4.5891380116 -0.9469191968 1.6664583395
H -3.4512583518 0.3944253760 1.5869565989
H -3.8221614909 -1.8244347914 -0.4788909686
H -2.4388113481 -1.6401303528 0.5907901812
H -3.2922223701 0.2848658475 -1.6167617816
H -1.9857588126 -0.8846677999 -1.7339135606
H -2.1134375036 1.5593843722 0.0826609947
H -1.1279283617 1.3672934161 -1.3599621875
H 0.1630848095 1.1601226411 0.7137152712
H -0.8020179450 -0.2227010206 1.2236740468
H -0.0359141575 -1.4840014465 -0.7888972839
H 0.9483321598 -0.1003315156 -1.2713448371
H 1.2680966918 -1.6414164594 1.3448913139
H 2.2112818882 -1.9428522667 -0.1167044639
H 2.2112724018 0.6728498625 1.4890397873
H 3.4788963019 -0.5570226517 1.4477233509
H 3.6388879248 -0.1665066800 -1.0987778688
28
CONF43
C -4.6368759849 -0.5470254347 -0.4378778235
C -3.3807267647 0.3162759022 -0.4389509037
C -2.2238829814 -0.3623863909 0.2918153594
C -0.9640558616 0.5015664683 0.2864284180
C 0.1833430547 -0.0926072385 1.1060563156
C 0.7946282058 -1.3680274075 0.5261543165
C 1.5819505873 -1.1584101460 -0.7674374434
C 2.8583272441 -0.3405249291 -0.5584043249
C 2.6230510859 1.1169491840 -0.3621973896
O 3.2653643229 1.8413251512 0.3647516044
H -5.4471728332 -0.0442806069 -0.9601113513
H -4.4467040287 -1.4973006005 -0.9316602814
H -4.9582259057 -0.7494931529 0.5813606672
H -3.5982306127 1.2738267856 0.0400753217
H -3.0842058717 0.5233403941 -1.4698213819
H -2.0198815868 -1.3210430301 -0.1878841597
H -2.5192207626 -0.5625274855 1.3244896445
H -1.2111012152 1.4804203983 0.7055171467
H -0.6457850706 0.6640487903 -0.7447095666
H 0.9696725087 0.6608776735 1.2095598035
H -0.1867578379 -0.3096749006 2.1108665150
H 1.4633524538 -1.7996317183 1.2742810152
H 0.0026170186 -2.0944315321 0.3410179339
H 1.8630745693 -2.1368058060 -1.1590364393
H 0.9547961062 -0.6701257376 -1.5137819923
H 3.4509561343 -0.7314840445 0.2703809099
H 3.4672144809 -0.4070782220 -1.4658336414
H 1.8190360140 1.5416409688 -0.9912807972
28
CONF611
C -3.5953934877 0.8036761386 0.8018361357
C -4.0212038216 -0.3758218430 -0.0643606834
C -2.9367075643 -0.8606709474 -1.0289683336
C -1.6909684938 -1.4339164975 -0.3376736507
C -0.5320555548 -0.4401969510 -0.2548810657
C 0.6708784907 -1.0420209269 0.4700806954
C 1.8085872452 -0.0448333154 0.6841728792
C 2.4674798131 0.4000069836 -0.6189351465
C 3.6745526270 1.2465014378 -0.4067268550
O 4.1279456760 1.5840663029 0.6604952243
H -4.4363006069 1.1550991368 1.3957393398
H -2.7984335600 0.5184756026 1.4830257107
H -3.2479131477 1.6266254754 0.1810221737
H -4.8955004851 -0.0835937079 -0.6515237662
H -4.3222673248 -1.2052741482 0.5800071702
H -2.6432115816 -0.0353412513 -1.6809198815
H -3.3809204539 -1.6318208513 -1.6620888522
H -1.3447036839 -2.3119403371 -0.8876290096
H -1.9562505272 -1.7691566416 0.6670957548
H -0.2485788313 -0.1537904481 -1.2691255381
H -0.8511406936 0.4607344281 0.2699481293
H 0.3445848577 -1.4060575680 1.4468291646
H 1.0416215992 -1.9018524393 -0.0923380401
H 1.4344150727 0.8341053847 1.2131160674
H 2.5728555825 -0.5001721810 1.3180834340
H 2.7749557148 -0.4653074673 -1.2125726681
H 1.7750318004 0.9752940930 -1.2377345572
H 4.1672886061 1.5705486562 -1.3429715207
28
CONF623
C -3.9992362549 0.3203267068 0.9794484716
C -3.3762243894 0.5120297243 -0.3990335889
C -1.9104366084 0.0785501074 -0.4626449249
C -1.7253067559 -1.4269640933 -0.2837895714
C -0.3069048472 -1.9176269937 -0.5825517708
C 0.7594038580 -1.3918500984 0.3887505683
C 1.5222580374 -0.1833221455 -0.1507189726
C 2.5550861206 0.3247474694 0.8516636752
C 3.3346749044 1.4933364048 0.3559380630
O 3.2070221419 2.0280741124 -0.7191203887
H -5.0119678307 0.7163800640 0.9933975795
H -4.0439054574 -0.7327210895 1.2435715658
H -3.4167109936 0.8428492537 1.7350764203
H -3.4373114344 1.5690658304 -0.6694095827
H -3.9513745108 -0.0504307812 -1.1382319631
H -1.3541101746 0.6143317450 0.3081859014
H -1.5045490385 0.3695750443 -1.4348399217
H -2.4145303860 -1.9436309963 -0.9569729645
H -1.9866139277 -1.7105944032 0.7372020273
H -0.3215041863 -3.0086310928 -0.5366102620
H -0.0361258460 -1.6394970983 -1.6031665124
H 0.2864258591 -1.1315473670 1.3374572279
H 1.4816167021 -2.1854988437 0.5917506737
H 2.0334489982 -0.4563469573 -1.0765283707
H 0.8347471503 0.6277496286 -0.3913239544
H 2.0753468573 0.6242554314 1.7873898301
H 3.2701626863 -0.4619336832 1.1073219195
H 4.0873064736 1.8701133272 1.0742566997
28
CONF461
C -3.8142881005 0.8205869094 0.4443598151
C -2.9594020143 0.2952497699 -0.7035010930
C -2.6367257665 -1.1953491107 -0.5832550861
C -1.8341963476 -1.5861472460 0.6603741553
C -0.4802494408 -0.8875978473 0.7999677182
C 0.4754455437 -1.2034897177 -0.3494257928
C 1.9031459855 -0.7205074020 -0.0919584668
C 2.0066906697 0.8072962405 -0.0615261683
C 3.3956751887 1.2697261924 0.2070535992
O 3.9477165429 2.1973725391 -0.3357660137
H -4.7221656975 0.2293399846 0.5430361924
H -3.2734606984 0.7804492080 1.3861049397
H -4.0972544651 1.8545772165 0.2606450931
H -2.0354444869 0.8724243143 -0.7622077844
H -3.4971857556 0.4498757427 -1.6422675991
H -2.0912107655 -1.5074551170 -1.4757289752
H -3.5764254136 -1.7534633118 -0.5670009448
H -1.6708206806 -2.6664383224 0.6305732853
H -2.4290752538 -1.3741507235 1.5505829621
H -0.6373380993 0.1887689605 0.8710250699
H -0.0250937085 -1.2177187169 1.7371526484
H 0.5007094780 -2.2855113485 -0.4957527563
H 0.1086186261 -0.7521140449 -1.2721263739
H 2.2590485674 -1.1261089117 0.8570218311
H 2.5519994704 -1.1006774369 -0.8834916256
H 1.6450187087 1.2490371400 -0.9912995319
H 1.3961386676 1.1911001237 0.7607934634
H 3.9268498083 0.6902072114 0.9846035773
28
CONF626
C -4.0394790504 -0.1646878403 -1.1516541178
C -3.5410553311 0.4543151747 0.1505244514
C -2.8509492594 -0.5537858542 1.0808719992
C -1.3231407203 -0.5502321307 0.9918845875
C -0.7820490511 -1.0150881677 -0.3586963789
C 0.7295630098 -1.2477266994 -0.3500662834
C 1.5320185180 0.0371947973 -0.1596454875
C 3.0332433361 -0.2147270472 -0.2694886159
C 3.8550563485 1.0096171536 -0.0581342244
O 3.4337462594 2.1140183037 0.1886616985
H -3.2232200799 -0.6017387107 -1.7190704524
H -4.7677653689 -0.9455656846 -0.9429840807
H -4.5193743825 0.5921863458 -1.7684730138
H -4.3991001321 0.8889582694 0.6682886958
H -2.8522226227 1.2713121282 -0.0731768614
H -3.2232832346 -1.5575492016 0.8657541984
H -3.1192923105 -0.3226109747 2.1142615083
H -0.9349118862 -1.2127216053 1.7700641200
H -0.9626157646 0.4577179169 1.2059155289
H -1.2749194003 -1.9520461895 -0.6289568767
H -1.0202463819 -0.2749349163 -1.1241086136
H 0.9801548775 -1.9530080077 0.4454780817
H 1.0157669535 -1.7034434582 -1.3009129995
H 1.2383289391 0.7713293514 -0.9129945813
H 1.3221688669 0.4731049655 0.8180378640
H 3.3565725601 -0.9559835064 0.4664422237
H 3.2914297570 -0.6189502807 -1.2519313118
H 4.9451749217 0.8408075781 -0.1439428817
28
CONF471
C -4.5021503453 0.1622784048 -0.3431481070
C -3.4425344100 0.2286089343 0.7514398210
C -2.2687329733 -0.7247587390 0.5166005665
C -1.3609153679 -0.2844070026 -0.6304502710
C -0.2512941446 -1.2906870414 -0.9432640758
C 0.7330053409 -1.5552153882 0.1986359798
C 1.4702898596 -0.3195488997 0.7161608957
C 2.3558633206 0.3261923612 -0.3536834387
C 3.0734202067 1.5216636550 0.1658882940
O 4.2291472008 1.8007818238 -0.0501375678
H -5.3370951245 0.8147027268 -0.0986910922
H -4.0981838557 0.4766003222 -1.3017069596
H -4.8790473467 -0.8530013992 -0.4446698114
H -3.9114902875 -0.0246603645 1.7052321720
H -3.0662929435 1.2511606698 0.8309784120
H -2.6563255919 -1.7246462973 0.3077374148
H -1.6837688732 -0.7804693005 1.4363286707
H -0.9299916940 0.6899804257 -0.3935397908
H -1.9606256974 -0.1622625378 -1.5342214374
H -0.7138276257 -2.2431751920 -1.2126004471
H 0.2979261135 -0.9425200700 -1.8202609769
H 0.1991838474 -2.0101173845 1.0340742800
H 1.4690975732 -2.2830295038 -0.1498711000
H 0.7537078290 0.4141715518 1.0862225193
H 2.0982247268 -0.6211969120 1.5571041457
H 3.0739461219 -0.3880370161 -0.7592220215
H 1.7250654801 0.6821614995 -1.1731509340
H 2.4539928039 2.1882662410 0.7944846117
28
CONF643
C -4.0239897495 -1.4781458685 -0.2471518659
C -4.0347307863 0.0454145675 -0.2838125794
C -2.8785177797 0.6949035261 0.4800302756
C -1.4898997408 0.4128948048 -0.1128659523
C -0.7453474997 -0.7084877071 0.6122312986
C 0.5959666444 -1.0589039990 -0.0340555492
C 1.6413135180 0.0438710943 0.1166166235
C 3.0005037922 -0.3873469930 -0.4272344216
C 4.0505449050 0.6603057109 -0.2891089930
O 3.8995953027 1.7582602365 0.1902878759
H -4.9192498305 -1.8701864000 -0.7248750653
H -3.1598601341 -1.8739388959 -0.7734497136
H -4.0013203179 -1.8336688266 0.7807034613
H -4.9724745218 0.4005894999 0.1510775179
H -4.0087593291 0.3812002704 -1.3232227738
H -2.9031534458 0.3613507206 1.5195548461
H -3.0518751538 1.7733724724 0.4825671554
H -0.8899618498 1.3223330788 -0.0541055018
H -1.5916661238 0.1574290098 -1.1696717879
H -0.5748190389 -0.4096488129 1.6492797042
H -1.3678172292 -1.6037197702 0.6265595444
H 0.9781889870 -1.9692371787 0.4336844549
H 0.4404361006 -1.2701769468 -1.0943232370
H 1.3235952548 0.9436507920 -0.4118870341
H 1.7487399805 0.3077116354 1.1709555160
H 3.3608566604 -1.2822264915 0.0873956819
H 2.9313817365 -0.6448247180 -1.4875259323
H 5.0425394770 0.3576936887 -0.6745424301
28
CONF620
C -2.8285589160 1.3155227474 0.8242191188
C -2.0430558474 0.8531822635 -0.3980892993
C -2.2095364675 -0.6436573212 -0.6718128956
C -1.4854661617 -1.5544097275 0.3317725594
C -0.2164598158 -2.2004056304 -0.2293838037
C 0.9208037617 -1.2247586039 -0.5340536446
C 1.5509687229 -0.6331925743 0.7262468785
C 2.7526551584 0.2510734418 0.3987682363
C 2.3906488609 1.5741810805 -0.1854191916
O 1.2776612071 2.0273379494 -0.2968915772
H -3.8924601478 1.1350104456 0.6835361992
H -2.5095248615 0.7863434339 1.7188192137
H -2.6774653646 2.3800081335 0.9875165805
H -0.9889888155 1.1002354485 -0.2662556057
H -2.3986331528 1.4083617396 -1.2700685009
H -1.8446344925 -0.8609521044 -1.6779626249
H -3.2786204087 -0.8689366093 -0.6638364012
H -2.1575875474 -2.3599292150 0.6351007681
H -1.2374351398 -0.9903737679 1.2303012678
H 0.1437369037 -2.9427440850 0.4876726794
H -0.4766080184 -2.7325009676 -1.1477886609
H 1.6925239757 -1.7630336116 -1.0911233715
H 0.5548026470 -0.4190718338 -1.1717347687
H 0.8135906326 -0.0326342747 1.2604959469
H 1.8695823466 -1.4453300495 1.3818152720
H 3.3292289437 0.4670308248 1.3030490542
H 3.4330360072 -0.2504613925 -0.2932688346
H 3.2627654938 2.1684879646 -0.5185840459
28
CONF337
C -4.7204690702 -0.0351114820 -0.8069227106
C -4.1489026415 -0.9105609626 0.3028446752
C -2.6267529888 -1.0450435691 0.2385028119
C -1.8980160023 0.2703391979 0.5127303745
C -0.3926247037 0.0948462354 0.7227195715
C 0.3426653979 -0.3203764629 -0.5503678839
C 1.8392190964 -0.5497436880 -0.3343872754
C 2.5989149447 0.7443692024 -0.0275499047
C 4.0475696624 0.4978857174 0.2083083339
O 4.9559123140 1.1798361671 -0.2039906028
H -5.8072600329 -0.0377861776 -0.7669960321
H -4.3804954434 0.9920282609 -0.7066791606
H -4.4123108550 -0.4079609399 -1.7812326912
H -4.5892392876 -1.9077017473 0.2270160199
H -4.4343434204 -0.4975303967 1.2731714534
H -2.3500429408 -1.4260422056 -0.7459601750
H -2.3121982862 -1.7816356774 0.9820374711
H -2.3231257152 0.7201180747 1.4134925397
H -2.0619782922 0.9633132608 -0.3139127065
H 0.0116817450 1.0432919045 1.0813142250
H -0.2238617594 -0.6553978315 1.4987264543
H -0.0884059082 -1.2501629849 -0.9231394536
H 0.1988458409 0.4435964639 -1.3169651214
H 1.9816035694 -1.2558763750 0.4857738194
H 2.2602680851 -0.9958074126 -1.2375308969
H 2.4743550375 1.4775790719 -0.8256290980
H 2.2115530236 1.1768089268 0.8993523680
H 4.2633240636 -0.3930097088 0.8268769123
28
CONF331
C -4.7010992940 0.0772716311 -0.7718408287
C -4.1534961805 -0.9183421631 0.2449492692
C -2.6336046142 -1.0741073551 0.1746978360
C -1.8832810299 0.1909904142 0.5900640660
C -0.3793787617 -0.0277471425 0.7668418586
C 0.3393841547 -0.3180772412 -0.5495452762
C 1.8440326722 -0.5338853961 -0.3796308398
C 2.5877674228 0.7530009760 -0.0100709878
C 4.0443426041 0.5200524897 0.1875822019
O 4.9329380936 1.2448409158 -0.1936752415
H -4.3920368033 -0.1986972815 -1.7776458545
H -5.7880365743 0.0903047081 -0.7387323934
H -4.3441842716 1.0823662533 -0.5642043165
H -4.6115137616 -1.8938402650 0.0644661475
H -4.4382070499 -0.6020067754 1.2511678625
H -2.3568564185 -1.3535253048 -0.8432405562
H -2.3373709092 -1.8910028250 0.8375217767
H -2.2964812084 0.5428179215 1.5387070375
H -2.0415639318 0.9747137378 -0.1523530897
H 0.0418443504 0.8721825872 1.2188742370
H -0.2153616882 -0.8570381123 1.4588472262
H -0.0820073782 -1.2209966879 -0.9928527508
H 0.1672665015 0.5055155159 -1.2453860917
H 2.0165502175 -1.2865092295 0.3919494009
H 2.2527922733 -0.9153755537 -1.3172999515
H 2.4371202560 1.5291415720 -0.7617730489
H 2.2094703734 1.1249498547 0.9464336009
H 4.2867963285 -0.4041242568 0.7443922276
28
CONF330
C -4.7030280320 0.0884563582 -0.7613489928
C -4.1523452994 -0.9216980166 0.2392530786
C -2.6325426434 -1.0755852290 0.1628812287
C -1.8821309369 0.1838590517 0.5949194769
C -0.3782503453 -0.0372188123 0.7687496224
C 0.3396804437 -0.3150550068 -0.5507650216
C 1.8446003570 -0.5312440229 -0.3840623096
C 2.5868798040 0.7521223397 0.0008519690
C 4.0453192268 0.5198116972 0.1849555848
O 4.9297199817 1.2495736866 -0.1964315271
H -4.3458186765 1.0904743632 -0.5399242222
H -4.3965414669 -0.1725765096 -1.7719104250
H -5.7898769604 0.1006581344 -0.7251916146
H -4.6102931449 -1.8946651702 0.0455058326
H -4.4347515716 -0.6203984877 1.2507267878
H -2.3581271861 -1.3397917681 -0.8597320383
H -2.3341773766 -1.9018990328 0.8129139193
H -2.2950899521 0.5232356743 1.5481885550
H -2.0404264904 0.9773181549 -0.1370839835
H 0.0434268154 0.8581939028 1.2292267744
H -0.2141521538 -0.8732376126 1.4525826282
H -0.0813340558 -1.2141397350 -1.0021188448
H 0.1665441190 0.5147975802 -1.2388278286
H 2.0184141625 -1.2929987067 0.3781601352
H 2.2532776231 -0.9007154296 -1.3265723910
H 2.4291936067 1.5391642783 -0.7379350943
H 2.2135542861 1.1076895574 0.9654580960
H 4.2935881078 -0.4093416404 0.7307088860
28
CONF566
C -4.3139681254 0.8680215892 0.3604087698
C -3.2720700880 -0.2251796401 0.5693769125
C -2.6560455326 -0.6752749359 -0.7550221478
C -1.5796051759 -1.7586422108 -0.5958807154
C -0.1447153600 -1.2263251832 -0.6175742628
C 0.1961385236 -0.3275398499 0.5696824158
C 1.6862240731 0.0000122206 0.6610567293
C 2.1783061491 0.8656022057 -0.4959554301
C 3.5915774843 1.3086709883 -0.3378581214
O 4.3232703984 1.0371533374 0.5837436930
H -3.8613428518 1.7433708921 -0.1003256729
H -5.1122782001 0.5152714123 -0.2890752515
H -4.7508648988 1.1672226689 1.3100548300
H -3.7434629287 -1.0841537594 1.0528711968
H -2.4938664290 0.1427953362 1.2385304800
H -2.2300439300 0.1894251735 -1.2677616158
H -3.4615804258 -1.0582201983 -1.3859855361
H -1.6757051101 -2.4766333628 -1.4132420870
H -1.7492166734 -2.3037701982 0.3350252091
H 0.5368507820 -2.0808433178 -0.6146092939
H 0.0088041475 -0.6822157270 -1.5511659860
H -0.3683012071 0.6035075225 0.5025491711
H -0.1007884100 -0.8353529492 1.4897592310
H 1.8823889690 0.5307446632 1.5954524240
H 2.2678872775 -0.9237716347 0.6883341546
H 2.1119698761 0.3315556129 -1.4465871995
H 1.5635648607 1.7643239701 -0.5962964984
H 3.9596144267 1.9435023947 -1.1660405202
28
CONF25
C -3.3321867911 0.9029630912 1.1899863480
C -3.4416397964 0.1423809347 -0.1271727309
C -2.1099187045 0.0280793357 -0.8707043781
C -1.0883296645 -0.8535561205 -0.1553687763
C 0.1955509016 -0.9908651419 -0.9712524027
C 1.2711795544 -1.8287333038 -0.2813569745
C 1.9163001144 -1.1527086054 0.9291614870
C 2.7080231167 0.1019517133 0.5549965973
C 1.8598552841 1.2886184092 0.2519840485
O 2.1119052218 2.1436632699 -0.5672565622
H -2.7182956912 0.3617325867 1.9048149793
H -2.8904714796 1.8835988432 1.0255054424
H -4.3179038712 1.0404815304 1.6279815932
H -4.1547051606 0.6599449249 -0.7730032028
H -3.8346364373 -0.8587993721 0.0629816398
H -1.6877385007 1.0271174856 -1.0094257032
H -2.2978978973 -0.3874446348 -1.8640266005
H -1.5184629216 -1.8441134953 0.0099324035
H -0.8608646976 -0.4214373049 0.8188429315
H -0.0486355151 -1.4543509356 -1.9301887484
H 0.5931056308 0.0044860412 -1.1890607609
H 0.8291650873 -2.7738883408 0.0404135451
H 2.0532607171 -2.0604535851 -1.0076720972
H 1.1546452884 -0.8955077488 1.6657586913
H 2.5992647018 -1.8649670289 1.3937189832
H 3.3131351643 0.4027088226 1.4164366350
H 3.3866740863 -0.0875130748 -0.2783185400
H 0.9619333219 1.3859672417 0.8899154332
28
CONF132
C -2.5026312384 1.5785398500 -0.5503855871
C -2.7844446741 0.4949672112 0.4843303611
C -2.5251335307 -0.9219133798 -0.0312532014
C -1.0733364624 -1.2163934870 -0.4139236195
C -0.1030209617 -1.0579861076 0.7575380251
C 1.2315761898 -1.7704115114 0.5400464994
C 2.1028778708 -1.1696494811 -0.5630898979
C 2.6272326724 0.2247712100 -0.2105685933
C 1.6125298039 1.3034412664 -0.3570996962
O 1.4926675630 2.2682874482 0.3624095844
H -1.4371302601 1.6648321853 -0.7463082447
H -3.0136685122 1.3572701670 -1.4849484504
H -2.8505395570 2.5430949301 -0.1879320397
H -3.8341958020 0.5577726525 0.7816542821
H -2.1818760291 0.6813145925 1.3749880458
H -3.1568315050 -1.0951302951 -0.9062428483
H -2.8330434548 -1.6305846514 0.7418459561
H -0.7799779274 -0.5670251515 -1.2388535248
H -1.0249760074 -2.2472807815 -0.7737514458
H 0.0786077397 0.0018177156 0.9502713018
H -0.5689041911 -1.4767364354 1.6530508136
H 1.7934097466 -1.7533688347 1.4768282378
H 1.0334283188 -2.8161983898 0.2951310710
H 2.9584524429 -1.8282109614 -0.7179356911
H 1.5427636218 -1.1251680314 -1.4975408705
H 3.0508627502 0.2492644193 0.7947097719
H 3.4209258935 0.4877662283 -0.9172274807
H 0.9627050472 1.1946616545 -1.2463934371
28
CONF622
C -3.1815538726 0.8826435461 -0.9536923992
C -3.5947342386 0.2556855962 0.3724093162
C -2.9338360473 -1.0959556220 0.6516382288
C -1.4076292024 -1.0294304396 0.8096086307
C -0.6544521185 -1.4434899614 -0.4547899180
C 0.8650969080 -1.4260363535 -0.2818434755
C 1.4395544282 -0.0163351816 -0.1618589941
C 2.9635384228 -0.0346328392 -0.0822886068
C 3.5649040148 1.3215840717 0.0518531512
O 2.9591283021 2.3647047227 0.1060831961
H -2.1275023203 1.1469159971 -0.9468835325
H -3.3648634897 0.1928981993 -1.7746876769
H -3.7546030062 1.7896237538 -1.1338000078
H -4.6783768132 0.1129624718 0.3721169875
H -3.3557079909 0.9451341641 1.1857279582
H -3.1865701062 -1.7904536415 -0.1523463364
H -3.3710880877 -1.4915875227 1.5710349463
H -1.1002825048 -1.6963777517 1.6184871455
H -1.1237323321 -0.0167158964 1.0980366414
H -0.9613791272 -2.4580515599 -0.7208890011
H -0.9273025847 -0.7894274783 -1.2833876633
H 1.1322517189 -2.0039565384 0.6056984908
H 1.3187052201 -1.9156670506 -1.1466726999
H 1.1361273425 0.5807394820 -1.0246406130
H 1.0502358379 0.4788800175 0.7287651216
H 3.3001584596 -0.6276109409 0.7724053514
H 3.3956103748 -0.4993888643 -0.9725781248
H 4.6701036543 1.3213718771 0.1031466171
28
CONF539
C -3.9091208034 0.2005145582 0.5869790482
C -3.0448132992 -0.6926466915 -0.2957581659
C -1.8997410473 0.0595352957 -0.9768913068
C -0.8742018991 0.6756790575 -0.0230940317
C -0.1794740049 -0.3107836668 0.9183667272
C 0.5437467543 -1.4684877045 0.2296502098
C 1.7398427873 -1.0542332077 -0.6287448711
C 2.8584293504 -0.4204321154 0.2016720976
C 2.7325150745 1.0580204230 0.3624071796
O 2.1548693926 1.8074385483 -0.3884522762
H -3.3433042417 0.5763690503 1.4353929245
H -4.2809783260 1.0503192132 0.0184528853
H -4.7614291752 -0.3572646170 0.9681699512
H -3.6733680301 -1.1304611800 -1.0752968574
H -2.6455187468 -1.5146830095 0.3001512815
H -2.3231690412 0.8668111847 -1.5801690578
H -1.3921677728 -0.6210439404 -1.6630445749
H -1.3655297738 1.4358401909 0.5882004531
H -0.1196877124 1.1952947317 -0.6179216992
H 0.5384975670 0.2543713845 1.5206859389
H -0.9168778330 -0.7276660207 1.6073258148
H 0.8927099573 -2.1606954370 1.0006135926
H -0.1635609580 -2.0129157179 -0.3968474857
H 2.1226775044 -1.9432262607 -1.1315309301
H 1.4256193240 -0.3444736609 -1.3950549245
H 2.9360473582 -0.8894742015 1.1829312117
H 3.8208028846 -0.5643479739 -0.2999604710
H 3.2676403077 1.4676188034 1.2402933023
28
CONF581
C -2.8849474855 1.2703623397 -0.8749669755
C -3.2624569360 0.3294965213 0.2644334814
C -2.0641964773 -0.4364144717 0.8281316550
C -1.5459564788 -1.5193552746 -0.1189394460
C -0.2870511590 -2.2248066662 0.4058119848
C 1.0151945824 -1.7103813618 -0.2114662993
C 1.2994770766 -0.2433288842 0.0964879432
C 2.6572671625 0.1979035954 -0.4430953450
C 2.9344612054 1.6439854300 -0.2159877419
O 2.1889038215 2.4342824577 0.3111851090
H -3.7515153020 1.8451689904 -1.1931500405
H -2.1125648796 1.9657335557 -0.5517614824
H -2.5134553306 0.7176218538 -1.7338275262
H -4.0161846931 -0.3807222969 -0.0834223788
H -3.7094096074 0.9182801984 1.0688562842
H -2.3607808844 -0.9119742633 1.7666012591
H -1.2694482778 0.2743575390 1.0580958079
H -1.3311620069 -1.0859736794 -1.0960794398
H -2.3430416609 -2.2531556271 -0.2590952313
H -0.2383882471 -2.1178084550 1.4913413565
H -0.3567412094 -3.2924143320 0.1875818979
H 1.8396829865 -2.3182327222 0.1689725966
H 0.9741809022 -1.8493528827 -1.2942712624
H 0.5302533286 0.3895032105 -0.3476405819
H 1.2773796562 -0.0809677234 1.1762516215
H 3.4683669593 -0.3723159572 0.0170892994
H 2.7233091448 0.0195308361 -1.5200308919
H 3.9235945341 1.9775321898 -0.5825879970
28
CONF405
C -4.2106060936 1.1250716567 -0.0530442758
C -2.9670611993 0.4933440692 -0.6672590598
C -2.0153346943 -0.0423804581 0.4001124026
C -0.7692482320 -0.6834539582 -0.2058691764
C 0.1670907458 -1.2219893838 0.8744602315
C 1.4219465342 -1.9123428135 0.3248129710
C 2.6335050223 -0.9950289971 0.1431015375
C 2.4690398826 0.0499253750 -0.9607079435
C 1.8027422235 1.3106894349 -0.5176382444
O 1.6480713736 1.6750862785 0.6227181716
H -4.7561077814 0.3932391818 0.5384541625
H -3.9341917307 1.9521523381 0.5971945990
H -4.8716646237 1.5028293685 -0.8291314278
H -2.4447289029 1.2370594832 -1.2736928276
H -3.2640468136 -0.3243779131 -1.3279806172
H -2.5398041845 -0.7782667334 1.0144371615
H -1.7089073027 0.7771898723 1.0555230907
H -0.2533476959 0.0660495876 -0.8092855770
H -1.0674390524 -1.5002297362 -0.8680518282
H 0.4631235834 -0.4021831332 1.5325449150
H -0.3954594002 -1.9373246382 1.4791669946
H 1.7163451344 -2.6985292683 1.0229577880
H 1.1837484070 -2.3939263774 -0.6262089490
H 2.8370032326 -0.4777633856 1.0831278751
H 3.4970516186 -1.6197303571 -0.0904846740
H 3.4528403743 0.3686585473 -1.3216129346
H 1.9385311941 -0.3604373523 -1.8207301810
H 1.4786382066 1.9632691642 -1.3519177001
28
CONF538
C -4.2063503089 0.6117521505 0.1329533770
C -3.3426046456 -0.4265661743 0.8400637851
C -2.7146688702 -1.4416222021 -0.1167135928
C -1.7674696239 -0.8468410060 -1.1621998062
C -0.5846738939 -0.0554390979 -0.5997030149
C 0.3569641945 -0.9065511340 0.2500903682
C 1.5483539554 -0.1206513265 0.7999277241
C 2.5237964620 0.3294437993 -0.2912392510
C 3.7924864562 0.8653370617 0.2757433884
O 4.3905709078 1.8338213428 -0.1286915403
H -3.6049023269 1.2477158825 -0.5111159183
H -4.9651015574 0.1240406062 -0.4753493832
H -4.7066016519 1.2452070215 0.8619707623
H -3.9632784518 -0.9736878585 1.5541083097
H -2.5617058737 0.0781314208 1.4108968048
H -3.5168663215 -1.9607749385 -0.6475684417
H -2.1805535606 -2.1906403514 0.4709103648
H -2.3365951899 -0.1932114215 -1.8256802333
H -1.3804096922 -1.6674080969 -1.7716477133
H -0.0335228384 0.3595000014 -1.4454575574
H -0.9499735085 0.7831520849 -0.0048522037
H -0.1968807772 -1.3124032423 1.0976838718
H 0.7189267202 -1.7478130980 -0.3447230187
H 1.1849206382 0.7553627135 1.3405028632
H 2.0859685094 -0.7520117929 1.5105201850
H 2.8032889728 -0.5411179250 -0.8932344743
H 2.0822562403 1.0745688331 -0.9527606224
H 4.1897784997 0.2894241694 1.1322886598
28
CONF527
C -4.2634905726 -0.9874478556 0.3865408254
C -3.6240108103 -0.0215132220 -0.6045721075
C -2.4953287919 0.8124908044 0.0052684987
C -1.3067627730 0.0113051610 0.5415107238
C -0.5722499137 -0.7742214207 -0.5427421365
C 0.6264714233 -1.5634402996 -0.0118139161
C 1.7515172994 -0.7165378813 0.5861900614
C 2.3511346812 0.2701709521 -0.4192013594
C 3.6214078433 0.8712231193 0.0732114219
O 3.9406577351 2.0311620192 -0.0364345669
H -3.5628851086 -1.7627797684 0.6844764564
H -4.5907999268 -0.4560933739 1.2776304851
H -5.1288348410 -1.4689855281 -0.0629536887
H -4.3900469948 0.6665972268 -0.9706387357
H -3.2512268055 -0.5774438199 -1.4661826095
H -2.9079778515 1.4054079074 0.8256513581
H -2.1332224089 1.5110059304 -0.7536106587
H -1.6449686299 -0.6737428421 1.3205700785
H -0.6175026412 0.7193927227 1.0055984661
H -1.2620221338 -1.4889892790 -0.9946053292
H -0.2502563717 -0.0902088795 -1.3294992438
H 0.2761440184 -2.2550101100 0.7575812212
H 1.0354098949 -2.1603378979 -0.8301048432
H 1.3844410790 -0.1685303331 1.4543715985
H 2.5385580259 -1.3901248877 0.9321079444
H 2.6051804005 -0.2726928271 -1.3352979530
H 1.6515805127 1.0659947019 -0.6746287379
H 4.3049874088 0.1551002140 0.5663887974
28
CONF576
C -3.6220026462 1.2359603622 0.5351257655
C -3.7981950034 -0.1913983390 0.0280440358
C -2.5757192080 -0.7206178049 -0.7234731777
C -1.3486645985 -0.9033607844 0.1681396138
C -0.1910287253 -1.5470526478 -0.5955603041
C 1.0880777830 -1.6916357609 0.2427121130
C 2.1353423544 -0.6115267584 -0.0293762720
C 1.6814394146 0.7932152372 0.3554885237
C 2.7513594084 1.8178664418 0.1962592297
O 3.8746994833 1.6179151912 -0.1993619392
H -4.5480197102 1.5939169822 0.9789072705
H -2.8434053060 1.2887902546 1.2910575350
H -3.3563379702 1.8998605984 -0.2846113608
H -4.6585232059 -0.2219114254 -0.6447488112
H -4.0158552299 -0.8514051450 0.8707678846
H -2.3321079050 -0.0355619351 -1.5392703933
H -2.8314564078 -1.6845788983 -1.1707034236
H -1.6146968278 -1.5407436205 1.0148787358
H -1.0398839307 0.0630536173 0.5639296733
H -0.5159768554 -2.5342197114 -0.9313508305
H 0.0245450595 -0.9615495545 -1.4917066323
H 0.8300661827 -1.6871281907 1.3033434860
H 1.5508901891 -2.6559045595 0.0264673119
H 3.0434833006 -0.8455798891 0.5311221329
H 2.4029761244 -0.6196575186 -1.0881526692
H 0.8351856915 1.1160600383 -0.2553240381
H 1.3524311100 0.8238119711 1.3976944744
H 2.4398735493 2.8413692618 0.4788020684
28
CONF621
C -3.1476820612 0.9037545383 -0.9412453461
C -3.5807066246 0.2608741165 0.3708798511
C -2.9354934634 -1.1011048331 0.6362476063
C -1.4101406447 -1.0502100929 0.8073213922
C -0.6514656994 -1.4582946303 -0.4557326625
C 0.8674888022 -1.4335157784 -0.2783495268
C 1.4341459952 -0.0202445267 -0.1635156245
C 2.9576945378 -0.0286463008 -0.0758508649
C 3.5493685023 1.3322633538 0.0547965871
O 2.9360948509 2.3714240362 0.1020784232
H -3.3286652524 0.2282294610 -1.7744663784
H -3.7102820706 1.8187162374 -1.1137479189
H -2.0913600919 1.1579415296 -0.9193437184
H -4.6655923982 0.1288226250 0.3573223741
H -3.3434799335 0.9356290887 1.1969534256
H -3.1876347023 -1.7814904199 -0.1798790633
H -3.3841917581 -1.5058849739 1.5460696007
H -1.1148179410 -1.7276235529 1.6119212924
H -1.1195813446 -0.0429515062 1.1079702870
H -0.9534442836 -2.4734511903 -0.7251753607
H -0.9249316523 -0.8032874994 -1.2833947763
H 1.1346685416 -2.0059680554 0.6126801163
H 1.3260998649 -1.9248966534 -1.1394932814
H 1.1320042727 0.5701652629 -1.0313239200
H 1.0374897236 0.4781425352 0.7220721889
H 3.2932909810 -0.6150141897 0.7837910851
H 3.3975035117 -0.4952361346 -0.9613415550
H 4.6543449205 1.3399061057 0.1105974962
28
CONF59
C -4.4287164970 -0.6967932196 0.7748444123
C -3.1151859349 0.0427845326 0.5473976107
C -2.4745364929 -0.3492121523 -0.7825574091
C -1.2340397120 0.4753213680 -1.1325293114
C -0.0724861354 0.3503917212 -0.1442590056
C 0.4798907950 -1.0676524264 -0.0355571976
C 1.7320501777 -1.1536847535 0.8371205247
C 2.9471384108 -0.4695479106 0.2065142349
C 2.9124597971 1.0176750974 0.2794033449
O 3.3327995000 1.7740557933 -0.5672170099
H -5.1405186896 -0.4623914926 -0.0136637757
H -4.2641960135 -1.7720374903 0.7773188171
H -4.8674352904 -0.4137894765 1.7286090689
H -2.4338104530 -0.1851785446 1.3683597615
H -3.2988143814 1.1197453329 0.5544412072
H -3.2095555158 -0.2052835050 -1.5785921773
H -2.2216498349 -1.4104483620 -0.7642767997
H -1.5201842998 1.5282509388 -1.1956876100
H -0.8840412365 0.1720377067 -2.1223976041
H 0.7254445338 1.0178170207 -0.4837087728
H -0.3881098216 0.6974253708 0.8411374975
H -0.2816483901 -1.7182913581 0.3962302753
H 0.7099124256 -1.4413087463 -1.0357583433
H 1.5287550139 -0.7064031350 1.8119711892
H 1.9740387280 -2.2055203298 0.9937306428
H 3.8407550022 -0.7575344586 0.7695685834
H 3.0891727587 -0.7840863869 -0.8286180848
H 2.5076483971 1.4203817286 1.2265700105
28
CONF422
C -4.9805761205 0.0954099694 -0.1338370087
C -4.0514409594 -1.1037332904 0.0211492425
C -2.6574057266 -0.7303984380 0.5285317160
C -1.8499080779 0.0848775481 -0.4803478257
C -0.4288900405 0.3987529648 -0.0051876487
C 0.4969570463 -0.8160728124 -0.0497128645
C 1.8999431199 -0.5267015299 0.4856013436
C 2.6835001667 0.4531170312 -0.3925396153
C 4.1226090070 0.5183463455 -0.0145269087
O 4.7889362160 1.5238569001 0.0498192230
H -5.0535852044 0.6428113527 0.8033625344
H -4.6199041234 0.7735914768 -0.9023932973
H -5.9773505828 -0.2353805889 -0.4161035640
H -3.9586430502 -1.6165730587 -0.9388929264
H -4.5009988559 -1.8056784805 0.7275939978
H -2.1213095094 -1.6525179222 0.7601578833
H -2.7537454529 -0.1611858763 1.4561593378
H -2.3658920179 1.0281538461 -0.6660395665
H -1.8009273147 -0.4587358879 -1.4267263469
H -0.0202634818 1.1832754611 -0.6439224877
H -0.4692361852 0.7872183762 1.0149317457
H 0.0661426165 -1.6173405399 0.5522984682
H 0.5680155548 -1.1758237047 -1.0782846334
H 1.8247875732 -0.1223338212 1.4966651981
H 2.4535131519 -1.4663609561 0.5418728107
H 2.6567012585 0.0958277947 -1.4269431370
H 2.2576751105 1.4559192683 -0.3652137652
H 4.5818131032 -0.4629619099 0.2076844381
28
CONF556
C -4.7525279304 0.2209801128 0.6478482329
C -3.5369743789 0.3860400473 -0.2568058943
C -2.4488730235 -0.6380759371 0.0591375434
C -1.2297254848 -0.4736891515 -0.8467562505
C -0.1189644653 -1.4787672550 -0.5292167744
C 0.6651906498 -1.1640229453 0.7537544320
C 2.0204365621 -0.5032391082 0.5000243041
C 1.9109090861 0.8878291845 -0.1170960265
C 3.2286056328 1.5647359579 -0.2746136741
O 4.3052070141 1.1030814489 0.0190049336
H -5.5122590031 0.9608291753 0.4076646286
H -5.1864084579 -0.7690366450 0.5260806649
H -4.4705062313 0.3441097696 1.6912131700
H -3.1310072314 1.3930963076 -0.1364036569
H -3.8436250978 0.2762336792 -1.2995997294
H -2.8560078085 -1.6445872633 -0.0635567998
H -2.1522018320 -0.5305358610 1.1043694976
H -0.8526194063 0.5452933753 -0.7532827289
H -1.5469151330 -0.6144802197 -1.8830070187
H -0.5754261724 -2.4668776825 -0.4425650971
H 0.5774233568 -1.5232650369 -1.3688588417
H 0.0705075007 -0.5194369600 1.4021174756
H 0.8482587269 -2.0909158804 1.2995288824
H 2.5608691198 -0.4192283337 1.4458095015
H 2.6218030526 -1.1362637023 -0.1560157031
H 1.4516519922 0.8443692497 -1.1075985361
H 1.2810469264 1.5372038331 0.4968979426
H 3.1633096170 2.5820685457 -0.7050868160
28
CONF375
C -4.6906186376 -0.2007398733 0.8985065503
C -4.1479603874 -0.8214465355 -0.3841421608
C -2.6263717886 -0.9768124783 -0.3792657776
C -1.8890061927 0.3618478916 -0.3904191006
C -0.3842468285 0.2230306426 -0.6302662248
C 0.3468627187 -0.4364273693 0.5380803884
C 1.8464622427 -0.6086347454 0.2921270693
C 2.5977880931 0.7237134493 0.2182737978
C 4.0751191130 0.5359931794 0.2393061454
O 4.8713787700 1.1383324644 -0.4406771148
H -4.3698029356 -0.7764698143 1.7638780097
H -4.3412379292 0.8215668811 1.0145498550
H -5.7778811766 -0.1870196500 0.8797979048
H -4.4457926186 -0.2081049109 -1.2377861686
H -4.5976376064 -1.8086433330 -0.5151648922
H -2.3322010288 -1.5458779604 -1.2647320691
H -2.3364317568 -1.5547331193 0.4998117249
H -2.0497129963 0.8800302843 0.5562191737
H -2.3106134069 0.9824116626 -1.1850940515
H -0.2164896594 -0.3618687288 -1.5376700983
H 0.0268621021 1.2200102283 -0.7966764456
H 0.1924167036 0.1578567221 1.4410068344
H -0.0805292073 -1.4245918208 0.7126644633
H 2.2681066165 -1.2035129340 1.1050337835
H 1.9987270892 -1.1590356484 -0.6380988984
H 2.3204513791 1.3004591393 -0.6638502535
H 2.3529901805 1.3145470487 1.1066628833
H 4.4291207321 -0.2229265468 0.9617867444
28
CONF44
C -4.3745176622 -0.6308397312 0.1353240896
C -3.5200845115 0.6264200616 0.2544534589
C -2.0299501363 0.3259651022 0.4229525269
C -1.4136212822 -0.3451520435 -0.8040294598
C 0.1148442647 -0.3896215255 -0.7622755812
C 0.6602078352 -1.2775948063 0.3528826155
C 2.1837709704 -1.3971805235 0.3286219420
C 2.8872251533 -0.0872471046 0.6915325504
C 2.8522665832 0.9375819600 -0.3884372519
O 2.7533153142 2.1321543701 -0.2220960743
H -4.1362328918 -1.1781868987 -0.7725375604
H -4.2079313421 -1.2849861190 0.9881668830
H -5.4291716674 -0.3675266527 0.1055181946
H -3.8577151773 1.2027106429 1.1191715207
H -3.6644728830 1.2484387380 -0.6320406564
H -1.8972182979 -0.3104493326 1.2994666019
H -1.5038063412 1.2660717419 0.6091756708
H -1.7188007905 0.2098205964 -1.6946964855
H -1.7941228528 -1.3634631895 -0.8983446459
H 0.4761437205 -0.7664408835 -1.7225980389
H 0.4966445929 0.6281136767 -0.6417286257
H 0.3512230522 -0.8815058604 1.3210744246
H 0.2298156141 -2.2756892424 0.2477089223
H 2.4841693817 -2.1584043443 1.0495456624
H 2.5101686203 -1.7230705648 -0.6608059013
H 2.4875630382 0.3371223266 1.6139425843
H 3.9504428024 -0.2937908907 0.8508542369
H 2.9760058893 0.5314039852 -1.4094112609
28
CONF631
C -4.2194535120 0.5115616630 -0.2043349289
C -3.0162401774 0.6561119098 0.7209284430
C -2.0486462143 -0.5259648131 0.6442057569
C -1.3365126943 -0.6341982362 -0.7046309739
C -0.2427106083 -1.7130139365 -0.7206017387
C 1.1762435512 -1.1542557948 -0.6023363863
C 1.4558044839 -0.4747796481 0.7366564844
C 2.8930268779 0.0358214380 0.8203217896
C 3.1475864979 1.2486299855 -0.0092087655
O 2.3235568490 1.8803461790 -0.6249718931
H -4.7409933464 -0.4220820130 -0.0051529021
H -4.9147742190 1.3333018340 -0.0494351698
H -3.9126432450 0.5203671466 -1.2467573399
H -3.3733459496 0.7466634996 1.7496627460
H -2.4792264611 1.5756497849 0.4759576386
H -2.5983582022 -1.4513162214 0.8335587774
H -1.3063370681 -0.4162602896 1.4363395694
H -0.8953320683 0.3320657262 -0.9597373635
H -2.0772682479 -0.8645924955 -1.4714686351
H -0.4193137639 -2.4227743440 0.0902217694
H -0.3007436718 -2.2699657573 -1.6579460632
H 1.8845500059 -1.9762338855 -0.7370455726
H 1.3437129888 -0.4359710920 -1.4082238037
H 0.7824358870 0.3739351917 0.8611980770
H 1.2747554669 -1.1838862423 1.5458657747
H 3.1463885596 0.3095722870 1.8485089892
H 3.6043335941 -0.7361045367 0.5174205210
H 4.2066919516 1.5696231664 -0.0175417310
28
CONF660
C -3.6447137104 0.3656090036 1.3162867150
C -3.6686863516 0.0699365122 -0.1795479993
C -2.2720648912 -0.0379021337 -0.7948446340
C -1.5212058249 -1.2968948612 -0.3605849307
C -0.1244292117 -1.4140565019 -0.9887246878
C 1.0172832748 -0.9922914430 -0.0619078429
C 0.9805789032 0.4842821088 0.3272546749
C 2.2008605112 0.8782989222 1.1579981265
C 3.4644585330 0.9786940785 0.3728973370
O 3.5751367876 0.8767075426 -0.8248479020
H -4.6574198330 0.4971002576 1.6901380005
H -3.1841744133 -0.4488204498 1.8689003776
H -3.0859822648 1.2779852094 1.5131680830
H -4.2109970384 0.8717621961 -0.6861585618
H -4.2136095939 -0.8599812643 -0.3577352047
H -1.6975747623 0.8511811064 -0.5323157798
H -2.3709819833 -0.0544250863 -1.8832839776
H -2.1213337273 -2.1621441290 -0.6516088194
H -1.4275745582 -1.3189091992 0.7254724722
H 0.0531318783 -2.4527183257 -1.2754866855
H -0.0826235643 -0.8161802176 -1.9014663531
H 0.9876577888 -1.6055047408 0.8424599017
H 1.9629119014 -1.1947928129 -0.5708773548
H 0.9599371346 1.0923563421 -0.5794857099
H 0.0793800428 0.6890078018 0.9045739190
H 2.0517559096 1.8575565910 1.6219263790
H 2.3656256656 0.1686749898 1.9721671539
H 4.3585435078 1.1827149970 0.9929084426
28
CONF602
C -4.4345832481 0.2819075530 0.9105591822
C -2.9626588930 0.1151083360 0.5497944330
C -2.7917660345 -0.5559679775 -0.8111307087
C -1.3378877570 -0.6544416581 -1.2785724147
C -0.4645748938 -1.5692333232 -0.4073870095
C 0.4109584598 -0.8209848162 0.6007671148
C 1.6066426183 -0.1385524701 -0.0597383964
C 2.4546433548 0.6222045515 0.9555831159
C 3.6309109058 1.3069899041 0.3503094903
O 3.9322232968 1.3016022255 -0.8189911468
H -4.9298562572 -0.6860236728 0.9449672510
H -4.5393502842 0.7562433000 1.8833775787
H -4.9418344707 0.8981787394 0.1712949323
H -2.4746882470 -0.4849825406 1.3190870406
H -2.4833472018 1.0966657713 0.5294012616
H -3.3545398595 0.0154893379 -1.5541135764
H -3.2255507280 -1.5583535593 -0.7736841210
H -0.9078262553 0.3477592018 -1.3105263879
H -1.3437920690 -1.0346312634 -2.3021768303
H -1.1103404082 -2.2677109774 0.1281314092
H 0.1903146625 -2.1639660640 -1.0476914031
H -0.1866895351 -0.0743781971 1.1245546748
H 0.7807122933 -1.5332853346 1.3418935276
H 2.2301252730 -0.8851297309 -0.5563931645
H 1.2691132691 0.5581945577 -0.8289514448
H 1.8594653966 1.3843235691 1.4659852099
H 2.8295411645 -0.0503389651 1.7317918320
H 4.2549475712 1.8584780507 1.0788575868
28
CONF705
C -3.2053981574 1.2302551745 0.4994094988
C -3.4188812044 -0.2596009459 0.2554324924
C -2.6115907167 -0.8008905074 -0.9260877141
C -1.0924703967 -0.7048111556 -0.7657936864
C -0.5640637467 -1.5180412850 0.4143237089
C 0.9566774315 -1.6899378783 0.4229379200
C 1.7375381466 -0.3854788201 0.6233896463
C 2.1754885295 0.2685132244 -0.6852924449
C 2.9053457119 1.5508643353 -0.4838590536
O 3.1325887891 2.0810250193 0.5774862383
H -2.1861361447 1.4344380220 0.8167656501
H -3.4046917515 1.7968495257 -0.4077033065
H -3.8767655911 1.5838156516 1.2785237084
H -4.4779495107 -0.4336474616 0.0496981873
H -3.1681380322 -0.8164024937 1.1595316526
H -2.9006690161 -0.2511384631 -1.8255444979
H -2.8829316051 -1.8484666960 -1.0794862991
H -0.8116499415 0.3422166969 -0.6502626597
H -0.6352633815 -1.0795696485 -1.6849533490
H -0.8667835342 -1.0462028557 1.3507650538
H -1.0190713495 -2.5114721725 0.3833337625
H 1.2038836278 -2.3722925092 1.2384239286
H 1.2733195124 -2.1664302885 -0.5067826710
H 1.1360127879 0.3245496067 1.1941401542
H 2.6352566043 -0.5817998968 1.2134248752
H 2.8336948326 -0.3976765178 -1.2493381604
H 1.3216296651 0.4807173874 -1.3322942366
H 3.2486187920 2.0258765428 -1.4224523206
28
CONF512
C -2.1870124350 1.5862982613 -0.3323175522
C -2.6410987256 0.1670103175 -0.6565335960
C -2.6133638465 -0.7671938588 0.5541681902
C -1.2135193437 -1.1068982444 1.0715374931
C -0.3773166441 -1.9351763162 0.0835112113
C 0.7100969113 -1.1218145924 -0.6212432941
C 1.8922174016 -0.8207523058 0.3005096100
C 2.8505404507 0.1909569965 -0.3238558737
C 2.3280922207 1.5878767975 -0.3070147439
O 1.3188227759 1.9650437758 0.2377227570
H -2.2951715664 2.2248070066 -1.2065989199
H -2.7904032690 2.0028469515 0.4715496221
H -1.1446106717 1.6159682283 -0.0238415557
H -2.0193950486 -0.2443752256 -1.4532064194
H -3.6670591644 0.2080373944 -1.0320261017
H -3.1233989825 -1.6977314849 0.2908919710
H -3.1802464571 -0.3010455392 1.3642257183
H -1.3328325711 -1.6645135530 2.0029164008
H -0.6907382656 -0.1818474753 1.3148110799
H 0.1020702364 -2.7634406044 0.6095961099
H -1.0403256187 -2.3714841247 -0.6660714204
H 1.0709225598 -1.6779076570 -1.4901866532
H 0.2854511135 -0.1831411613 -0.9788309988
H 1.5246266677 -0.4134538051 1.2439035628
H 2.4253698535 -1.7471269814 0.5184545233
H 3.8002134369 0.2129207405 0.2182127278
H 3.0849681731 -0.0730749954 -1.3575110623
H 2.9678986062 2.3132293889 -0.8442617866
28
CONF627
C -3.8305044011 0.9119659023 -0.2763937579
C -3.9695869688 -0.4318562539 0.4291957548
C -2.6277188572 -1.0948411323 0.7477226977
C -1.8292410946 -1.5014621962 -0.5001600087
C -0.6781803417 -0.5499996693 -0.8370714698
C 0.5184530497 -0.7266815716 0.0957693303
C 1.6383482015 0.2579467551 -0.2296393771
C 2.8491417429 0.0635689664 0.6785988379
C 3.9619684526 1.0118869842 0.3933884440
O 3.9642526333 1.8699496087 -0.4562798398
H -3.3621702694 0.7933472679 -1.2498277484
H -4.8095531216 1.3625009168 -0.4238485759
H -3.2270648597 1.5938956613 0.3189523130
H -4.5641559480 -1.1060997832 -0.1919053739
H -4.5134960653 -0.2837961292 1.3655304231
H -2.8283678454 -1.9810203733 1.3532211867
H -2.0360428810 -0.4116234179 1.3587375477
H -2.5088407924 -1.5558819875 -1.3526723118
H -1.4131826916 -2.5012756248 -0.3592854209
H -0.3507742197 -0.7374242713 -1.8626311554
H -1.0251173983 0.4828257269 -0.7866260545
H 0.2025352347 -0.5831969144 1.1307217167
H 0.8950107377 -1.7479653145 0.0031417979
H 1.9498394737 0.1344888621 -1.2690974348
H 1.2743763469 1.2820994611 -0.1233533601
H 2.5722419510 0.1889696096 1.7288512849
H 3.2488269968 -0.9494602796 0.5816610514
H 4.8453941674 0.8784805724 1.0461776482
28
CONF661
C -3.2769606783 -0.5283683256 -1.4047054970
C -3.5902502160 0.3253951276 -0.1818604749
C -2.7938326132 -0.0651911581 1.0651971150
C -1.2773326183 0.1323802880 0.9245926279
C -0.5297030544 -1.1667190147 0.6238430463
C 0.9767284715 -0.9640315720 0.4551115801
C 1.3417831130 -0.2697099614 -0.8566701661
C 2.8533633250 -0.1259911851 -1.0207257355
C 3.4606438506 0.9091940646 -0.1356195387
O 2.8667199671 1.6718713943 0.5872286880
H -3.4267550821 -1.5823092235 -1.1811356697
H -3.9321192223 -0.2563393856 -2.2293561783
H -2.2496628820 -0.3812814567 -1.7263005227
H -4.6547631815 0.2350971508 0.0486919418
H -3.3937371100 1.3746258365 -0.4152322404
H -3.0031866102 -1.1081153938 1.3123956733
H -3.1591610276 0.5440433702 1.8947832857
H -0.8749348191 0.5452848656 1.8526471073
H -1.0841658837 0.8650211916 0.1403375925
H -0.6980278151 -1.8589022441 1.4526551505
H -0.9314315663 -1.6296841238 -0.2781936633
H 1.3573969684 -0.3747982963 1.2923645144
H 1.4668520450 -1.9406203109 0.4828467539
H 0.9417699168 -0.8472252935 -1.6917195055
H 0.8957320118 0.7253811418 -0.8816753427
H 3.3614796030 -1.0739386548 -0.8290118207
H 3.1043024920 0.1623360919 -2.0455274501
H 4.5650800500 0.9528932468 -0.1943260997
28
CONF670
C -2.7738889094 1.1859429405 -1.0877743010
C -3.0878411519 0.3519574472 0.1500491508
C -1.8466233510 -0.2816450108 0.7816883701
C -1.2553087070 -1.4102197045 -0.0616570961
C -0.0502177332 -2.0837669340 0.5961484039
C 1.1977305010 -1.2108750306 0.7560939342
C 1.8298877504 -0.7605686573 -0.5679994255
C 1.3696615721 0.6222315707 -1.0278769227
C 1.9190995443 1.7404174340 -0.2103244078
O 2.7102360552 1.6471755768 0.6970666917
H -2.3645951060 0.5686908683 -1.8830138833
H -3.6791807433 1.6584101238 -1.4613068623
H -2.0573951011 1.9686682511 -0.8460393832
H -3.7991683079 -0.4341614873 -0.1127635796
H -3.5668099987 0.9946877151 0.8924659203
H -2.1186575846 -0.6880014058 1.7592037712
H -1.0997361373 0.4966672406 0.9508456921
H -0.9726207140 -1.0431788420 -1.0475895373
H -2.0287471612 -2.1686917839 -0.2093416558
H -0.3472107294 -2.4368873690 1.5870706615
H 0.2203328671 -2.9622063362 0.0049744833
H 0.9737286131 -0.3379350968 1.3702396529
H 1.9331489971 -1.7996489140 1.3083325013
H 2.9143032849 -0.7224841914 -0.4460035923
H 1.6064467259 -1.4942378751 -1.3434093618
H 1.6874882617 0.8085011727 -2.0579278888
H 0.2824125826 0.7121759407 -1.0177036180
H 1.5397125592 2.7371597198 -0.5092825755
28
CONF624
C -3.0547268114 0.9987991121 0.8535286163
C -3.5417301499 0.2575729082 -0.3858732280
C -2.9394286957 -1.1398597973 -0.5482246688
C -1.4174065651 -1.1432597459 -0.7527783579
C -0.6444545676 -1.4749793886 0.5239628656
C 0.8727714700 -1.4385598501 0.3341211273
C 1.4175022145 -0.0223526585 0.1626727681
C 2.9403552929 -0.0093818960 0.0656581581
C 3.5077754882 1.3565844998 -0.1116812535
O 2.8763246294 2.3831230040 -0.1866986323
H -1.9916692478 1.2138612766 0.7852326389
H -3.5830576767 1.9441592890 0.9565080676
H -3.2359986336 0.4063082688 1.7476757876
H -3.3097242356 0.8514263969 -1.2732958475
H -4.6289145533 0.1586784831 -0.3331319403
H -3.4189371985 -1.6072854946 -1.4110358077
H -3.1902696193 -1.7418588868 0.3276832528
H -1.1084418957 -0.1690800177 -1.1332408124
H -1.1548598710 -1.8855604325 -1.5100309063
H -0.9206817337 -0.7801844111 1.3176023098
H -0.9324608149 -2.4777784622 0.8491416835
H 1.3442517507 -1.8903668051 1.2098042542
H 1.1415370609 -2.0406301861 -0.5366101071
H 1.0078505455 0.4368660261 -0.7381075120
H 1.1112110673 0.5952863753 1.0099049661
H 3.3927535909 -0.4396968548 0.9631185889
H 3.2810382186 -0.6174642638 -0.7767078778
H 4.6119823150 1.3814220984 -0.1757345453
28
CONF720
C -4.6346112633 -0.1956030539 0.3209963280
C -3.5673365823 0.3474032092 -0.6229133879
C -2.1490321972 0.2544250352 -0.0553645501
C -1.6328035781 -1.1800672724 0.0304394687
C -0.2380944562 -1.3013165517 0.6492573267
C 0.8783758707 -0.6448701551 -0.1757943387
C 1.2911612216 0.7276369257 0.3575466748
C 2.3607419385 1.3796715195 -0.5170161144
C 3.7082346985 0.7519155284 -0.4008488474
O 4.0296996480 -0.1200248089 0.3695709563
H -4.5018245941 -1.2604331308 0.4927723197
H -4.5893155058 0.3162008587 1.2798367506
H -5.6244934787 -0.0431687602 -0.1028853287
H -3.7891302385 1.3965312679 -0.8324878269
H -3.6113453907 -0.1947461552 -1.5703101839
H -2.1310510946 0.7050453595 0.9397009775
H -1.4865136479 0.8330888854 -0.7007225868
H -1.6186716165 -1.6160708842 -0.9716877499
H -2.3203264558 -1.7726261915 0.6367521372
H -0.2503652587 -0.8687090420 1.6515687908
H -0.0185562095 -2.3652090345 0.7605247730
H 1.7607079400 -1.2880874692 -0.1657156103
H 0.5537514828 -0.5520194012 -1.2145213275
H 0.4223916373 1.3830704837 0.4094765917
H 1.6887791950 0.6085261235 1.3675936779
H 2.0709030532 1.3620734728 -1.5702240764
H 2.4903852848 2.4314079848 -0.2459325433
H 4.4564237159 1.1716298122 -1.1003332919
28
CONF508
C -4.2772688325 0.5299347400 0.2018508167
C -3.3664952949 -0.5105776536 0.8438757414
C -2.7062788294 -1.4437005429 -0.1727981046
C -1.7899463518 -0.7533627393 -1.1865019122
C -0.6315975215 0.0439102978 -0.5830550343
C 0.3468197097 -0.8237279695 0.2058947535
C 1.5242824698 -0.0334683790 0.7791573249
C 2.4960861175 0.4476254813 -0.3025539971
C 3.6130663554 1.2495596593 0.2666539128
O 4.7737681261 1.1747954345 -0.0607990205
H -4.7972608938 1.0997969144 0.9685040209
H -3.7075992294 1.2255675750 -0.4084651033
H -5.0203961036 0.0466634836 -0.4289300480
H -3.9587140606 -1.1220794364 1.5292648242
H -2.6019010931 -0.0079936650 1.4381066499
H -3.4913721348 -1.9624739630 -0.7289289262
H -2.1392762057 -2.2038281709 0.3678393505
H -2.3877044943 -0.0817616474 -1.8053670881
H -1.3788959190 -1.5210939786 -1.8469287456
H -0.1039580723 0.5295001610 -1.4064615166
H -1.0221096896 0.8301212842 0.0648310316
H -0.1813517615 -1.2896911927 1.0386245835
H 0.7234307936 -1.6220853866 -0.4368131959
H 1.1465018079 0.8266694841 1.3352566747
H 2.0692676972 -0.6710891173 1.4780273514
H 2.8974278031 -0.3887592683 -0.8765541407
H 1.9670780981 1.1128853455 -0.9909447115
H 3.3056796036 1.9690682608 1.0481473201
28
CONF404
C -5.0030455795 0.0618503902 0.1350004060
C -4.0630859862 -1.0797296804 -0.2371586393
C -2.6492887998 -0.9092186803 0.3220405191
C -1.8812648747 0.2394764746 -0.3298924166
C -0.4624737796 0.4081610793 0.2189905982
C 0.4864326495 -0.7064854481 -0.2182991983
C 1.8985623199 -0.5528523194 0.3485976029
C 2.6524005940 0.6350225195 -0.2573090952
C 4.0156126721 0.7839611622 0.3210582551
O 5.0203574431 1.0430387896 -0.2981748306
H -6.0095102548 -0.1496338846 -0.2184477739
H -5.0383662029 0.1876467488 1.2149472818
H -4.6789519007 0.9982281289 -0.3110517511
H -4.0112265490 -1.1672577956 -1.3247818161
H -4.4781774772 -2.0137803949 0.1489751165
H -2.1058296403 -1.8423205795 0.1636427418
H -2.7085586476 -0.7377009800 1.3994231795
H -2.4257410207 1.1699095953 -0.1609782840
H -1.8330534510 0.0743022312 -1.4087575072
H -0.0762906198 1.3669032109 -0.1318858741
H -0.5026039843 0.4431080316 1.3099876429
H 0.0921289382 -1.6657463806 0.1191904797
H 0.5344522996 -0.7332326158 -1.3087443639
H 1.8424203368 -0.4321619018 1.4319666558
H 2.4614822855 -1.4650927868 0.1415681424
H 2.7195936148 0.5507252939 -1.3428872045
H 2.1192024478 1.5591849190 -0.0170537637
H 4.0634808571 0.6443952767 1.4169713276
28
CONF633
C -4.1771720960 0.5879754759 0.1453803715
C -2.9908401155 0.5557924622 -0.8118386687
C -2.0502217522 -0.6258454348 -0.5708314854
C -1.3307149617 -0.5579021243 0.7768632484
C -0.2375690521 -1.6271732084 0.9271915366
C 1.1808149423 -1.0857236594 0.7408387149
C 1.4593772987 -0.5766845548 -0.6720231013
C 2.8886802141 -0.0559314430 -0.8108876152
C 3.1155848066 1.2563502909 -0.1398788214
O 2.2749944174 1.9488853365 0.3807670321
H -4.8569069902 1.3929248833 -0.1243858200
H -4.7237078354 -0.3516471396 0.1041824429
H -3.8478920708 0.7519533539 1.1678513228
H -2.4268580176 1.4872385545 -0.7203278852
H -3.3669356460 0.4970246694 -1.8361394620
H -1.3115243391 -0.6472444869 -1.3736623988
H -2.6217969171 -1.5557342482 -0.6242875336
H -2.0672742088 -0.6842068188 1.5714358660
H -0.8868130372 0.4325487822 0.9006328565
H -0.2956211948 -2.0637011721 1.9262935805
H -0.4137517013 -2.4319683369 0.2105244632
H 1.3460739794 -0.2724955389 1.4513805312
H 1.8908353395 -1.8830060837 0.9768249410
H 1.2963843314 -1.3855106369 -1.3859350005
H 0.7732503230 0.2376710025 -0.9071433053
H 3.6104777641 -0.7709159016 -0.4093208919
H 3.1453690035 0.0911311857 -1.8638982737
H 4.1700710937 1.5920237149 -0.1606095807
28
CONF40
C -4.3440777652 -0.6349085878 -0.2082351876
C -3.4889839941 0.6215259828 -0.3318813940
C -1.9925354916 0.3218000394 -0.4319522148
C -1.4176557589 -0.2875007458 0.8463382001
C 0.1107762655 -0.3490365030 0.8469201552
C 0.6727668889 -1.3381967533 -0.1703667567
C 2.1981279906 -1.4274035799 -0.1331209631
C 2.8776063494 -0.1596814794 -0.6568813552
C 2.8171130125 0.9925351886 0.2847295972
O 2.6827396478 2.1531528329 -0.0311680977
H -4.1442617967 -1.3123508951 -1.0353874732
H -4.1379873731 -1.1554524875 0.7229440868
H -5.3998314814 -0.3748599622 -0.2248923098
H -3.6702241124 1.2701435012 0.5284482768
H -3.7936185529 1.1694044850 -1.2268104698
H -1.4627024815 1.2547509113 -0.6429002054
H -1.8259884303 -0.3535187213 -1.2728605286
H -1.8125393094 -1.2949516076 0.9868206370
H -1.7401864380 0.3197306604 1.6958285602
H 0.5054587825 0.6505490552 0.6439563519
H 0.4473180088 -0.6404913774 1.8451681502
H 0.2585755538 -2.3270245624 0.0372840611
H 0.3595658140 -1.0499597359 -1.1746294647
H 2.5294030343 -1.6225880060 0.8885715717
H 2.5133034817 -2.2659387770 -0.7551325098
H 3.9453319793 -0.3636649629 -0.7861106748
H 2.4734349374 0.1365257849 -1.6262076384
H 2.9580844095 0.7229801143 1.3478580245
28
CONF600
C -4.3469435364 -0.5168211883 0.5288630710
C -3.3213905390 -0.8794898753 -0.5393611992
C -2.2916475271 0.2243842151 -0.7869742036
C -1.4133301382 0.5711914414 0.4175500880
C -0.5875107487 -0.5918034817 0.9724256904
C 0.3576892816 -1.2544581069 -0.0321135011
C 1.3854156609 -0.3170457070 -0.6673458354
C 2.3576852487 0.2711208001 0.3592636521
C 3.3422014854 1.1920024405 -0.2705852195
O 4.5222602354 1.2457862907 -0.0159847289
H -3.8793120549 -0.4239410543 1.5054927204
H -4.8304824576 0.4272588969 0.2866346958
H -5.1122154056 -1.2869889707 0.5927834914
H -3.8453657207 -1.0704938123 -1.4793363483
H -2.8149720543 -1.8037940847 -0.2572750652
H -2.8218763828 1.1309228768 -1.0907399364
H -1.6569007908 -0.0741426019 -1.6234165282
H -2.0456501281 0.9527248804 1.2214345890
H -0.7461846867 1.3852982952 0.1271943726
H -0.0117350906 -0.2257787085 1.8250559123
H -1.2628450108 -1.3588093530 1.3555069425
H 0.8871911118 -2.0614535406 0.4794081554
H -0.2296772658 -1.7084844081 -0.8314589986
H 1.9557915646 -0.8822166087 -1.4075040895
H 0.8768910723 0.4930760231 -1.1907967567
H 1.7967286578 0.8738647329 1.0793183627
H 2.8827362922 -0.5138700461 0.9055095461
H 2.9098829949 1.8740925697 -1.0262597105
28
CONF618
C -3.4031105684 1.2796152571 0.1316214117
C -3.5422874552 -0.0756701586 -0.5550074840
C -3.0659021938 -1.2478547725 0.3159445128
C -1.6592614021 -1.7486788772 -0.0190884898
C -0.5562934747 -0.7255031850 0.2428107296
C 0.8285822396 -1.3238020031 -0.0009046243
C 1.9692951863 -0.3668276237 0.3423531367
C 2.0404094529 0.8393880274 -0.5905878530
C 3.2442028965 1.6867481356 -0.3630650925
O 4.1067661900 1.4908892047 0.4591207842
H -4.0181390876 1.3122309230 1.0284765174
H -2.3737113936 1.4724726932 0.4193673839
H -3.7298509633 2.0758288740 -0.5338134207
H -2.9838722049 -0.0700524943 -1.4929500050
H -4.5947578289 -0.2202894924 -0.8082330870
H -3.7522342820 -2.0880726129 0.1901119605
H -3.1020895152 -0.9551676017 1.3672202880
H -1.6279902489 -2.0493945219 -1.0692169228
H -1.4608537628 -2.6403016778 0.5815219198
H -0.7024459570 0.1330476182 -0.4120919989
H -0.6221572642 -0.3822034995 1.2778802460
H 0.9356362782 -2.2216156574 0.6117898579
H 0.9125525647 -1.6288512310 -1.0463707222
H 1.8611081487 -0.0172310081 1.3710794569
H 2.9193322270 -0.9026188132 0.2834297957
H 2.0599287630 0.5192766602 -1.6360128384
H 1.1659582063 1.4839213405 -0.4760447212
H 3.3106067240 2.5637790031 -1.0343725808
28
CONF583
C -2.6975919149 1.5703026805 0.3834399502
C -3.2561633447 0.1580733172 0.2427470977
C -2.1801912729 -0.9215133726 0.3758013874
C -1.2958662496 -1.0320164883 -0.8668763997
C -0.1135520979 -1.9953996052 -0.6806994449
C 1.2236871103 -1.2783279808 -0.4880885693
C 1.2921659407 -0.4618534201 0.8010652133
C 2.6107895873 0.3006197900 0.9127720868
C 2.6875292098 1.4867156427 0.0115663320
O 1.7934886818 1.9233936009 -0.6721119527
H -3.4933793533 2.3043308131 0.2806355491
H -2.2372162239 1.6997464739 1.3608080038
H -1.9476619837 1.7763634395 -0.3765206547
H -3.7507929954 0.0559236831 -0.7258014502
H -4.0110851154 0.0034066693 1.0171404671
H -2.6636172409 -1.8872933887 0.5431918211
H -1.5677593265 -0.7045267347 1.2522517942
H -0.9112459959 -0.0473993564 -1.1363630862
H -1.9195066919 -1.3701910581 -1.6974576635
H -0.3018506385 -2.6453877880 0.1762099560
H -0.0253143543 -2.6352300471 -1.5608256411
H 2.0244834835 -2.0225457676 -0.4813768392
H 1.3935306075 -0.6148677001 -1.3394440343
H 0.4776250064 0.2627195159 0.8154277925
H 1.1790708524 -1.1279674682 1.6575775195
H 2.7549728190 0.6789846040 1.9287756125
H 3.4629671198 -0.3472981309 0.6953976734
H 3.6734946764 1.9893809218 0.0162558366
28
CONF669
C -3.7091760659 -1.5315726662 0.4979097507
C -3.8684820754 -0.3567071912 -0.4598203163
C -2.5388521608 0.2722689524 -0.8822489183
C -1.7767735072 0.9402571062 0.2722844985
C -0.6179726577 0.1026893852 0.8189157597
C 0.5976945796 0.1118074198 -0.1057033210
C 1.7272071152 -0.7609864629 0.4387227863
C 2.9498228863 -0.7530051506 -0.4765633636
C 3.7241736592 0.5208812223 -0.4426362642
O 3.5283088241 1.4601288023 0.2897719148
H -4.6790501962 -1.9740577623 0.7142234714
H -3.0744963131 -2.2974911636 0.0575988493
H -3.2665104004 -1.2095439342 1.4366031777
H -4.4936812310 0.4080463329 0.0072109205
H -4.3880069876 -0.7012177722 -1.3575391965
H -2.7513481051 1.0171363491 -1.6519943101
H -1.9157040501 -0.4975525118 -1.3396859668
H -2.4772769337 1.1536484470 1.0820150496
H -1.3726786281 1.8988691116 -0.0607658556
H -0.3176325719 0.5044375880 1.7896719679
H -0.9458571026 -0.9262252188 0.9728259209
H 0.3098521588 -0.2467700952 -1.0963660857
H 0.9575485259 1.1375393262 -0.2141922759
H 2.0208965759 -0.3918550070 1.4235525716
H 1.3685186837 -1.7851689179 0.5523332447
H 3.6497994568 -1.5437009137 -0.1917601579
H 2.6645729645 -0.9461312317 -1.5133109263
H 4.5589661119 0.5534473364 -1.1687829172
28
CONF329
C -3.1676027303 1.7269397639 -0.0236653521
C -2.6518980994 0.4173030852 -0.6076959771
C -1.5936126755 -0.2197915220 0.2904075626
C -1.0208938646 -1.4973669891 -0.3198262119
C -0.0073791465 -2.2054717131 0.5799864449
C 1.2548382732 -1.4116470127 0.9279260202
C 2.1604119181 -1.0810244664 -0.2670429535
C 1.8599720171 0.2802235833 -0.9021205222
C 2.0266437497 1.3893957222 0.0786990911
O 1.2713421665 2.3218780365 0.2222800914
H -3.9131353495 2.1730732969 -0.6774000833
H -3.6205796647 1.5576440534 0.9507887495
H -2.3484442645 2.4331447375 0.0986476749
H -2.2200918824 0.6097061772 -1.5927963481
H -3.4841351770 -0.2777980483 -0.7412405957
H -2.0374988447 -0.4518001322 1.2617945784
H -0.8008029838 0.5111230577 0.4591111055
H -0.5676554271 -1.2730624003 -1.2863181881
H -1.8458126229 -2.1899470984 -0.5078504985
H -0.5054916802 -2.4710784348 1.5158587224
H 0.2933648684 -3.1369427098 0.0942102362
H 0.9824070808 -0.4897089241 1.4452356828
H 1.8249543845 -2.0186581271 1.6347074868
H 3.1987175411 -1.0746257898 0.0698594080
H 2.0625474208 -1.8585737224 -1.0249480178
H 2.5843290581 0.4629955140 -1.7013567709
H 0.8608738666 0.3256157345 -1.3323977040
H 2.9346772755 1.3123941152 0.7053727959
28
CONF648
C -4.8872510409 -0.0345670082 0.0172876294
C -3.4170771530 0.1593770763 -0.3358829844
C -2.5017048971 -0.3149630338 0.7913458168
C -1.0157111529 -0.0662313065 0.5211102397
C -0.4408137806 -0.9929689247 -0.5482705668
C 1.0129089883 -0.6938226646 -0.9218154490
C 2.0167780444 -0.9080238118 0.2195150315
C 2.3552602562 0.3761426917 0.9754314384
C 3.2364549675 1.3033494185 0.2094968996
O 3.7301942344 1.0944541867 -0.8722473541
H -5.0990392128 -1.0858882042 0.1991707017
H -5.1414723091 0.5255084358 0.9145818075
H -5.5244088934 0.3088541040 -0.7941093835
H -3.2280346015 1.2176576120 -0.5309659295
H -3.1959881042 -0.3914329334 -1.2515520299
H -2.6631257547 -1.3817975542 0.9624233222
H -2.7832031522 0.2115070039 1.7067805571
H -0.4721992842 -0.2204396147 1.4546102540
H -0.8794342142 0.9730464866 0.2116277110
H -0.5138963991 -2.0263659131 -0.2010753885
H -1.0415590019 -0.9083459657 -1.4555650204
H 1.2816324772 -1.3499155793 -1.7520078824
H 1.0939453711 0.3310840121 -1.2897673974
H 1.6219390931 -1.6486589970 0.9155597221
H 2.9471434612 -1.3012767473 -0.1949550222
H 1.4566722945 0.9291738090 1.2536363705
H 2.8832636804 0.1474282493 1.9055871169
H 3.4358102846 2.2595723093 0.7306293362
28
CONF629
C -4.3561786376 0.1694269173 -0.3457708799
C -3.0167554897 0.8807332753 -0.1872755476
C -1.9832948879 0.0624891975 0.5888907689
C -1.5357757700 -1.1991124216 -0.1502891981
C -0.3858505625 -1.9343898912 0.5540762110
C 0.9950874922 -1.6566167482 -0.0432039847
C 1.4493186004 -0.2075343751 0.1056576322
C 2.8772658575 -0.0097501616 -0.3961274273
C 3.3535220063 1.3966265097 -0.2750856328
O 2.7185850866 2.3255720161 0.1631230912
H -4.2543742234 -0.7236331887 -0.9563386090
H -4.7492491455 -0.1192758556 0.6265594830
H -5.0770683005 0.8273016152 -0.8255966933
H -3.1792724394 1.8232234779 0.3411917481
H -2.6159819284 1.1232528044 -1.1743610447
H -2.4059650351 -0.2212270417 1.5559352671
H -1.1173725306 0.6972499353 0.7833405480
H -1.2321060923 -0.9340289912 -1.1651125679
H -2.3898507913 -1.8727386257 -0.2323060682
H -0.3806997311 -1.6669252851 1.6126248696
H -0.5598012440 -3.0106493505 0.4923759383
H 1.7199164634 -2.3051432633 0.4550178686
H 0.9850834742 -1.9247296418 -1.1021173033
H 0.7892866765 0.4547440426 -0.4559430855
H 1.3986463952 0.0900808370 1.1552923792
H 3.5772509387 -0.6421318141 0.1566452378
H 2.9633531279 -0.2961259155 -1.4477863838
H 4.3889403099 1.5544668126 -0.6316990687
28
CONF613
C -4.5365458701 0.7037284113 -0.1562762112
C -3.3594179306 -0.1611660470 -0.5923208503
C -2.7386720857 -0.9052867492 0.5898808310
C -1.5238161573 -1.7613635820 0.2025060087
C -0.1727251610 -1.1270394425 0.5421167885
C 0.1120570552 0.1579096687 -0.2324344489
C 1.4798126964 0.7600518624 0.0894739714
C 2.6439608851 -0.0744784965 -0.4382465734
C 3.9670627158 0.5858344956 -0.2598485998
O 4.1614183053 1.6634728820 0.2495217503
H -4.9738535719 1.2147444218 -1.0105858724
H -5.3066252573 0.0930172621 0.3101644778
H -4.2132277532 1.4528540398 0.5633298629
H -2.6091324145 0.4680431288 -1.0726943295
H -3.7019337676 -0.8894661156 -1.3312526606
H -3.5090208454 -1.5453307452 1.0261163763
H -2.4482374961 -0.1852813823 1.3577373214
H -1.5599859466 -1.9764382817 -0.8674210644
H -1.5795389953 -2.7175504768 0.7269437911
H -0.1369560873 -0.9145045396 1.6132772209
H 0.6049469790 -1.8615782925 0.3247652084
H 0.0473308528 -0.0427473426 -1.3041634789
H -0.6489703739 0.8982817862 0.0160236525
H 1.5471307999 1.7571195393 -0.3516147161
H 1.5858390382 0.8791408891 1.1696909714
H 2.6984761592 -1.0443754691 0.0614567866
H 2.5216603307 -0.2780595272 -1.5056229322
H 4.8199307885 -0.0035823261 -0.6464826381
28
CONF506
C -4.3043883159 -1.0648170083 -0.4315085536
C -3.7062215189 -0.1007463920 0.5870207039
C -2.5944180406 0.7769788765 0.0082625263
C -1.3544821256 0.0224661027 -0.4775129766
C -0.5788063345 -0.6489572680 0.6542049852
C 0.6242453342 -1.4599484941 0.1683958658
C 1.7060791580 -0.6535563577 -0.5520984354
C 2.3475519410 0.4064087068 0.3478143027
C 3.3979815003 1.1809752774 -0.3668844379
O 4.4686373323 1.5065376228 0.0891239730
H -3.5767303262 -1.8108176356 -0.7393465532
H -5.1577606709 -1.5840928082 -0.0016171059
H -4.6404990855 -0.5248137112 -1.3141214975
H -3.3300588236 -0.6633838696 1.4427876872
H -4.4973241521 0.5571479244 0.9551916194
H -2.2893763447 1.4981144263 0.7709871883
H -3.0057511271 1.3423895103 -0.8318283330
H -0.7080235045 0.7426931790 -0.9822866887
H -1.6450285370 -0.7284166123 -1.2135784348
H -0.2561978183 0.1078862611 1.3715878891
H -1.2419286787 -1.3339633771 1.1848797828
H 1.0747768935 -1.9600726594 1.0284872739
H 0.2697173988 -2.2354256387 -0.5140498694
H 2.4813354998 -1.3449558940 -0.8886616166
H 1.2859691043 -0.1737672072 -1.4364233229
H 1.5854732708 1.1327338361 0.6444650300
H 2.7665204939 -0.0388553568 1.2513307793
H 3.1282356818 1.4690469993 -1.4000654529
28
CONF609
C -4.9316599756 0.1827750307 -0.2472805709
C -3.6056398597 -0.5574877535 -0.1146144732
C -2.5130184125 0.3434013626 0.4586285955
C -1.1966666398 -0.3879219543 0.7292398239
C -0.4794933772 -0.8287986312 -0.5474923683
C 0.8821598467 -1.4888872140 -0.2814670554
C 2.0800103066 -0.5609467121 -0.4848876000
C 2.1384518784 0.5955846691 0.5083245844
C 3.3889817027 1.3983183763 0.3975090801
O 4.2926135786 1.2038636484 -0.3796215882
H -5.2701286635 0.5375046213 0.7238592724
H -4.8239535412 1.0416168461 -0.9061569454
H -5.6959271709 -0.4719819321 -0.6589933482
H -3.3049484404 -0.9258460883 -1.0966295676
H -3.7381003118 -1.4219904375 0.5400421325
H -2.8745911811 0.7689707873 1.3981553926
H -2.3328177844 1.1724629196 -0.2299912454
H -1.3988425813 -1.2670099608 1.3458258175
H -0.5472287997 0.2734690844 1.3037505329
H -1.1186532329 -1.5397363978 -1.0724357009
H -0.3458161504 0.0320337057 -1.2057762785
H 0.9008099975 -1.8866442200 0.7348937156
H 1.0074027838 -2.3334232611 -0.9612242901
H 3.0003046586 -1.1420303331 -0.3886385571
H 2.0627452351 -0.1572265133 -1.4994300863
H 1.3011514247 1.2826921691 0.3664460032
H 2.0783007497 0.2279445357 1.5363382131
H 3.4495918423 2.2382067273 1.1153066244
28
CONF569
C -4.0685867752 1.0287077184 -0.5028826320
C -2.9180365588 0.6858169064 0.4359478402
C -2.0105172385 -0.3948024921 -0.1474129861
C -0.8685336701 -0.7557358279 0.8004994930
C 0.0784055331 -1.8016996951 0.2047161975
C 1.0264103325 -1.2372722404 -0.8634682773
C 2.4488166839 -0.9816034280 -0.3580911226
C 2.5264636416 0.0291613201 0.7845468866
C 2.1120308245 1.4124426353 0.4150290244
O 1.8345120618 1.8122445739 -0.6895079715
H -4.6977166077 1.8031355652 -0.0710838657
H -3.6865203557 1.3877117473 -1.4559976318
H -4.6822223938 0.1502739796 -0.6893454635
H -3.3196230956 0.3428538147 1.3924203429
H -2.3268399289 1.5847614272 0.6277289791
H -1.6017889432 -0.0402593352 -1.0961588887
H -2.6026849658 -1.2889297335 -0.3567033463
H -1.2953290379 -1.1448935975 1.7282973848
H -0.3164092472 0.1542044675 1.0446330981
H 0.6679023524 -2.2550835693 1.0039876476
H -0.5305513403 -2.5959770671 -0.2314392100
H 1.0960174088 -1.9395847740 -1.6960459842
H 0.6236458430 -0.3059497544 -1.2626652102
H 2.8844699783 -1.9241231272 -0.0216862282
H 3.0472809963 -0.6103646563 -1.1927884504
H 1.9241031063 -0.2894952913 1.6371782461
H 3.5560630252 0.1065934627 1.1469069686
H 2.0825898136 2.1098533393 1.2753224087
28
CONF784
C -3.7537258198 0.5508698758 -0.5885077676
C -2.4034961913 0.7845807986 0.0800256096
C -1.9892987440 -0.3519393260 1.0166930195
C -1.7634798080 -1.7017107223 0.3333784854
C -0.6269310700 -1.7461564604 -0.6911843518
C 0.7714204974 -1.5296147889 -0.0955005832
C 1.2844210384 -0.0988709462 -0.2487876097
C 2.6818370855 0.0643381571 0.3431856005
C 3.2218191005 1.4462442723 0.2091204739
O 2.6570114254 2.3827645583 -0.3026117830
H -4.5203519897 0.3580318143 0.1592008724
H -4.0460857079 1.4278973429 -1.1614426127
H -3.7122865648 -0.2968768988 -1.2672763249
H -2.4560068337 1.7056650740 0.6664637768
H -1.6418830017 0.9334662386 -0.6870132798
H -2.7730231469 -0.4809791712 1.7681280144
H -1.0809837721 -0.0598764654 1.5463397602
H -2.6868074789 -2.0057169651 -0.1631920321
H -1.5576781949 -2.4438770202 1.1091357089
H -0.6599161039 -2.7312307418 -1.1620312841
H -0.8067132350 -1.0111533350 -1.4765296213
H 0.7594091448 -1.8008245765 0.9619578234
H 1.4779893740 -2.1964219976 -0.5945664428
H 1.3168294933 0.1681202136 -1.3076009078
H 0.6118739490 0.6062733462 0.2402563439
H 2.6856053961 -0.1869323143 1.4073359229
H 3.3915206188 -0.6137924015 -0.1385815983
H 4.2360317262 1.5766466066 0.6317998394
28
CONF70
C -4.2424073855 0.7440619215 0.2830764194
C -3.5353048780 -0.2195563571 -0.6637173923
C -2.0098600953 -0.1144517497 -0.6105831617
C -1.4196875764 -0.6185245711 0.7052262196
C 0.1039471379 -0.4927530521 0.7701688434
C 0.8326190265 -1.4570746874 -0.1618518986
C 2.3536492729 -1.3679965892 -0.0398866898
C 2.9148386578 -0.0489875336 -0.5762333529
C 2.6798881086 1.1174976230 0.3192923918
O 2.4479752761 2.2482096239 -0.0442575382
H -3.9235231601 1.7662654627 0.0911969525
H -5.3190909784 0.6881598211 0.1414898540
H -4.0256693468 0.5050268568 1.3207063711
H -3.8611761725 -0.0076311105 -1.6847479903
H -3.8327719581 -1.2437925770 -0.4280621036
H -1.7148661508 0.9271815510 -0.7609853198
H -1.5991786682 -0.6980990591 -1.4363180752
H -1.7018550335 -1.6639638891 0.8504736625
H -1.8437707880 -0.0415831276 1.5286083840
H 0.3838003374 0.5361445034 0.5274698841
H 0.4243322425 -0.6887188675 1.7966227513
H 0.5217135950 -2.4762896031 0.0770381365
H 0.5490555772 -1.2567643405 -1.1959255345
H 2.6453549884 -1.4892942677 1.0050332920
H 2.7963763521 -2.1856915553 -0.6097830353
H 4.0038090442 -0.1354513262 -0.6478199900
H 2.5310861228 0.1705984998 -1.5738118775
H 2.7819535577 0.8949056373 1.3975814863
28
CONF796
C -2.7829846404 0.9298936261 -1.0704042879
C -2.2997019118 0.8169954742 0.3707616577
C -2.4753335432 -0.5849375480 0.9560770866
C -1.6414986959 -1.6898289812 0.3015938012
C -0.1254090496 -1.5345197235 0.4868593729
C 0.5688275997 -0.8776332135 -0.7064469376
C 2.0931710550 -0.8414564842 -0.5754727923
C 2.5902255707 0.0483422642 0.5630782458
C 2.3212333373 1.5022634499 0.3745222595
O 1.8244136395 2.0248487767 -0.5934745168
H -2.7077272101 1.9596352890 -1.4123877271
H -2.1842283871 0.3111279468 -1.7332904888
H -3.8215928138 0.6153761491 -1.1480786087
H -2.8724573482 1.5148608233 0.9873082831
H -1.2530297203 1.1203047932 0.4301994471
H -3.5303525541 -0.8599026603 0.8748596767
H -2.2292402986 -0.5497479715 2.0206689188
H -1.8772693095 -1.7490218216 -0.7614574230
H -1.9551345360 -2.6343804927 0.7521938430
H 0.0567825387 -0.9569959840 1.3944099265
H 0.3185004565 -2.5226475711 0.6304162083
H 0.3208162343 -1.4448261037 -1.6070514631
H 0.2036320298 0.1385369392 -0.8511412919
H 2.4654280444 -1.8555409285 -0.4191683212
H 2.5098753976 -0.4666873130 -1.5127288504
H 2.1572665473 -0.2504203955 1.5196510608
H 3.6739363148 -0.0516665086 0.6731326989
H 2.6360813759 2.1246466763 1.2347024871
28
CONF651
C -3.8966889540 0.3639618074 -0.9816124716
C -2.6313859107 0.7994890025 -0.2504416173
C -2.2976505542 -0.1100727807 0.9346514485
C -1.7330727629 -1.4797562287 0.5277540427
C -0.2208556187 -1.6023385345 0.7240743666
C 0.5885275241 -0.6747095351 -0.1784711153
C 2.0908878677 -0.8846325502 0.0050513811
C 2.9116322024 0.0490109622 -0.8821964794
C 2.8988031716 1.4727368940 -0.4387680881
O 2.3973898161 1.9050447927 0.5704836835
H -3.7970054277 -0.6482448477 -1.3653783072
H -4.7505095838 0.3895008657 -0.3080080378
H -4.0995871395 1.0281594585 -1.8184159477
H -2.7720031740 1.8188218308 0.1173444769
H -1.7938165034 0.8149370889 -0.9494733060
H -3.2081515339 -0.2477305557 1.5218088653
H -1.5749190497 0.3953992795 1.5784184670
H -1.9698794059 -1.6801268819 -0.5183346840
H -2.2118030400 -2.2595275438 1.1233318258
H 0.0237345151 -1.3900776277 1.7676282192
H 0.0735470366 -2.6353338714 0.5208036385
H 0.3200778377 -0.8631114967 -1.2211017931
H 0.3472813401 0.3637761457 0.0530126529
H 2.3518095150 -0.6991098425 1.0490424336
H 2.3428364728 -1.9200524916 -0.2296362061
H 3.9614382664 -0.2574121900 -0.8968735933
H 2.5614151063 0.0149430474 -1.9164287278
H 3.4266347047 2.1584492049 -1.1289868335
28
CONF616
C -3.4844077477 1.2401526527 0.1703689861
C -3.6801674120 -0.2564843544 0.3921217502
C -3.0101119697 -1.1244829699 -0.6831054667
C -1.6471474261 -1.6901017688 -0.2780399596
C -0.5687498858 -0.6296515128 -0.0663780951
C 0.7952459220 -1.2685648270 0.1923677150
C 1.8835141691 -0.2526627549 0.5364678176
C 2.2379825008 0.6621395928 -0.6330102770
C 3.4047403450 1.5452409335 -0.3544125297
O 4.0408394889 1.5808484768 0.6715333518
H -3.9158770943 1.5397310310 -0.7823741464
H -3.9763123672 1.8052418997 0.9592399003
H -2.4311337763 1.5045961505 0.1665583214
H -4.7533530769 -0.4595931257 0.3986157744
H -3.2940922191 -0.5338215709 1.3749197796
H -2.9009443016 -0.5427247291 -1.6005654968
H -3.6610520364 -1.9711940660 -0.9118453898
H -1.3137915060 -2.3741657723 -1.0629009009
H -1.7614181340 -2.2756360147 0.6375331653
H -0.5207692883 0.0041539428 -0.9533457070
H -0.8316813242 -0.0043796704 0.7880937230
H 0.7002943191 -1.9680443756 1.0257833889
H 1.0998457083 -1.8436066595 -0.6848986698
H 1.5650932125 0.3577228703 1.3839749122
H 2.7875993760 -0.7827770485 0.8442205010
H 2.4781259456 0.0754663329 -1.5239837761
H 1.3995881247 1.3093907329 -0.9000908529
H 3.6765108897 2.2107081835 -1.1955752422
28
CONF588
C -4.4125410305 0.7430858292 -0.3906940057
C -3.0591666816 0.0461571690 -0.4766966960
C -2.8609088466 -0.9350196472 0.6762489855
C -1.5642164608 -1.7435336855 0.5967246124
C -0.2889359033 -0.8951755021 0.7152339477
C 0.3586617296 -0.6012638734 -0.6390538938
C 1.4852074572 0.4277757265 -0.5551521634
C 2.6883922469 -0.0631641352 0.2455093180
C 3.8359112854 0.8860718093 0.2200894913
O 3.8644105869 1.9522057603 -0.3464638812
H -4.5357396556 1.4425024412 -1.2141256254
H -5.2207682437 0.0161150297 -0.4332387996
H -4.4980513056 1.2940824464 0.5434550942
H -2.2716782552 0.8008996352 -0.4583719352
H -2.9902624240 -0.4924512334 -1.4247566766
H -3.7020417010 -1.6332958802 0.6869655875
H -2.8818063486 -0.3849999803 1.6204473443
H -1.5443887517 -2.3000727375 -0.3424611838
H -1.5842466204 -2.4755987289 1.4067834875
H -0.5269311670 0.0460652092 1.2146939220
H 0.4306688261 -1.4245915523 1.3411898425
H 0.7478369372 -1.5311585271 -1.0597977949
H -0.3983926591 -0.2231379907 -1.3263729856
H 1.8215792533 0.6775816973 -1.5639193128
H 1.1103107600 1.3493601361 -0.1048326227
H 2.4273052972 -0.2245233872 1.2939322308
H 3.0462599326 -1.0214389875 -0.1404963170
H 4.7204575038 0.5386366137 0.7867662098
28
CONF30
C -4.1759188503 -0.3311053400 0.5611306361
C -3.2173873598 0.8340344209 0.3404992912
C -2.0551211706 0.4903381021 -0.5924586331
C -1.0829593608 -0.5288003883 -0.0014066567
C 0.1117342752 -0.7593292426 -0.9248370652
C 1.1230777966 -1.7642487178 -0.3750596533
C 1.9343799408 -1.2526435624 0.8158458742
C 2.8603078712 -0.0919311073 0.4461218219
C 2.1602696234 1.2100074003 0.2617779851
O 2.4655097667 2.0665066654 -0.5376403114
H -5.0241367962 -0.0113970107 1.1617565681
H -4.5495101162 -0.6996304216 -0.3916096309
H -3.6835922414 -1.1495069408 1.0791586544
H -2.8211503873 1.1655863161 1.3030655624
H -3.7725097884 1.6698317811 -0.0918186042
H -1.5036166367 1.4075836755 -0.8178334398
H -2.4523240441 0.1077410187 -1.5356450221
H -1.5941976320 -1.4794410749 0.1574495894
H -0.7427750795 -0.1653021759 0.9698815744
H -0.2585554399 -1.1247313728 -1.8856779052
H 0.6125982196 0.1939750085 -1.1165119878
H 0.5920611108 -2.6693973269 -0.0735010861
H 1.8145960519 -2.0383758380 -1.1747710297
H 1.2658833477 -0.9431846899 1.6196707597
H 2.5460341535 -2.0741668539 1.1907073551
H 3.5547091432 0.0781275109 1.2753074817
H 3.4516292638 -0.3202629333 -0.4421866422
H 1.3320834223 1.3905857980 0.9718944886
28
CONF795
C -2.7652861699 1.0360118850 0.9549835549
C -2.2723842393 0.7835492427 -0.4650585097
C -2.4639250423 -0.6639445573 -0.9200590595
C -1.6427383638 -1.7133051300 -0.1656690682
C -0.1248953973 -1.5875857824 -0.3592089722
C 0.5712023850 -0.8391361163 0.7777433648
C 2.0941967088 -0.7983310483 0.6335379278
C 2.5744542696 0.0222514630 -0.5627876559
C 2.2967429632 1.4832891539 -0.4616463217
O 1.8056406790 2.0613791314 0.4772560516
H -3.8126527286 0.7570158982 1.0484775988
H -2.1896346379 0.4626101691 1.6765444115
H -2.6648519047 2.0895637277 1.2058089541
H -1.2208306869 1.0650799449 -0.5423211791
H -2.8295895404 1.4298353138 -1.1483950878
H -2.2162082758 -0.7291667845 -1.9828660042
H -3.5220837748 -0.9183400047 -0.8162522595
H -1.9640162132 -2.6917525554 -0.5302903760
H -1.8815857213 -1.6743056048 0.8976463983
H 0.3113658909 -2.5876469203 -0.4188434735
H 0.0643164864 -1.0894221269 -1.3112520328
H 0.1972015600 0.1814940993 0.8503949951
H 0.3337051709 -1.3410426666 1.7190135903
H 2.5139145523 -0.3607598069 1.5417911400
H 2.4748611858 -1.8168995224 0.5392512357
H 3.6577840824 -0.0771950670 -0.6770780228
H 2.1347810843 -0.3376921952 -1.4949551300
H 2.5983296138 2.0533781551 -1.3618972816
28
CONF711
C -3.5422243324 0.2182333432 1.4369654036
C -3.6188837941 -0.5806823896 0.1395990125
C -2.8358862360 0.0597403527 -1.0161501582
C -1.4496820640 -0.5454498719 -1.2492083425
C -0.4767485749 -0.3437255693 -0.0898623094
C 0.9208612480 -0.8499903455 -0.4451341747
C 1.9022535122 -0.8039232082 0.7278473856
C 2.2853749066 0.6168873079 1.1381203760
C 3.1623293466 1.3156533015 0.1557422440
O 3.6524021370 0.8363245850 -0.8379624785
H -3.9617375381 1.2116195807 1.2926882472
H -4.1091526738 -0.2800745800 2.2203034459
H -2.5154543546 0.3268965747 1.7732728770
H -4.6701582803 -0.6656588505 -0.1441189392
H -3.2486319442 -1.5932325678 0.3108209992
H -2.7351318678 1.1317906609 -0.8347251874
H -3.4045395657 -0.0597260124 -1.9410094435
H -1.0215958992 -0.0888472163 -2.1458417860
H -1.5555239335 -1.6148434090 -1.4478970123
H -0.4407021386 0.7195646620 0.1545698419
H -0.8346610589 -0.8854758585 0.7869913996
H 0.8390463999 -1.8854371046 -0.7837999309
H 1.3256047841 -0.2681824513 -1.2760616116
H 1.4633818528 -1.3190268069 1.5837358321
H 2.8123523317 -1.3345612945 0.4405959569
H 1.4027527583 1.2366191330 1.3049897198
H 2.8364454863 0.6037240286 2.0829914304
H 3.3670734097 2.3721927302 0.4156150272
28
CONF729
C -3.8758644145 0.5250030260 0.8784838208
C -3.9273774214 -0.7691454356 0.0752258672
C -2.8090147515 -0.9007100322 -0.9611441312
C -1.4002059200 -0.9808307569 -0.3539975081
C -0.6508823251 0.3514952719 -0.4106195107
C 0.6486029074 0.3506702557 0.3951756953
C 1.7103271435 -0.5923538630 -0.1694166375
C 3.0209356172 -0.4970196709 0.6096083177
C 3.7900852334 0.7549788502 0.3563634032
O 3.5227768788 1.6104080470 -0.4522914965
H -2.9762899361 0.5705574727 1.4861843177
H -3.8919480436 1.3865242112 0.2142922276
H -4.7357764101 0.5888681005 1.5417403878
H -4.8864158918 -0.8215014963 -0.4462596669
H -3.8800778406 -1.6194130546 0.7597738086
H -2.8583416217 -0.0568193771 -1.6523710417
H -3.0023004150 -1.8057599671 -1.5411077737
H -0.8219161271 -1.7302336325 -0.8960551554
H -1.4726282700 -1.3118174836 0.6839960454
H -0.4263468173 0.5936702469 -1.4521334829
H -1.2931810640 1.1431691836 -0.0229646125
H 1.0531331147 1.3655729356 0.4004384534
H 0.4291162234 0.0722976905 1.4291663922
H 1.3490021818 -1.6197275809 -0.1302907956
H 1.8991649735 -0.3325225216 -1.2129947838
H 2.8425491322 -0.5709722307 1.6848860966
H 3.6874879288 -1.3230588739 0.3456498873
H 4.6945001166 0.8563462412 0.9864645158
28
CONF166
C -4.4345946964 -0.8755941035 0.0276460567
C -3.1659610716 -0.1245977621 0.4160525118
C -2.1626277460 -0.0889940671 -0.7348400102
C -0.9378462628 0.7846052015 -0.4562076480
C -0.0910040579 0.3558981920 0.7453624695
C 0.4753870049 -1.0614843545 0.6689886840
C 1.5162743828 -1.2689398691 -0.4310796391
C 2.8244295734 -0.5230875085 -0.1566439445
C 2.7458442423 0.9474486059 -0.3763765821
O 3.3124839812 1.7889062393 0.2839081201
H -4.1994697174 -1.8996666030 -0.2539129906
H -5.1348448622 -0.9001076099 0.8590576388
H -4.9211435309 -0.3924695759 -0.8169118327
H -2.7172596528 -0.6105502827 1.2837683484
H -3.4225744239 0.8982270228 0.7018717665
H -2.6643230584 0.3084281962 -1.6209898345
H -1.8484816217 -1.1068173632 -0.9718188597
H -1.2728803796 1.8101096916 -0.2801075301
H -0.3167116715 0.8007199138 -1.3539209138
H 0.7364782679 1.0643296909 0.8498734343
H -0.6946855264 0.4397875189 1.6507602656
H 0.9334619694 -1.2994776569 1.6319204785
H -0.3417582053 -1.7673125617 0.5165789673
H 1.7394684476 -2.3347486057 -0.4949061078
H 1.1115124790 -0.9558339945 -1.3937678963
H 3.1928140521 -0.7240039199 0.8508200798
H 3.5803774743 -0.8739145349 -0.8666362584
H 2.1502872992 1.2489497479 -1.2579594127
28
CONF55
C -4.2707113361 0.0163962425 -0.9907981823
C -3.8304018652 -0.2456751426 0.4451690141
C -2.3709874223 -0.6898198886 0.5543603246
C -1.3815194936 0.4068491785 0.1609510295
C 0.0671037095 0.0630172785 0.5117168273
C 0.6215656088 -1.1044737819 -0.2996123598
C 2.0985914396 -1.3791878115 -0.0172129899
C 3.0204193110 -0.2677316862 -0.5241820635
C 3.0113828576 0.9601870250 0.3186183542
O 3.1161953926 2.0949848068 -0.0895621231
H -3.7236240140 0.8518788322 -1.4192867559
H -4.0977957595 -0.8629306196 -1.6072881649
H -5.3313616999 0.2542893363 -1.0221355904
H -4.4641783771 -1.0273411729 0.8706727050
H -3.9778896994 0.6586597038 1.0401318750
H -2.2222872657 -1.5666453880 -0.0777172507
H -2.1737383678 -0.9844306298 1.5879792394
H -1.6548193941 1.3278770062 0.6821089317
H -1.4492620183 0.6007044302 -0.9107129267
H 0.6832755596 0.9482339943 0.3280324303
H 0.1339051385 -0.1697155733 1.5773457636
H 0.0547506752 -2.0059653998 -0.0636306665
H 0.4899672717 -0.8963297642 -1.3636344896
H 2.2458204611 -1.5117765299 1.0562569480
H 2.3789595212 -2.3095462716 -0.5123435113
H 4.0538055609 -0.6270999544 -0.4857876177
H 2.7969655106 -0.0052674129 -1.5594521426
H 2.9534190428 0.7686120236 1.4062710983
28
CONF714
C -3.3762621879 0.5811556314 1.3387242752
C -3.3524683877 0.4371452782 -0.1799516692
C -2.9014197244 -0.9538650248 -0.6500756181
C -1.4355654978 -1.0268439578 -1.0837594077
C -0.4391719241 -0.7622669267 0.0423762088
C 0.9996028077 -0.9765289288 -0.4256479339
C 2.0347091087 -0.7788869669 0.6839056142
C 2.1970587602 0.6815378789 1.1019322676
C 2.8882863757 1.5276771983 0.0874826017
O 3.3921740797 1.1477377160 -0.9416635724
H -4.0846104384 -0.1217576526 1.7718721248
H -2.3982140924 0.3864169248 1.7687633489
H -3.6814273218 1.5873980942 1.6177597915
H -2.6957260565 1.1957877968 -0.6104379668
H -4.3592192303 0.6340649543 -0.5547741573
H -3.5112483675 -1.2571414719 -1.5038527868
H -3.0762343735 -1.6790972769 0.1470862750
H -1.2635622809 -0.3087889867 -1.8897965766
H -1.2473886959 -2.0236663864 -1.4913057206
H -0.5634331681 0.2621304569 0.3935607224
H -0.6496279322 -1.4374307205 0.8751591365
H 1.0937809371 -1.9954335013 -0.8082115461
H 1.2243033368 -0.2984709496 -1.2518687446
H 1.7474494154 -1.3729275126 1.5527564524
H 3.0010768740 -1.1412697061 0.3273802390
H 1.2341904455 1.1433943911 1.3269952937
H 2.7940676889 0.7518963819 2.0157575459
H 2.9297766318 2.6005570749 0.3573586214
28
CONF41
C -4.3326766306 -0.6110373306 -0.2470117122
C -3.4688497811 0.6437155296 -0.3130449671
C -1.9734445993 0.3384490622 -0.4101084417
C -1.4143621677 -0.3216511171 0.8498876332
C 0.1137391593 -0.3894789034 0.8619783173
C 0.6812325819 -1.3570296847 -0.1727938327
C 2.2078818895 -1.4263740620 -0.1475961609
C 2.8653825283 -0.1452869475 -0.6670499362
C 2.7975208449 0.9987908676 0.2838505646
O 2.6413368213 2.1595397873 -0.0214525348
H -5.3865539478 -0.3435952186 -0.2640382830
H -4.1286515065 -1.2569043328 -1.0980261971
H -4.1392322784 -1.1689099800 0.6650721836
H -3.6545900411 1.2595238016 0.5700454791
H -3.7610815584 1.2280693981 -1.1887975375
H -1.4361468195 1.2753922405 -0.5807566946
H -1.8025639923 -0.3054603154 -1.2744658181
H -1.8147593480 -1.3318277948 0.9484931584
H -1.7428975263 0.2547875584 1.7182656103
H 0.5131059397 0.6130815517 0.6843766358
H 0.4420989237 -0.7040777393 1.8558841271
H 0.2810977219 -2.3538444118 0.0237230347
H 0.3571871595 -1.0590113426 -1.1707076233
H 2.5495265388 -1.6245234733 0.8700608608
H 2.5298358145 -2.2557278435 -0.7783532808
H 3.9346274465 -0.3334444680 -0.8072225526
H 2.4484181078 0.1525638105 -1.6304343658
H 2.9551066962 0.7234879673 1.3432498392
28
CONF761
C -3.5893784458 0.1255307232 1.3320489545
C -3.5317049478 -0.5921469864 -0.0118986232
C -2.6291659592 0.1049599220 -1.0319044996
C -1.1551595584 0.1982679591 -0.6298270613
C -0.4948823173 -1.1686039792 -0.4601637555
C 1.0302452648 -1.1186685086 -0.3434037754
C 1.5443007246 -0.4228084986 0.9242608472
C 1.8567221898 1.0589283363 0.7203893664
C 3.0948752517 1.3034404070 -0.0731295771
O 3.8632829819 0.4661572833 -0.4808901476
H -2.6275511457 0.0901306788 1.8362581787
H -3.8705088980 1.1673995727 1.1946886406
H -4.3261212599 -0.3460657038 1.9781828918
H -4.5403160796 -0.6386575112 -0.4299909783
H -3.1948449190 -1.6191563807 0.1367385980
H -3.0074671606 1.1170937583 -1.1971200895
H -2.7010243759 -0.4314701892 -1.9815688925
H -1.0734501666 0.7679499513 0.2956669715
H -0.6287702891 0.7476733164 -1.4149936650
H -0.8951227603 -1.6630253443 0.4266744598
H -0.7487704714 -1.7868368331 -1.3251807807
H 1.3946536459 -2.1479487427 -0.3468130627
H 1.4532601611 -0.6298583535 -1.2235273413
H 0.8091581286 -0.5343982592 1.7219796538
H 2.4652970536 -0.9121253941 1.2476995518
H 1.0369898494 1.5799778823 0.2236250403
H 2.0058249826 1.5556565030 1.6834510569
H 3.2906919279 2.3745954368 -0.2731348289
28
CONF762
C -3.5935524160 0.1114241458 -1.3162895539
C -3.5265263619 -0.5832918400 0.0392954367
C -2.6134773093 0.1288415828 1.0393511561
C -1.1423981036 0.2077090992 0.6239973868
C -0.4855969256 -1.1646890511 0.4882989394
C 1.0398545037 -1.1228389060 0.3710728554
C 1.5596310948 -0.4767042008 -0.9200590066
C 1.8487787368 1.0173998782 -0.7825169531
C 3.0670162262 1.3193763335 0.0216519051
O 3.8375080552 0.5153473912 0.4882554696
H -3.8683540622 1.1568915716 -1.1941768891
H -2.6368157662 0.0626137996 -1.8289855415
H -4.3386862521 -0.3674568925 -1.9472431789
H -3.1936592631 -1.6136406798 -0.0944178712
H -4.5317081745 -0.6195085441 0.4665346509
H -2.6803393125 -0.3887573285 1.9997658990
H -2.9860817500 1.1456811394 1.1878120016
H -0.6088708992 0.7780692009 1.3891549912
H -1.0676309315 0.7506086152 -0.3179842559
H -0.7409328584 -1.7597936409 1.3690151093
H -0.8876523423 -1.6807654694 -0.3853087834
H 1.4635982740 -0.6038398593 1.2333411559
H 1.4010337868 -2.1525349962 0.4118111198
H 2.4915565135 -0.9670597242 -1.2090190217
H 0.8362987283 -0.6358276026 -1.7205991877
H 2.0098348409 1.4681869527 -1.7660330959
H 1.0128959663 1.5508254556 -0.3277604696
H 3.2443836838 2.4021706399 0.1697185539
28
CONF27
C -4.2496033750 0.9764323894 0.1786788345
C -3.1105365921 -0.0201886094 0.3600490179
C -2.0292178770 0.1637552580 -0.7031423039
C -0.9226011641 -0.8897891662 -0.6387826975
C -0.0570798564 -0.7721413205 0.6148464959
C 1.1393367675 -1.7234694707 0.6141860131
C 2.2483882144 -1.3447850271 -0.3682104864
C 2.9255718625 -0.0192459987 -0.0142533621
C 2.1155025724 1.1852022776 -0.3496368674
O 2.0934707460 2.2175271982 0.2826514142
H -3.8765236767 1.9959759002 0.2484330639
H -4.7169020074 0.8494959455 -0.7954524193
H -5.0077928995 0.8349494691 0.9450046978
H -3.5054121242 -1.0368956235 0.2986644941
H -2.6779101283 0.1117854299 1.3530327122
H -1.5863242188 1.1578488025 -0.5973552163
H -2.5003994977 0.1163775720 -1.6882554636
H -0.2956536659 -0.7783487281 -1.5251878759
H -1.3699519331 -1.8857636362 -0.6746677171
H 0.2967359263 0.2578582805 0.7149953032
H -0.6693840500 -0.9904191935 1.4913592068
H 1.5632466570 -1.7525147976 1.6203363459
H 0.7885203618 -2.7293996245 0.3749800722
H 3.0026281861 -2.1323993133 -0.3509807999
H 1.8505268745 -1.2895777250 -1.3819584211
H 3.2156563394 0.0132997913 1.0372397946
H 3.8356496402 0.0791167753 -0.6148720338
H 1.5431008676 1.1051290609 -1.2924026052
28
CONF692
C -4.5728064594 -0.5150911767 0.2893026379
C -3.3930716391 0.2688238873 0.8536575718
C -2.2334139298 0.4117740279 -0.1336820896
C -1.5494030084 -0.9170645485 -0.4572498532
C -0.2793973574 -0.7482774779 -1.3050766657
C 1.0226792074 -0.8278248912 -0.5058623011
C 1.1937073626 0.3013909891 0.5085095478
C 2.5519654944 0.2321083652 1.2047712244
C 3.6976093494 0.6464125081 0.3450497651
O 3.6291812377 1.1061591399 -0.7690144400
H -4.2968200976 -1.5472693543 0.0913756888
H -5.3985390518 -0.5149159991 0.9970422789
H -4.9171243571 -0.0656853369 -0.6395897791
H -3.0346826271 -0.2214395453 1.7617468479
H -3.7364234618 1.2680826989 1.1318672597
H -1.5018418194 1.1022313363 0.2884155987
H -2.6053714865 0.8556616967 -1.0603586277
H -2.2558845497 -1.5474943773 -0.9987335462
H -1.3009526313 -1.4325319716 0.4726958648
H -0.2467299255 -1.5338761210 -2.0629300881
H -0.3172780975 0.2068147428 -1.8328073503
H 1.0638742539 -1.7891085065 0.0127959924
H 1.8582888454 -0.7926832384 -1.2092488402
H 1.1109434283 1.2604560096 -0.0070719933
H 0.4076124820 0.2418551545 1.2608330263
H 2.5719005227 0.8913205203 2.0773893584
H 2.7532131802 -0.7773226011 1.5709293556
H 4.6856138943 0.5142921220 0.8264089138
28
CONF666
C -4.2610545977 -0.4702460963 -1.0815030290
C -3.8635290480 -0.6057625380 0.3851554222
C -2.8077290058 0.4198614539 0.8245697683
C -1.3798965399 -0.1280536379 0.8829765738
C -0.8282813973 -0.5543369940 -0.4756074292
C 0.6259278400 -1.0256996393 -0.4113208890
C 1.6170819180 0.1094596319 -0.1655358178
C 3.0603776811 -0.3852158489 -0.2005677092
C 4.0600780887 0.6923264981 0.0416035931
O 3.8134733769 1.8547364241 0.2562620791
H -4.6961713764 0.5099683551 -1.2646347369
H -3.4019394710 -0.5886752359 -1.7354608481
H -4.9994555224 -1.2248849928 -1.3438409470
H -3.4896884031 -1.6145089905 0.5706644145
H -4.7622269859 -0.4787356155 0.9926723886
H -3.0597172045 0.7856698110 1.8224802809
H -2.8342554923 1.2778453998 0.1497639986
H -1.3526644456 -0.9818059162 1.5647439477
H -0.7396071066 0.6501792660 1.3028684357
H -1.4358401468 -1.3736318860 -0.8629207780
H -0.9043488596 0.2817764401 -1.1745097980
H 0.7255892636 -1.7735670878 0.3783878925
H 0.8765988724 -1.5075519017 -1.3592135448
H 1.4878935424 0.8827641973 -0.9257872404
H 1.4318618480 0.5745446707 0.8036779851
H 3.2239773240 -1.1591824321 0.5541795613
H 3.2944084565 -0.8391249052 -1.1673039153
H 5.1107936250 0.3469141176 0.0124363141
28
CONF668
C -4.2323939653 -0.4418572614 1.1229764253
C -3.8714621949 -0.5962844998 -0.3512400833
C -2.8105899394 0.4086868064 -0.8243881316
C -1.3909512349 -0.1580324885 -0.9000747329
C -0.8232659944 -0.5809340776 0.4530021904
C 0.6331723383 -1.0431565771 0.3728945174
C 1.6156309193 0.1033871543 0.1452665796
C 3.0624828782 -0.3815953589 0.1613189274
C 4.0539549889 0.7118222975 -0.0398379825
O 3.7988025846 1.8807762041 -0.2028625936
H -4.9761953015 -1.1822685043 1.4092921489
H -3.3603562188 -0.5683556902 1.7577429053
H -4.6476616462 0.5465947876 1.3073824075
H -4.7820236487 -0.4600614621 -0.9386939714
H -3.5178403677 -1.6122588960 -0.5364888625
H -2.8144663295 1.2767318694 -0.1620446082
H -3.0756719682 0.7629599606 -1.8231037502
H -0.7475153462 0.6087079664 -1.3360650930
H -1.3849668841 -1.0172883649 -1.5754532067
H -0.8960335809 0.2549573757 1.1524838920
H -1.4226923577 -1.4031498499 0.8468865012
H 0.8916652496 -1.5416987090 1.3098929274
H 0.7336343057 -1.7747818912 -0.4316922315
H 1.4208178682 0.5885823889 -0.8121501870
H 1.4862470334 0.8590438900 0.9230783773
H 3.3000881079 -0.8677232683 1.1115224832
H 3.2318943506 -1.1270680277 -0.6201894732
H 5.1070654472 0.3727574102 -0.0295396898
28
CONF612
C -4.4745250982 0.8908930831 -0.1024963075
C -3.6974872539 -0.4074327097 0.0821937045
C -2.2029992177 -0.2173910435 -0.1701511151
C -1.4270542736 -1.5194431219 0.0133649502
C 0.0658853109 -1.3930404082 -0.2980562044
C 0.8220517641 -0.4788044943 0.6785003246
C 1.1504017957 0.9020895531 0.1046688164
C 2.2854305897 0.8490549784 -0.9168456605
C 3.6327044474 0.6516266403 -0.3092228646
O 3.8905537000 0.6189530374 0.8698269705
H -5.5340164273 0.7326796863 0.0837752787
H -4.1143423345 1.6515239801 0.5866676493
H -4.3561140911 1.2644294988 -1.1172033605
H -4.0866116022 -1.1637015205 -0.6036945648
H -3.8462896603 -0.7777374619 1.0992430228
H -1.8223932013 0.5384991633 0.5187393691
H -2.0566341964 0.1498202589 -1.1887681404
H -1.8565654267 -2.2785677244 -0.6456712059
H -1.5512903826 -1.8713039953 1.0404152004
H 0.5000493698 -2.3943079910 -0.2650477187
H 0.1775011194 -1.0234978177 -1.3188108355
H 0.2251176330 -0.3526802148 1.5831051530
H 1.7585298864 -0.9500827536 0.9832924645
H 0.2626165356 1.3278119114 -0.3621798780
H 1.4566073827 1.5590542176 0.9215007290
H 2.1294744355 0.0487586097 -1.6435099858
H 2.3382066245 1.7814616755 -1.4858855717
H 4.4448911865 0.5418864837 -1.0533938046
28
CONF628
C -4.1871529981 0.4436554282 -0.8486763694
C -2.6823169782 0.3087744219 -0.6466711905
C -2.3396510212 -0.0663952053 0.7943685281
C -0.8350846438 -0.1559846593 1.0570212631
C -0.1896137766 -1.3978016942 0.4395124541
C 1.3374049340 -1.4184409980 0.6034215603
C 2.1022230886 -1.0349727116 -0.6662444676
C 1.7857882212 0.3683104647 -1.1794665619
C 2.2217317564 1.4674060157 -0.2721214497
O 2.8861765418 1.3539131752 0.7291848829
H -4.4130109875 0.7130323486 -1.8775520220
H -4.6867095279 -0.4953546609 -0.6211751722
H -4.5924326085 1.2128248540 -0.1948152638
H -2.1988445175 1.2569471418 -0.8943300565
H -2.3003836398 -0.4518687752 -1.3294360550
H -2.8056285125 -1.0233501555 1.0401910539
H -2.7676164818 0.6881579020 1.4589179521
H -0.6665103960 -0.1842390746 2.1366134845
H -0.3511457108 0.7487072855 0.6827153045
H -0.6203420207 -2.2758464064 0.9250175912
H -0.4399199437 -1.4629345799 -0.6199051688
H 1.6285966604 -0.7460648814 1.4123346095
H 1.6596843298 -2.4216552273 0.8880991249
H 3.1716931782 -1.0953265983 -0.4538912932
H 1.8716131470 -1.7555256332 -1.4529060206
H 2.2952076950 0.5420808657 -2.1323041135
H 0.7188902203 0.4883245467 -1.3753850888
H 1.8900701828 2.4719618059 -0.6007595506
28
CONF657
C -3.1942907513 0.9918039944 0.9114781120
C -3.0435675243 0.4820327027 -0.5177623623
C -1.6629837975 -0.1129271428 -0.8013402090
C -1.4133853816 -1.4233996977 -0.0536071610
C -0.0831721485 -2.0982608170 -0.4182538886
C 1.0527455596 -1.8311690999 0.5734039024
C 1.4766551219 -0.3698960573 0.7080912702
C 2.0960337315 0.1909636783 -0.5687249879
C 2.5044702714 1.6174101963 -0.4454771527
O 2.3346953612 2.3245196665 0.5189809215
H -2.4118400806 1.7119907915 1.1425919960
H -4.1572154429 1.4811877612 1.0376916102
H -3.1340193065 0.1756965852 1.6264581910
H -3.2109201641 1.3143339291 -1.2057539273
H -3.8102684417 -0.2702811070 -0.7173492922
H -0.9054610840 0.6267433304 -0.5382444575
H -1.5840473727 -0.3041320891 -1.8749439972
H -2.2352029004 -2.1026919242 -0.2924486434
H -1.4401307182 -1.2469200307 1.0221190286
H -0.2339905731 -3.1795786208 -0.4445371917
H 0.2165432475 -1.7959997048 -1.4226286935
H 0.7418874597 -2.1885943982 1.5575173087
H 1.9208514594 -2.4219947913 0.2710872852
H 0.6238388919 0.2449508326 0.9969472319
H 2.2112776101 -0.2876714531 1.5126265292
H 2.9764813137 -0.3864233477 -0.8619148209
H 1.3935849126 0.1344183967 -1.4044499305
H 2.9990999933 2.0245568973 -1.3476589044
28
CONF26
C -4.2059522341 1.0213551254 0.1747123886
C -3.0845718326 0.0069588489 0.3674338782
C -2.0134418217 0.1432288013 -0.7129932934
C -0.9241113702 -0.9270107050 -0.6331457991
C -0.0552656082 -0.8030811380 0.6177359501
C 1.1524664534 -1.7399826561 0.6097923916
C 2.2564352942 -1.3388756768 -0.3695070803
C 2.9090293447 -0.0023565713 -0.0107220652
C 2.0795420844 1.1881956090 -0.3486478107
O 2.0394924898 2.2209357591 0.2821604277
H -4.9563191443 0.9154777414 0.9543607324
H -3.8114612453 2.0345217155 0.2128076675
H -4.6888590656 0.8787441279 -0.7895907832
H -3.4998691050 -1.0029671263 0.3367942747
H -2.6364872009 0.1554602914 1.3511875003
H -1.5523564154 1.1319217453 -0.6382292824
H -2.4968650107 0.0784093883 -1.6911652532
H -0.2968120765 -0.8395589350 -1.5219794814
H -1.3870370439 -1.9162644816 -0.6529843779
H 0.2874458031 0.2305133947 0.7189759782
H -0.6617979544 -1.0300149062 1.4960628181
H 1.5768954944 -1.7717046544 1.6156179543
H 0.8143880573 -2.7482760151 0.3624215695
H 3.0243456152 -2.1131702095 -0.3534223511
H 1.8595386200 -1.2874049465 -1.3838842932
H 3.1938708100 0.0339921062 1.0420661690
H 3.8199619876 0.1127298448 -0.6070447210
H 1.5101624990 1.0974560039 -1.2922972363
28
CONF60
C -2.6440541508 1.2871860161 -1.0750662469
C -2.4318130488 0.8464333579 0.3693184849
C -2.4226175823 -0.6758894770 0.5320696897
C -1.1573940003 -1.3584632438 0.0073574406
C 0.0472100277 -1.1506689754 0.9239307203
C 1.3184047642 -1.8287015159 0.4142246029
C 1.9577305937 -1.1393674311 -0.7918279546
C 2.5030257695 0.2510497185 -0.4570156560
C 1.4519568851 1.2988387357 -0.3289886372
O 1.4667164475 2.2216453414 0.4545809870
H -3.5949049236 0.9141536901 -1.4494830483
H -2.6495350627 2.3727088547 -1.1405299946
H -1.8539686752 0.9142601395 -1.7219516645
H -3.2409574025 1.2553711201 0.9788524022
H -1.4990122771 1.2698524337 0.7471731016
H -3.2902489908 -1.0821453892 0.0068480567
H -2.5357674105 -0.9199360298 1.5910898706
H -0.9370278267 -0.9897435684 -0.9942136790
H -1.3477848526 -2.4312884208 -0.0739677349
H 0.2384189616 -0.0832017407 1.0538625319
H -0.1953589482 -1.5553855050 1.9096312775
H 2.0498620263 -1.8579428764 1.2248119089
H 1.0841087399 -2.8605920843 0.1444878812
H 2.7850367406 -1.7584480157 -1.1408628005
H 1.2358763701 -1.0609351049 -1.6053495416
H 3.1166868172 0.2320348612 0.4451410497
H 3.1346502698 0.5868794831 -1.2857434058
H 0.6333512196 1.2176349816 -1.0675979721
28
CONF766
C -3.9834119066 -0.1816133998 1.1279348854
C -3.6611921419 -0.4342159595 -0.3407706683
C -2.5002900099 0.4160626153 -0.8613365416
C -1.1535295208 0.1743200608 -0.1745157852
C -0.5915031716 -1.2223943460 -0.4283600659
C 0.7184181098 -1.5086073944 0.3097386456
C 1.8962851016 -0.6295865007 -0.1297858730
C 2.1334250102 0.5664106232 0.7900530197
C 3.2449715676 1.4464276284 0.3342007716
O 3.9129667311 1.2912019915 -0.6601213947
H -4.1465690161 0.8794362537 1.3041266419
H -4.8849954139 -0.7191256414 1.4123384187
H -3.1740513721 -0.5189845951 1.7695962135
H -4.5440749306 -0.1999176384 -0.9406121647
H -3.4429652260 -1.4930112720 -0.4884546341
H -2.7643061849 1.4698394179 -0.7397149115
H -2.3853304319 0.2283791186 -1.9319958611
H -1.2568762386 0.3360783001 0.8994763002
H -0.4524371623 0.9161279278 -0.5619718874
H -1.3229735252 -1.9667892190 -0.1091217146
H -0.4346096504 -1.3548103256 -1.5016314582
H 0.5582971736 -1.3942724142 1.3834783142
H 0.9740499979 -2.5543785946 0.1295606851
H 2.8130293405 -1.2222805330 -0.1485184721
H 1.7341920636 -0.2707037594 -1.1478147180
H 1.2400698444 1.1890804900 0.8746651106
H 2.3754461117 0.2331484804 1.8026988690
H 3.4376175867 2.3098376354 0.9989025514
28
CONF205
C -3.8010428890 0.6448967522 0.7467704080
C -3.1165152280 -0.7061068900 0.5725233969
C -2.4677381676 -0.8809440469 -0.8016985079
C -1.3534797924 0.1185114583 -1.1237130070
C -0.1792084170 0.1187995644 -0.1430671917
C 0.5610900212 -1.2139938391 -0.0861544000
C 1.8151118006 -1.1627832925 0.7866150562
C 2.9222387878 -0.2916189255 0.1887615367
C 2.6834206294 1.1721908432 0.3251481479
O 2.9956406822 2.0152808622 -0.4856062520
H -4.3273485621 0.6810562644 1.6978287515
H -3.0772560186 1.4555210656 0.7297701485
H -4.5221179430 0.8109940599 -0.0507112871
H -3.8606371748 -1.4965063915 0.6975958627
H -2.3688002671 -0.8383685931 1.3558366741
H -3.2413386549 -0.7783545128 -1.5669309568
H -2.0726159516 -1.8956851601 -0.8754888928
H -1.7743681680 1.1249305707 -1.1614069929
H -0.9731358579 -0.1083417468 -2.1229990070
H 0.5186402242 0.9000505083 -0.4597108440
H -0.5308573700 0.3844610176 0.8553609068
H -0.1045265728 -1.9782184241 0.3173734089
H 0.8379120803 -1.5143977685 -1.0991558737
H 1.5544457537 -0.7886306651 1.7785105963
H 2.2002392235 -2.1767730538 0.9005134268
H 3.8490509116 -0.4775319697 0.7409969646
H 3.1027438037 -0.5391271662 -0.8585302151
H 2.2265444940 1.4739411290 1.2861104773
28
CONF747
C -4.0865225481 0.9132595710 0.1348008064
C -3.7721248748 -0.5666040859 0.3312401325
C -2.7814481585 -1.1180693303 -0.7051825462
C -1.3436444763 -1.2480582698 -0.1970444678
C -0.6898424160 0.0885207505 0.1472781898
C 0.7650280424 -0.0529012046 0.5992374731
C 1.7180985732 -0.4231285362 -0.5367202017
C 3.1656544282 -0.5056683067 -0.0558939531
C 3.7869841449 0.8179389330 0.2361775264
O 3.2956821517 1.9017225190 0.0335825645
H -3.1855595807 1.5179400826 0.1879018397
H -4.5484777485 1.0747642851 -0.8368719526
H -4.7769913826 1.2580585573 0.9016048000
H -4.7092715525 -1.1236596213 0.2656679674
H -3.3734874460 -0.7243483981 1.3352400053
H -2.7915630764 -0.4786819391 -1.5901141941
H -3.1100462131 -2.1113268297 -1.0189748784
H -0.7586228733 -1.7464561340 -0.9721506127
H -1.3344600479 -1.8888962156 0.6881325697
H -0.7327563841 0.7498666738 -0.7211117689
H -1.2514381629 0.5602742659 0.9550672241
H 1.0907324954 0.8990987643 1.0248819517
H 0.8235831328 -0.8091318298 1.3860461237
H 1.4321554066 -1.3848155167 -0.9623886030
H 1.6486285395 0.3340227818 -1.3204149033
H 3.2445515561 -1.1210124558 0.8433207001
H 3.7970033541 -0.9776395909 -0.8142900786
H 4.8049815766 0.7463734158 0.6648153356
28
CONF770
C -4.0051738950 -0.0887686431 1.1251660190
C -3.6556789486 -0.4465347655 -0.3152899656
C -2.4898650640 0.3712124011 -0.8754661153
C -1.1427205289 0.1423253351 -0.1848603978
C -0.5727577199 -1.2522077828 -0.4338834179
C 0.7390965023 -1.5284219592 0.3045190052
C 1.9076101817 -0.6347844424 -0.1311114991
C 2.1386611027 0.5511332425 0.8032590080
C 3.2261661284 1.4587417931 0.3434205894
O 3.8751981836 1.3358637000 -0.6678202830
H -3.2002594479 -0.3603796503 1.8027043824
H -4.1895913315 0.9795141701 1.2171678384
H -4.9015240545 -0.6196925272 1.4371995834
H -4.5296261126 -0.2622242699 -0.9449072861
H -3.4292511841 -1.5118543638 -0.3809920002
H -2.7445666175 1.4312286384 -0.7957047671
H -2.3803680354 0.1395981699 -1.9380700387
H -1.2489613925 0.3069958254 0.8883493770
H -0.4446455884 0.8863222932 -0.5734600364
H -1.3001921050 -2.0000504914 -0.1131800704
H -0.4148174196 -1.3865007631 -1.5068123414
H 0.5770110097 -1.4197630669 1.3785297371
H 1.0053526189 -2.5708661313 0.1206410600
H 2.8291280233 -1.2193939168 -0.1632673436
H 1.7363811507 -0.2637953738 -1.1433164324
H 1.2354768068 1.1561544728 0.9106910439
H 2.4023030617 0.2071436452 1.8068981014
H 3.4187303986 2.3110562710 1.0223251448
28
CONF168
C -4.4860869813 -0.7969934175 0.1017959212
C -3.1936638196 -0.0492710032 0.4094512726
C -2.1883061121 -0.1731648499 -0.7336541657
C -0.9367946170 0.6870602839 -0.5463044581
C -0.0899830933 0.3429870711 0.6818387792
C 0.5021033705 -1.0659179445 0.6848455706
C 1.5819188117 -1.2986263323 -0.3719457091
C 2.8615388498 -0.5061532413 -0.0943850494
C 2.7539002504 0.9495124425 -0.3894338360
O 3.2829906712 1.8363133308 0.2424667593
H -5.1854898778 -0.7084448852 0.9296736012
H -4.9581247697 -0.3930627871 -0.7912461345
H -4.2841322474 -1.8526156464 -0.0661097882
H -2.7621616009 -0.4507822731 1.3276032732
H -3.4169580801 1.0066863054 0.5793518200
H -2.6762515831 0.1395258820 -1.6604399729
H -1.9069319679 -1.2204658812 -0.8549863887
H -1.2429614721 1.7329372307 -0.4612539468
H -0.3245176430 0.6040719480 -1.4463339365
H 0.7250122015 1.0698941365 0.7509923960
H -0.6999438336 0.4675624839 1.5780559452
H 0.9331725336 -1.2554559971 1.6706127895
H -0.2970778583 -1.7927628486 0.5359388644
H 1.8330264756 -2.3600663762 -0.3776416571
H 1.2005358658 -1.0422388832 -1.3606595791
H 3.2023911336 -0.6479081285 0.9326278021
H 3.6486071053 -0.8707932947 -0.7623307213
H 2.1764333126 1.1922428811 -1.3007041186
28
CONF29
C -4.1697655188 1.0567525347 -0.1631105184
C -3.0687043282 0.0201026758 -0.3543368338
C -1.9972663314 0.1349443514 0.7281446233
C -0.9219659026 -0.9488534535 0.6426436443
C -0.0568982110 -0.8335371230 -0.6118573512
C 1.1605402183 -1.7576185524 -0.5935435604
C 2.2625005492 -1.3294046722 0.3765695184
C 2.8962798910 0.0107567909 -0.0017431914
C 2.0517986112 1.1945108066 0.3228843280
O 1.9971812010 2.2187278983 -0.3206527932
H -4.9197793304 0.9678974481 -0.9452400285
H -4.6583327625 0.9224672894 0.7995212378
H -3.7542185238 2.0616142000 -0.1981504812
H -2.6156040092 0.1603291328 -1.3369854679
H -3.5039579447 -0.9813970676 -0.3252095875
H -2.4823543153 0.0710673602 1.7055467634
H -1.5229059769 1.1178207975 0.6593175132
H -1.3966192138 -1.9324717896 0.6634821975
H -0.2902097126 -0.8700105801 1.5290896004
H -0.6628163695 -1.0777031952 -1.4860082865
H 0.2757839713 0.2017962400 -0.7275777110
H 0.8342239788 -2.7657745819 -0.3303926241
H 1.5826872131 -1.7994045824 -1.5999355591
H 1.8683251955 -1.2694970532 1.3915655303
H 3.0403976215 -2.0937643472 0.3682861317
H 3.8071037555 0.1459119606 0.5904908612
H 3.1779649963 0.0370543251 -1.0556657173
H 1.4855655709 1.1082517396 1.2688371870
28
CONF93
C -4.4668224066 0.6184969410 -0.2600371847
C -3.7744457166 -0.5885825695 0.3632924939
C -2.3657234128 -0.8291516305 -0.1831656795
C -1.3611406815 0.2311328365 0.2657416724
C 0.0387596152 0.0208448007 -0.3145090705
C 0.7451037716 -1.2155125040 0.2345253813
C 2.1830742364 -1.3515238762 -0.2662611847
C 3.1137931774 -0.2718219461 0.2906601172
C 2.9410807509 1.0648262889 -0.3433069956
O 3.0470311516 2.1305910685 0.2210019222
H -5.4850696883 0.7019458979 0.1123900078
H -3.9430507498 1.5396343125 -0.0186744773
H -4.5045923887 0.5171151118 -1.3424322738
H -4.3791223260 -1.4770369662 0.1670124114
H -3.7219283253 -0.4578451044 1.4464467571
H -2.4036256149 -0.8507374474 -1.2747349333
H -2.0288568876 -1.8090991657 0.1587828693
H -1.3023984713 0.2339827859 1.3567666606
H -1.7145916555 1.2148786352 -0.0478092349
H -0.0313445811 -0.0521787072 -1.4024419921
H 0.6408039189 0.9041034175 -0.0811920973
H 0.7453951377 -1.1734742721 1.3258847726
H 0.1939380855 -2.1081013274 -0.0641252378
H 2.5661958362 -2.3254855499 0.0402941097
H 2.1942307213 -1.3137110398 -1.3571307300
H 3.0159782995 -0.1809323566 1.3736173453
H 4.1480220298 -0.5555546728 0.0707221351
H 2.7523396200 1.0340039164 -1.4325487156
28
CONF764
C -4.3000828931 -0.9691934175 0.4424262925
C -3.6533646415 -0.0601001993 -0.5966818314
C -2.5418968167 0.8202570673 -0.0213978642
C -1.3471663232 0.0604923481 0.5595632431
C -0.5871636046 -0.7579828869 -0.4846219178
C 0.6842133012 -1.4179464495 0.0704672978
C 1.9741431660 -0.6611869331 -0.2468735944
C 2.0632476261 0.7098413735 0.4162751879
C 3.3888858900 1.3644226323 0.2301758404
O 4.3283972675 0.9089817219 -0.3765857982
H -4.6509527678 -0.3864115347 1.2914028260
H -5.1506231583 -1.4902569586 0.0090851622
H -3.5963201185 -1.7148637123 0.8024391292
H -4.4201676658 0.5956620219 -1.0166060411
H -3.2610416261 -0.6646456763 -1.4158485107
H -2.9696519918 1.4454705913 0.7664638545
H -2.1849495746 1.4857292015 -0.8117390748
H -1.6885045338 -0.6033092602 1.3553996696
H -0.6757265530 0.7901746237 1.0136625882
H -1.2507727227 -1.5375304701 -0.8609242811
H -0.3278171401 -0.1189443497 -1.3313267512
H 0.5902220835 -1.5360902890 1.1516638101
H 0.7821490499 -2.4175996852 -0.3565983686
H 2.8272055962 -1.2581703587 0.0845786230
H 2.0710422975 -0.5396782771 -1.3278345989
H 1.3089319680 1.3923923501 0.0182071050
H 1.8872630194 0.6327728342 1.4926826029
H 3.4718562496 2.3571084344 0.7119291369
28
CONF398
C -3.6956025895 1.2679148957 0.8106639180
C -3.2701259611 0.1681518061 -0.1553464409
C -1.8725357101 -0.3595051074 0.1641642499
C -1.4385031717 -1.4459581481 -0.8166545524
C -0.1113767658 -2.1191387460 -0.4600012857
C 1.1011459692 -1.1785692965 -0.5019566692
C 1.5064833154 -0.6580882538 0.8776829265
C 2.6674434693 0.3336135759 0.7736699096
C 2.2639750227 1.5814893871 0.0670146137
O 2.9164992991 2.1681118460 -0.7632638617
H -3.6982998580 0.8964694901 1.8330507259
H -3.0108498965 2.1114136020 0.7541389127
H -4.6953270161 1.6219645521 0.5711867562
H -3.2835361403 0.5566776182 -1.1764501943
H -3.9869777506 -0.6547224664 -0.1064042680
H -1.8671796771 -0.7644141011 1.1788914157
H -1.1684494964 0.4735250944 0.1257046957
H -1.3631920594 -1.0149237036 -1.8181789722
H -2.2144625614 -2.2150737369 -0.8504955500
H -0.1896858444 -2.5642168264 0.5336850914
H 0.0443578765 -2.9336654364 -1.1698524136
H 1.9553957581 -1.7072219536 -0.9301414396
H 0.8873441096 -0.3332463875 -1.1609959667
H 0.6585181992 -0.1712493701 1.3590168512
H 1.8112147139 -1.4986693175 1.5022713305
H 2.9725235035 0.6361043542 1.7793909479
H 3.5282227976 -0.1107210942 0.2718697390
H 1.2761609301 1.9760682691 0.3716447040
28
CONF760
C -2.9439896605 1.0580270675 -0.8232688073
C -3.1405317532 -0.4436682470 -0.6474916341
C -2.9111433796 -0.9153428656 0.7891511490
C -1.4687076248 -0.8035202043 1.2908063712
C -0.4797999858 -1.7170268948 0.5517581050
C 0.3578730619 -1.0085082430 -0.5156967032
C 1.4391427124 -0.1141454548 0.0863358178
C 2.2546484914 0.5903619421 -0.9942296359
C 3.3132843243 1.4850573904 -0.4483486636
O 3.5461247104 1.6791503673 0.7204625061
H -3.1654234826 1.3506679729 -1.8471241204
H -3.6077962017 1.6069539360 -0.1586470175
H -1.9214492342 1.3504787177 -0.5996439508
H -2.4767557522 -0.9856250518 -1.3222969591
H -4.1660728951 -0.6959477802 -0.9288239172
H -3.2249311022 -1.9594757922 0.8675936205
H -3.5538230052 -0.3310146332 1.4529744448
H -1.4725656468 -1.0677468903 2.3504992906
H -1.1400172404 0.2331807222 1.2251406326
H 0.2057750439 -2.1668728800 1.2732074895
H -1.0350853874 -2.5330571911 0.0848902522
H 0.8387330960 -1.7648685070 -1.1405559899
H -0.2884688315 -0.4098759146 -1.1578512687
H 0.9920878165 0.6397780199 0.7367937272
H 2.1104232708 -0.7122928465 0.7063431986
H 2.7435417062 -0.1360089090 -1.6489874706
H 1.6098024321 1.1995880246 -1.6336814469
H 3.9139556994 1.9971247610 -1.2237544974
28
CONF763
C -4.1148056319 0.1493053624 -0.4778043572
C -2.7881694208 0.8936812652 -0.3730569520
C -1.7616753324 0.1776421362 0.5072323450
C -1.2455194443 -1.1223172709 -0.1075638860
C -0.1859169365 -1.8158189973 0.7504357656
C 1.1452530143 -1.0751460382 0.9049251789
C 1.9238806781 -0.8961134528 -0.4056991204
C 1.6957452918 0.4610711256 -1.0699134868
C 2.3483068598 1.5942374749 -0.3541106260
O 3.0637730911 1.5146684996 0.6151791148
H -4.8319349688 0.7364089131 -1.0467267987
H -3.9886137090 -0.8073007452 -0.9774681534
H -4.5277628838 -0.0304456374 0.5123979500
H -2.9751001097 1.8847488378 0.0474778386
H -2.3732628637 1.0334261702 -1.3741310327
H -2.2123356583 -0.0401037683 1.4785308184
H -0.9243941045 0.8564126175 0.6834382553
H -0.8468514762 -0.9283944929 -1.1044317345
H -2.0821489029 -1.8141250733 -0.2226953329
H -0.6015314508 -1.9798484055 1.7478872140
H 0.0191138011 -2.7981584295 0.3176338263
H 0.9869356528 -0.1024197855 1.3722133688
H 1.7579709585 -1.6562880508 1.5971517309
H 2.9920300030 -0.9849491930 -0.1976725536
H 1.6514568967 -1.6914855123 -1.1002862191
H 2.1025974596 0.4636775637 -2.0853652621
H 0.6339555140 0.6959374276 -1.1592504206
H 2.1323590050 2.5847565476 -0.7994029257
28
CONF327
C -2.8026996817 1.6904213432 -0.4976171709
C -3.2360004137 0.3575676428 0.1042537464
C -2.2823731729 -0.7899857304 -0.2315220276
C -0.9287244952 -0.6608020737 0.4633560641
C 0.0056057152 -1.8201579387 0.1160110026
C 1.4175911159 -1.6477227523 0.6953742544
C 2.4469085596 -1.1279586087 -0.3118562741
C 2.1208628100 0.2627152728 -0.8633820286
C 2.0999909644 1.2998995827 0.2051496250
O 1.2679346849 2.1672908550 0.3300725460
H -3.5401423772 2.4593212467 -0.2795038180
H -1.8475095761 2.0160020279 -0.0923860032
H -2.7065949121 1.6048139519 -1.5778512684
H -4.2303551989 0.1086420833 -0.2741967838
H -3.3106375631 0.4569857740 1.1895695658
H -2.1329129363 -0.8237881076 -1.3134155649
H -2.7441578425 -1.7344477711 0.0675360863
H -1.0834633620 -0.6387509066 1.5455480961
H -0.4696534620 0.2863169225 0.1843203329
H -0.4372638865 -2.7403239573 0.5031608433
H 0.0659825675 -1.9260794259 -0.9688093130
H 1.3730934888 -0.9706787899 1.5515624765
H 1.7764577444 -2.6116895333 1.0607401681
H 3.4242222577 -1.0962917302 0.1739913843
H 2.5104219357 -1.8260929920 -1.1475877028
H 2.9149526806 0.5561943945 -1.5563989732
H 1.1766438790 0.2691639708 -1.4072738706
H 2.9434408291 1.2368781535 0.9175927891
28
CONF418
C -3.0984272674 1.6630992289 -0.3410320509
C -2.0650283542 0.5453472969 -0.4264477405
C -2.3720758990 -0.5757132784 0.5642602180
C -1.4762366050 -1.8083628233 0.4232531420
C 0.0077863213 -1.5411330926 0.7128471567
C 0.8380689972 -1.3574776233 -0.5573618232
C 2.3209604487 -1.1013617280 -0.2782630718
C 2.5674240508 0.2491655025 0.4033349134
C 2.0522291652 1.3724172999 -0.4293753334
O 1.3562541049 2.2792666099 -0.0393922535
H -2.8532383314 2.4621443367 -1.0364340389
H -4.0907475649 1.2872903206 -0.5808859606
H -3.1224938178 2.0803021183 0.6632004459
H -1.0790130915 0.9669231267 -0.2211804008
H -2.0564672052 0.1393962414 -1.4409438662
H -3.4096825796 -0.8889840208 0.4207925028
H -2.2868298899 -0.1841692067 1.5809772696
H -1.5837763807 -2.2159875805 -0.5841520586
H -1.8462801152 -2.5634184814 1.1199664311
H 0.0872209374 -0.6540306947 1.3420413072
H 0.4255126551 -2.3805040870 1.2729263990
H 0.7504874691 -2.2631131689 -1.1620968289
H 0.4360970691 -0.5287639205 -1.1431538409
H 2.7145373713 -1.8949849281 0.3578989612
H 2.8653772371 -1.1239559463 -1.2240200002
H 2.1171610267 0.2883944189 1.3948883947
H 3.6449563627 0.4000877028 0.5077974565
H 2.3597218306 1.3281873654 -1.4909735692
28
CONF793
C -3.4479253430 -0.2810127848 -1.4205337416
C -3.5768231067 -0.2201094359 0.0984960357
C -2.3561959408 0.3969820543 0.7971709018
C -1.3710070990 -0.6253726769 1.3699673167
C -0.6628589132 -1.5108535754 0.3431764039
C 0.2402319286 -0.7633026023 -0.6391126353
C 1.4333550917 -0.0910131248 0.0354889654
C 2.3842374489 0.5251957476 -0.9869300892
C 3.5575772460 1.2035130472 -0.3687137487
O 3.7834233207 1.2950893591 0.8140245591
H -3.3102693633 0.7184379025 -1.8281286354
H -2.6045132145 -0.8945300213 -1.7230581251
H -4.3507562423 -0.7037677596 -1.8564000234
H -3.7489920957 -1.2246600912 0.4901650003
H -4.4613262341 0.3746755299 0.3377803617
H -2.7020206973 1.0094988256 1.6332557991
H -1.8401380262 1.0648176567 0.1065860661
H -1.9142939346 -1.2761381627 2.0602612666
H -0.6214836127 -0.0915710836 1.9577839904
H -0.0552373303 -2.2386724364 0.8873403683
H -1.4108924887 -2.0717497415 -0.2193139506
H 0.6114954437 -1.4830229167 -1.3729771635
H -0.3393809978 -0.0134052578 -1.1787549086
H 1.0940841152 0.6943490211 0.7123644142
H 1.9803725191 -0.8222274078 0.6347633688
H 2.7684670415 -0.2356698028 -1.6717644054
H 1.8659530075 1.2648496202 -1.6032572886
H 4.2578969572 1.6486524103 -1.1006837756
28
CONF686
C -2.9260211703 1.6217473661 -0.2696575678
C -2.3344884023 0.4196016987 0.4571607024
C -2.1549627936 -0.7716340805 -0.4820107730
C -1.5969319680 -2.0162177809 0.2096782547
C -0.1532426552 -1.8960357992 0.7056455705
C 0.8758465298 -1.7071730670 -0.4185519187
C 1.3267642008 -0.2590743276 -0.6181849906
C 2.2592666247 0.2192221781 0.4917806516
C 2.5974457826 1.6662922570 0.3929527875
O 2.1658575022 2.4423453052 -0.4255395888
H -2.2646295458 1.9447083055 -1.0712968702
H -3.8914913460 1.3702841252 -0.7033360883
H -3.0630463332 2.4549895437 0.4156333371
H -2.9923522817 0.1318354155 1.2807219599
H -1.3732887546 0.7076359318 0.8861876406
H -1.5063025107 -0.4874965634 -1.3119958848
H -3.1302191125 -1.0246322242 -0.9064337303
H -1.6544133816 -2.8554528892 -0.4879901740
H -2.2369873175 -2.2563751510 1.0627401632
H -0.0863219308 -1.0742788112 1.4184070021
H 0.0789773081 -2.8129133872 1.2512663067
H 1.7603284644 -2.3117636687 -0.2083249996
H 0.4499661635 -2.0764627131 -1.3528283472
H 1.8509596263 -0.1704675139 -1.5722928786
H 0.4652980662 0.4072554019 -0.6628063734
H 1.8101938798 0.0640228962 1.4768213935
H 3.1952466590 -0.3448996802 0.4884620482
H 3.3080300197 2.0170699912 1.1653049611
28
CONF794
C -2.6117031258 1.1502085035 -0.9134555875
C -2.1954955324 0.7634011018 0.5008745088
C -2.4912081040 -0.6990257723 0.8374256987
C -1.6666861778 -1.7324578372 0.0648646536
C -0.1599695267 -1.6710929442 0.3553296470
C 0.6286435222 -0.9395381647 -0.7313376530
C 2.1233773223 -0.8284620919 -0.4229934531
C 2.4317900298 0.1436322302 0.7149038808
C 2.1726699297 1.5742082489 0.3837060899
O 1.8301766222 2.0154707364 -0.6862640517
H -2.4204067207 2.2071220596 -1.0860206829
H -2.0547220728 0.5833667610 -1.6548197268
H -3.6727759465 0.9621026775 -1.0622549110
H -2.7403698399 1.3929226848 1.2091855958
H -1.1326128508 0.9702301039 0.6365434958
H -3.5503339636 -0.8893702539 0.6457130710
H -2.3210296792 -0.8510691440 1.9065350193
H -1.8380690573 -1.6152493307 -1.0057708377
H -2.0442643068 -2.7187851124 0.3433553850
H -0.0096089050 -1.1886579736 1.3221440586
H 0.2358580826 -2.6862180232 0.4336920929
H 0.5099552218 -1.4859032746 -1.6701645888
H 0.2268913882 0.0614610294 -0.8866157570
H 2.5146145303 -1.8146991616 -0.1679305063
H 2.6378278324 -0.4790340436 -1.3205333246
H 1.8617430222 -0.0995484919 1.6137235778
H 3.4872697353 0.0791402401 0.9942434790
H 2.3337526487 2.2619686019 1.2365399434
28
CONF416
C -2.3798119365 1.4080354148 -1.0604766966
C -2.7857319822 0.5870326224 0.1590953879
C -1.6205540415 -0.2027208319 0.7578533600
C -1.1808180471 -1.3764041604 -0.1157483599
C -0.0671301773 -2.2143058091 0.5138831374
C 1.2599484579 -1.4928474183 0.7656680382
C 2.0064300041 -1.0460318915 -0.4991468356
C 1.6482486614 0.3708194392 -0.9564211117
C 1.9505550473 1.3855230826 0.0911607706
O 1.2468632751 2.3236480748 0.3841848489
H -3.2091489265 2.0291097882 -1.3907387593
H -1.5424679015 2.0587712168 -0.8136118122
H -2.0917779572 0.7645740620 -1.8879227163
H -3.5914250837 -0.0992597478 -0.1121113591
H -3.1721468655 1.2662067439 0.9226658071
H -1.9208677337 -0.5908218727 1.7347610477
H -0.7892834922 0.4859247530 0.9196134070
H -0.8632417354 -1.0213541743 -1.0950154798
H -2.0440879532 -2.0285096620 -0.2747415961
H -0.4268156163 -2.5989968401 1.4718298876
H 0.1252849269 -3.0747801414 -0.1316704327
H 1.0969511580 -0.6315662615 1.4162549022
H 1.8995200384 -2.1900572110 1.3116696935
H 3.0795267060 -1.0756764895 -0.3004775137
H 1.8000265816 -1.7454732343 -1.3096917221
H 2.2688509252 0.6287853529 -1.8200386118
H 0.6047218132 0.4613696485 -1.2527536172
H 2.9128642875 1.2323855955 0.6144058006
28
CONF399
C -3.6463098778 1.3047653834 0.7933509360
C -3.2460847702 0.1784243838 -0.1526864898
C -1.8514043311 -0.3587147119 0.1632787795
C -1.4368670792 -1.4671137774 -0.8011943717
C -0.1082776574 -2.1391663016 -0.4477479659
C 1.1033793913 -1.1980324204 -0.5042952597
C 1.5223961473 -0.6784672800 0.8717144478
C 2.6645082350 0.3337326873 0.7564416239
C 2.2238310569 1.5851249186 0.0788014625
O 2.8439289467 2.1927791246 -0.7611874384
H -4.6427730572 1.6687507266 0.5555166344
H -3.6447137180 0.9554130716 1.8235023706
H -2.9496158513 2.1364484237 0.7123098388
H -3.2664105868 0.5443745373 -1.1819520613
H -3.9722864706 -0.6341054769 -0.0772745428
H -1.8407122293 -0.7448187906 1.1852653848
H -1.1390480564 0.4659478038 0.1026744037
H -1.3720014058 -1.0560813248 -1.8118458924
H -2.2171510324 -2.2324802694 -0.8100041583
H -0.1805466662 -2.5758225983 0.5501197839
H 0.0425189430 -2.9597333091 -1.1516151312
H 1.9532463593 -1.7251781967 -0.9427257772
H 0.8809312918 -0.3524546704 -1.1600681300
H 0.6740059406 -0.2085577975 1.3689670867
H 1.8504100157 -1.5175664152 1.4863862066
H 2.9869542723 0.6262676247 1.7597019184
H 3.5206223256 -0.0886775281 0.2285462224
H 1.2392933613 1.9606504267 0.4166183316
