      -----------------------------------------------------------      
     |                   =====================                   |     
     |                           x T B                           |     
     |                   =====================                   |     
     |                         S. Grimme                         |     
     |          Mulliken Center for Theoretical Chemistry        |     
     |                    University of Bonn                     |     
      -----------------------------------------------------------      

   * xtb version 6.7.1 (edcfbbe) compiled by 'albert@albert-system' on 2024-07-22

   xtb is free software: you can redistribute it and/or modify it under
   the terms of the GNU Lesser General Public License as published by
   the Free Software Foundation, either version 3 of the License, or
   (at your option) any later version.
   
   xtb is distributed in the hope that it will be useful,
   but WITHOUT ANY WARRANTY; without even the implied warranty of
   MERCHANTABILITY or FITNESS FOR A PARTICULAR PURPOSE.  See the
   GNU Lesser General Public License for more details.
   
   Cite this work as:
   * C. Bannwarth, E. Caldeweyher, S. Ehlert, A. Hansen, P. Pracht,
     J. Seibert, S. Spicher, S. Grimme, WIREs Comput. Mol. Sci., 2020, 11,
     e01493. DOI: 10.1002/wcms.1493
   
   for GFN2-xTB:
   * C. Bannwarth, S. Ehlert and S. Grimme., J. Chem. Theory Comput., 2019,
     15, 1652-1671. DOI: 10.1021/acs.jctc.8b01176
   for GFN1-xTB:
   * S. Grimme, C. Bannwarth, P. Shushkov, J. Chem. Theory Comput., 2017,
     13, 1989-2009. DOI: 10.1021/acs.jctc.7b00118
   for GFN0-xTB:
   * P. Pracht, E. Caldeweyher, S. Ehlert, S. Grimme, ChemRxiv, 2019, preprint.
     DOI: 10.26434/chemrxiv.8326202.v1
   for GFN-FF:
   * S. Spicher and S. Grimme, Angew. Chem. Int. Ed., 2020, 59, 15665-15673.
     DOI: 10.1002/anie.202004239
   
   for ALPB and GBSA implicit solvation:
   * S. Ehlert, M. Stahn, S. Spicher, S. Grimme, J. Chem. Theory Comput.,
     2021, 17, 4250-4261. DOI: 10.1021/acs.jctc.1c00471
   
   for ddCOSMO and CPCM-X implicit solvation:
   * M. Stahn, S. Ehlert, S. Grimme, J. Phys. Chem. A,
     2023, XX, XXXX-XXXX. DOI: 10.1021/acs.jpca.3c04382
   
   for DFT-D4:
   * E. Caldeweyher, C. Bannwarth and S. Grimme, J. Chem. Phys., 2017,
     147, 034112. DOI: 10.1063/1.4993215
   * E. Caldeweyher, S. Ehlert, A. Hansen, H. Neugebauer, S. Spicher,
     C. Bannwarth and S. Grimme, J. Chem. Phys., 2019, 150, 154122.
     DOI: 10.1063/1.5090222
   * E. Caldeweyher, J.-M. Mewes, S. Ehlert and S. Grimme, Phys. Chem. Chem. Phys.
     2020, 22, 8499-8512. DOI: 10.1039/D0CP00502A
   
   for sTDA-xTB:
   * S. Grimme and C. Bannwarth, J. Chem. Phys., 2016, 145, 054103.
     DOI: 10.1063/1.4959605
   
   in the mass-spec context:
   * V. Asgeirsson, C. Bauer and S. Grimme, Chem. Sci., 2017, 8, 4879.
     DOI: 10.1039/c7sc00601b
   * J. Koopman and S. Grimme, ACS Omega 2019, 4, 12, 15120-15133.
     DOI: 10.1021/acsomega.9b02011
   
   for metadynamics refer to:
   * S. Grimme, J. Chem. Theory Comput., 2019, 155, 2847-2862
     DOI: 10.1021/acs.jctc.9b00143
   
   for SPH calculations refer to:
   * S. Spicher and S. Grimme, J. Chem. Theory Comput., 2021, 17, 1701-1714
     DOI: 10.1021/acs.jctc.0c01306
   
   for ONIOM refer to:
   * C. Plett, A. Katbashev, S. Ehlert, S. Grimme, M. Bursch,
     Phys. Chem. Chem. Phys., 2023, 25, 17860-17868. DOI: 10.1039/D3CP02178E
   
   for DIPRO refer to:
   * J. Kohn, N. Gildemeister, S. Grimme, D. Fazzi, A. Hansen,
     J. Chem. Phys., 2023, just accepted.
   
   for PTB refer to:
   * S. Grimme, M. Mueller, A. Hansen, J. Chem. Phys., 2023, 158, 124111.
     DOI: 10.1063/5.0137838
   
   with help from (in alphabetical order)
   P. Atkinson, C. Bannwarth, F. Bohle, G. Brandenburg, E. Caldeweyher
   M. Checinski, S. Dohm, S. Ehlert, S. Ehrlich, I. Gerasimov, C. Hölzer
   A. Katbashev, J. Kohn, J. Koopman, C. Lavigne, S. Lehtola, F. März, M. Müller,
   F. Musil, H. Neugebauer, J. Pisarek, C. Plett, P. Pracht, F. Pultar,
   J. Seibert, P. Shushkov, S. Spicher, M. Stahn, M. Steiner, T. Strunk,
   J. Stückrath, T. Rose, and J. Unsleber
   
 * started run on 2025/04/03 at 17:02:52.346     
   ID    Z sym.   atoms
    1    6 C      1-10
    2    8 O      11
    3    1 H      12-33

           -------------------------------------------------
          |                Calculation Setup                |
           -------------------------------------------------

          program call               : /srv/scratch/z5358697/.xtb/bin/xtb gas.coord --gfn2 --sp --chrg 0 --norestart --parallel 1
          hostname                   : k140
          coordinate file            : gas.coord
          omp threads                :                     1


           -------------------------------------------------
          |                 G F N 2 - x T B                 |
           -------------------------------------------------

        Reference                      10.1021/acs.jctc.8b01176
      * Hamiltonian:
        H0-scaling (s, p, d)           1.850000    2.230000    2.230000
        zeta-weighting                 0.500000
      * Dispersion:
        s8                             2.700000
        a1                             0.520000
        a2                             5.000000
        s9                             5.000000
      * Repulsion:
        kExp                           1.500000    1.000000
        rExp                           1.000000
      * Coulomb:
        alpha                          2.000000
        third order                    shell-resolved
        anisotropic                    true
        a3                             3.000000
        a5                             4.000000
        cn-shift                       1.200000
        cn-exp                         4.000000
        max-rad                        5.000000


          ...................................................
          :                      SETUP                      :
          :.................................................:
          :  # basis functions                  66          :
          :  # atomic orbitals                  66          :
          :  # shells                           44          :
          :  # electrons                        68          :
          :  max. iterations                   250          :
          :  Hamiltonian                  GFN2-xTB          :
          :  restarted?                      false          :
          :  GBSA solvation                  false          :
          :  PC potential                    false          :
          :  electronic temp.          300.0000000     K    :
          :  accuracy                    1.0000000          :
          :  -> integral cutoff          0.2500000E+02      :
          :  -> integral neglect         0.1000000E-07      :
          :  -> SCF convergence          0.1000000E-05 Eh   :
          :  -> wf. convergence          0.1000000E-03 e    :
          :  Broyden damping             0.4000000          :
          :  net charge                          0          :
          :  unpaired electrons                  0          :
          ...................................................

 iter      E             dE          RMSdq      gap      omega  full diag
   1    -37.1172323 -0.371172E+02  0.285E+00   12.59       0.0  T
   2    -37.1966956 -0.794633E-01  0.152E+00   12.23       1.0  T
   3    -37.1979763 -0.128071E-02  0.722E-01   12.31       1.0  T
   4    -37.1982629 -0.286552E-03  0.981E-02   12.30       1.0  T
   5    -37.1983026 -0.397494E-04  0.555E-02   12.32       1.0  T
   6    -37.1983048 -0.219585E-05  0.621E-03   12.33       2.8  T
   7    -37.1983050 -0.225331E-06  0.312E-03   12.33       5.6  T
   8    -37.1983050 -0.178650E-07  0.104E-03   12.33      16.7  T
   9    -37.1983050 -0.185447E-08  0.354E-04   12.33      49.2  T
  10    -37.1983051 -0.391950E-09  0.717E-05   12.33     242.8  T

   *** convergence criteria satisfied after 10 iterations ***

         #    Occupation            Energy/Eh            Energy/eV
      -------------------------------------------------------------
         1        2.0000           -0.6835091             -18.5992
       ...           ...                  ...                  ...
        28        2.0000           -0.4280501             -11.6478
        29        2.0000           -0.4220854             -11.4855
        30        2.0000           -0.4196342             -11.4188
        31        2.0000           -0.4134212             -11.2498
        32        2.0000           -0.4108779             -11.1806
        33        2.0000           -0.4064616             -11.0604
        34        2.0000           -0.4050237             -11.0213 (HOMO)
        35                          0.0481422               1.3100 (LUMO)
        36                          0.0635424               1.7291
        37                          0.0754629               2.0534
        38                          0.0956367               2.6024
        39                          0.1130882               3.0773
       ...                                ...                  ...
        66                          0.3247054               8.8357
      -------------------------------------------------------------
                  HL-Gap            0.4531660 Eh           12.3313 eV
             Fermi-level           -0.1784407 Eh           -4.8556 eV

 SCC (total)                   0 d,  0 h,  0 min,  0.037 sec
 SCC setup                      ...        0 min,  0.000 sec (  0.508%)
 Dispersion                     ...        0 min,  0.000 sec (  0.601%)
 classical contributions        ...        0 min,  0.000 sec (  0.117%)
 integral evaluation            ...        0 min,  0.003 sec (  7.789%)
 iterations                     ...        0 min,  0.026 sec ( 69.064%)
 molecular gradient             ...        0 min,  0.008 sec ( 21.501%)
 printout                       ...        0 min,  0.000 sec (  0.387%)

         :::::::::::::::::::::::::::::::::::::::::::::::::::::
         ::                     SUMMARY                     ::
         :::::::::::::::::::::::::::::::::::::::::::::::::::::
         :: total energy             -36.704397736020 Eh    ::
         :: gradient norm              0.005013968284 Eh/a0 ::
         :: HOMO-LUMO gap             12.331273382815 eV    ::
         ::.................................................::
         :: SCC energy               -37.198215614586 Eh    ::
         :: -> isotropic ES            0.029154184762 Eh    ::
         :: -> anisotropic ES          0.010050205347 Eh    ::
         :: -> anisotropic XC          0.016567492562 Eh    ::
         :: -> dispersion             -0.021775768905 Eh    ::
         :: repulsion energy           0.493817878565 Eh    ::
         :: add. restraining           0.000000000000 Eh    ::
         :: total charge               0.000000000000 e     ::
         :::::::::::::::::::::::::::::::::::::::::::::::::::::

           -------------------------------------------------
          |                Property Printout                |
           -------------------------------------------------

    * Orbital Energies and Occupations

         #    Occupation            Energy/Eh            Energy/eV
      -------------------------------------------------------------
         1        2.0000           -0.6835091             -18.5992
       ...           ...                  ...                  ...
        22        2.0000           -0.4656037             -12.6697
        23        2.0000           -0.4560431             -12.4096
        24        2.0000           -0.4505361             -12.2597
        25        2.0000           -0.4467912             -12.1578
        26        2.0000           -0.4363694             -11.8742
        27        2.0000           -0.4331746             -11.7873
        28        2.0000           -0.4280501             -11.6478
        29        2.0000           -0.4220854             -11.4855
        30        2.0000           -0.4196342             -11.4188
        31        2.0000           -0.4134212             -11.2498
        32        2.0000           -0.4108779             -11.1806
        33        2.0000           -0.4064616             -11.0604
        34        2.0000           -0.4050237             -11.0213 (HOMO)
        35                          0.0481422               1.3100 (LUMO)
        36                          0.0635424               1.7291
        37                          0.0754629               2.0534
        38                          0.0956367               2.6024
        39                          0.1130882               3.0773
        40                          0.1196711               3.2564
        41                          0.1227034               3.3389
        42                          0.1253063               3.4098
        43                          0.1322983               3.6000
        44                          0.1382628               3.7623
        45                          0.1444255               3.9300
       ...                                ...                  ...
        66                          0.3247054               8.8357
      -------------------------------------------------------------
                  HL-Gap            0.4531660 Eh           12.3313 eV
             Fermi-level           -0.1784407 Eh           -4.8556 eV

     #   Z          covCN         q      C6AA      α(0)
     1   6 C        3.752    -0.102    22.503     6.765
     2   6 C        3.801    -0.053    21.525     6.606
     3   6 C        3.802    -0.059    21.634     6.622
     4   6 C        3.801    -0.058    21.621     6.620
     5   6 C        3.800    -0.058    21.621     6.620
     6   6 C        3.800    -0.057    21.608     6.618
     7   6 C        3.802    -0.058    21.623     6.620
     8   6 C        3.803    -0.059    21.643     6.623
     9   6 C        3.802    -0.061    21.669     6.627
    10   6 C        3.674     0.088    19.343     6.303
    11   8 O        1.655    -0.441    21.666     6.284
    12   1 H        0.925     0.032     2.551     2.498
    13   1 H        0.925     0.032     2.552     2.498
    14   1 H        0.925     0.032     2.563     2.503
    15   1 H        0.924     0.028     2.617     2.530
    16   1 H        0.924     0.027     2.628     2.535
    17   1 H        0.924     0.028     2.611     2.527
    18   1 H        0.924     0.032     2.558     2.501
    19   1 H        0.924     0.026     2.641     2.541
    20   1 H        0.924     0.035     2.523     2.484
    21   1 H        0.924     0.032     2.554     2.499
    22   1 H        0.924     0.027     2.632     2.537
    23   1 H        0.924     0.031     2.577     2.510
    24   1 H        0.924     0.027     2.633     2.537
    25   1 H        0.924     0.035     2.518     2.481
    26   1 H        0.924     0.025     2.658     2.549
    27   1 H        0.924     0.029     2.607     2.525
    28   1 H        0.924     0.052     2.293     2.368
    29   1 H        0.924     0.030     2.587     2.516
    30   1 H        0.924     0.049     2.335     2.390
    31   1 H        0.923     0.013     2.836     2.634
    32   1 H        0.923     0.015     2.809     2.621
    33   1 H        0.805     0.282     0.777     1.385

 Mol. C6AA /au·bohr⁶  :       7304.653168
 Mol. C8AA /au·bohr⁸  :     152011.078187
 Mol. α(0) /au        :        126.478006


Wiberg/Mayer (AO) data.
largest (>0.10) Wiberg bond orders for each atom

 ---------------------------------------------------------------------------
     #   Z sym  total        # sym  WBO       # sym  WBO       # sym  WBO
 ---------------------------------------------------------------------------
     1   6 C    3.997 --     2 C    1.019    13 H    0.988    12 H    0.988
                            14 H    0.988
     2   6 C    3.998 --     1 C    1.019     3 C    1.008    15 H    0.979
                            16 H    0.979
     3   6 C    3.998 --     4 C    1.008     2 C    1.008    17 H    0.977
                            18 H    0.976
     4   6 C    3.997 --     3 C    1.008     5 C    1.007    19 H    0.977
                            20 H    0.975
     5   6 C    3.997 --     6 C    1.007     4 C    1.007    22 H    0.977
                            21 H    0.976
     6   6 C    3.997 --     5 C    1.007     7 C    1.007    24 H    0.977
                            23 H    0.976
     7   6 C    3.998 --     8 C    1.008     6 C    1.007    26 H    0.977
                            25 H    0.975
     8   6 C    3.996 --     7 C    1.008     9 C    1.008    27 H    0.977
                            28 H    0.974
     9   6 C    3.996 --     8 C    1.008    10 C    1.004    29 H    0.976
                            30 H    0.976
    10   6 C    3.957 --     9 C    1.004    11 O    0.993    31 H    0.972
                            32 H    0.972
    11   8 O    1.951 --    10 C    0.993    33 H    0.907
    12   1 H    0.999 --     1 C    0.988
    13   1 H    0.999 --     1 C    0.988
    14   1 H    0.999 --     1 C    0.988
    15   1 H    0.999 --     2 C    0.979
    16   1 H    0.999 --     2 C    0.979
    17   1 H    0.999 --     3 C    0.977
    18   1 H    0.999 --     3 C    0.976
    19   1 H    0.999 --     4 C    0.977
    20   1 H    0.999 --     4 C    0.975
    21   1 H    0.999 --     5 C    0.976
    22   1 H    0.999 --     5 C    0.977
    23   1 H    0.999 --     6 C    0.976
    24   1 H    0.999 --     6 C    0.977
    25   1 H    0.999 --     7 C    0.975
    26   1 H    0.999 --     7 C    0.977
    27   1 H    0.999 --     8 C    0.977
    28   1 H    0.997 --     8 C    0.974
    29   1 H    0.999 --     9 C    0.976
    30   1 H    0.998 --     9 C    0.976
    31   1 H    0.999 --    10 C    0.972
    32   1 H    1.000 --    10 C    0.972
    33   1 H    0.920 --    11 O    0.907
 ---------------------------------------------------------------------------

Topologies differ in total number of bonds
Writing topology from bond orders to xtbtopo.mol

molecular dipole:
                 x           y           z       tot (Debye)
 q only:       -0.338       0.027      -0.190
   full:       -0.614       0.059      -0.215       1.661
molecular quadrupole (traceless):
                xx          xy          yy          xz          yz          zz
 q only:        5.637      -1.057      -2.428      -0.619       1.046      -3.209
  q+dip:        8.973      -0.921      -3.477      -1.147       0.661      -5.496
   full:        9.463      -1.273      -4.057      -1.303       1.075      -5.406


           -------------------------------------------------
          | TOTAL ENERGY              -36.704397736020 Eh   |
          | GRADIENT NORM               0.005013968284 Eh/α |
          | HOMO-LUMO GAP              12.331273382815 eV   |
           -------------------------------------------------

------------------------------------------------------------------------
 * finished run on 2025/04/03 at 17:02:52.428     
------------------------------------------------------------------------
 total:
 * wall-time:     0 d,  0 h,  0 min,  0.082 sec
 *  cpu-time:     0 d,  0 h,  0 min,  0.031 sec
 * ratio c/w:     0.379 speedup
 SCF:
 * wall-time:     0 d,  0 h,  0 min,  0.038 sec
 *  cpu-time:     0 d,  0 h,  0 min,  0.022 sec
 * ratio c/w:     0.599 speedup

