      -----------------------------------------------------------      
     |                   =====================                   |     
     |                           x T B                           |     
     |                   =====================                   |     
     |                         S. Grimme                         |     
     |          Mulliken Center for Theoretical Chemistry        |     
     |                    University of Bonn                     |     
      -----------------------------------------------------------      

   * xtb version 6.7.1 (edcfbbe) compiled by 'albert@albert-system' on 2024-07-22

   xtb is free software: you can redistribute it and/or modify it under
   the terms of the GNU Lesser General Public License as published by
   the Free Software Foundation, either version 3 of the License, or
   (at your option) any later version.
   
   xtb is distributed in the hope that it will be useful,
   but WITHOUT ANY WARRANTY; without even the implied warranty of
   MERCHANTABILITY or FITNESS FOR A PARTICULAR PURPOSE.  See the
   GNU Lesser General Public License for more details.
   
   Cite this work as:
   * C. Bannwarth, E. Caldeweyher, S. Ehlert, A. Hansen, P. Pracht,
     J. Seibert, S. Spicher, S. Grimme, WIREs Comput. Mol. Sci., 2020, 11,
     e01493. DOI: 10.1002/wcms.1493
   
   for GFN2-xTB:
   * C. Bannwarth, S. Ehlert and S. Grimme., J. Chem. Theory Comput., 2019,
     15, 1652-1671. DOI: 10.1021/acs.jctc.8b01176
   for GFN1-xTB:
   * S. Grimme, C. Bannwarth, P. Shushkov, J. Chem. Theory Comput., 2017,
     13, 1989-2009. DOI: 10.1021/acs.jctc.7b00118
   for GFN0-xTB:
   * P. Pracht, E. Caldeweyher, S. Ehlert, S. Grimme, ChemRxiv, 2019, preprint.
     DOI: 10.26434/chemrxiv.8326202.v1
   for GFN-FF:
   * S. Spicher and S. Grimme, Angew. Chem. Int. Ed., 2020, 59, 15665-15673.
     DOI: 10.1002/anie.202004239
   
   for ALPB and GBSA implicit solvation:
   * S. Ehlert, M. Stahn, S. Spicher, S. Grimme, J. Chem. Theory Comput.,
     2021, 17, 4250-4261. DOI: 10.1021/acs.jctc.1c00471
   
   for ddCOSMO and CPCM-X implicit solvation:
   * M. Stahn, S. Ehlert, S. Grimme, J. Phys. Chem. A,
     2023, XX, XXXX-XXXX. DOI: 10.1021/acs.jpca.3c04382
   
   for DFT-D4:
   * E. Caldeweyher, C. Bannwarth and S. Grimme, J. Chem. Phys., 2017,
     147, 034112. DOI: 10.1063/1.4993215
   * E. Caldeweyher, S. Ehlert, A. Hansen, H. Neugebauer, S. Spicher,
     C. Bannwarth and S. Grimme, J. Chem. Phys., 2019, 150, 154122.
     DOI: 10.1063/1.5090222
   * E. Caldeweyher, J.-M. Mewes, S. Ehlert and S. Grimme, Phys. Chem. Chem. Phys.
     2020, 22, 8499-8512. DOI: 10.1039/D0CP00502A
   
   for sTDA-xTB:
   * S. Grimme and C. Bannwarth, J. Chem. Phys., 2016, 145, 054103.
     DOI: 10.1063/1.4959605
   
   in the mass-spec context:
   * V. Asgeirsson, C. Bauer and S. Grimme, Chem. Sci., 2017, 8, 4879.
     DOI: 10.1039/c7sc00601b
   * J. Koopman and S. Grimme, ACS Omega 2019, 4, 12, 15120-15133.
     DOI: 10.1021/acsomega.9b02011
   
   for metadynamics refer to:
   * S. Grimme, J. Chem. Theory Comput., 2019, 155, 2847-2862
     DOI: 10.1021/acs.jctc.9b00143
   
   for SPH calculations refer to:
   * S. Spicher and S. Grimme, J. Chem. Theory Comput., 2021, 17, 1701-1714
     DOI: 10.1021/acs.jctc.0c01306
   
   for ONIOM refer to:
   * C. Plett, A. Katbashev, S. Ehlert, S. Grimme, M. Bursch,
     Phys. Chem. Chem. Phys., 2023, 25, 17860-17868. DOI: 10.1039/D3CP02178E
   
   for DIPRO refer to:
   * J. Kohn, N. Gildemeister, S. Grimme, D. Fazzi, A. Hansen,
     J. Chem. Phys., 2023, just accepted.
   
   for PTB refer to:
   * S. Grimme, M. Mueller, A. Hansen, J. Chem. Phys., 2023, 158, 124111.
     DOI: 10.1063/5.0137838
   
   with help from (in alphabetical order)
   P. Atkinson, C. Bannwarth, F. Bohle, G. Brandenburg, E. Caldeweyher
   M. Checinski, S. Dohm, S. Ehlert, S. Ehrlich, I. Gerasimov, C. Hölzer
   A. Katbashev, J. Kohn, J. Koopman, C. Lavigne, S. Lehtola, F. März, M. Müller,
   F. Musil, H. Neugebauer, J. Pisarek, C. Plett, P. Pracht, F. Pultar,
   J. Seibert, P. Shushkov, S. Spicher, M. Stahn, M. Steiner, T. Strunk,
   J. Stückrath, T. Rose, and J. Unsleber
   
 * started run on 2025/04/03 at 17:49:48.595     
   ID    Z sym.   atoms
    1    6 C      1, 2, 7, 8, 10-12, 14, 16-19
    2    8 O      3, 6, 9
    3   15 P      4
    4   16 S      5
    5    7 N      13, 15
    6    1 H      20-40

           -------------------------------------------------
          |                Calculation Setup                |
           -------------------------------------------------

          program call               : /srv/scratch/z5358697/.xtb/bin/xtb gas.coord --gfn2 --sp --chrg 0 --norestart --parallel 1
          hostname                   : k164
          coordinate file            : gas.coord
          omp threads                :                     1


           -------------------------------------------------
          |                 G F N 2 - x T B                 |
           -------------------------------------------------

        Reference                      10.1021/acs.jctc.8b01176
      * Hamiltonian:
        H0-scaling (s, p, d)           1.850000    2.230000    2.230000
        zeta-weighting                 0.500000
      * Dispersion:
        s8                             2.700000
        a1                             0.520000
        a2                             5.000000
        s9                             5.000000
      * Repulsion:
        kExp                           1.500000    1.000000
        rExp                           1.000000
      * Coulomb:
        alpha                          2.000000
        third order                    shell-resolved
        anisotropic                    true
        a3                             3.000000
        a5                             4.000000
        cn-shift                       1.200000
        cn-exp                         4.000000
        max-rad                        5.000000


          ...................................................
          :                      SETUP                      :
          :.................................................:
          :  # basis functions                 109          :
          :  # atomic orbitals                 107          :
          :  # shells                           61          :
          :  # electrons                       108          :
          :  max. iterations                   250          :
          :  Hamiltonian                  GFN2-xTB          :
          :  restarted?                      false          :
          :  GBSA solvation                  false          :
          :  PC potential                    false          :
          :  electronic temp.          300.0000000     K    :
          :  accuracy                    1.0000000          :
          :  -> integral cutoff          0.2500000E+02      :
          :  -> integral neglect         0.1000000E-07      :
          :  -> SCF convergence          0.1000000E-05 Eh   :
          :  -> wf. convergence          0.1000000E-03 e    :
          :  Broyden damping             0.4000000          :
          :  net charge                          0          :
          :  unpaired electrons                  0          :
          ...................................................

 iter      E             dE          RMSdq      gap      omega  full diag
   1    -60.9749029 -0.609749E+02  0.531E+00    3.33       0.0  T
   2    -61.0793052 -0.104402E+00  0.354E+00    2.80       1.0  T
   3    -61.0904416 -0.111365E-01  0.113E+00    2.33       1.0  T
   4    -61.0931618 -0.272019E-02  0.417E-01    2.28       1.0  T
   5    -61.0944036 -0.124176E-02  0.226E-01    2.40       1.0  T
   6    -61.0947068 -0.303193E-03  0.999E-02    2.39       1.0  T
   7    -61.0947471 -0.403300E-04  0.468E-02    2.41       1.0  T
   8    -61.0947589 -0.117964E-04  0.215E-02    2.41       1.0  T
   9    -61.0947605 -0.159273E-05  0.863E-03    2.41       1.8  T
  10    -61.0947618 -0.132030E-05  0.256E-03    2.41       6.2  T
  11    -61.0947619 -0.713710E-07  0.149E-03    2.41      10.6  T
  12    -61.0947619 -0.736386E-08  0.466E-04    2.41      33.9  T
  13    -61.0947619 -0.863352E-09  0.142E-04    2.41     111.1  T

   *** convergence criteria satisfied after 13 iterations ***

         #    Occupation            Energy/Eh            Energy/eV
      -------------------------------------------------------------
         1        2.0000           -0.7529795             -20.4896
       ...           ...                  ...                  ...
        48        2.0000           -0.4392620             -11.9529
        49        2.0000           -0.4274656             -11.6319
        50        2.0000           -0.4223300             -11.4922
        51        2.0000           -0.4093719             -11.1396
        52        2.0000           -0.3793033             -10.3214
        53        2.0000           -0.3561520              -9.6914
        54        2.0000           -0.3519648              -9.5775 (HOMO)
        55                         -0.2632840              -7.1643 (LUMO)
        56                         -0.2518289              -6.8526
        57                         -0.1624381              -4.4202
        58                         -0.1327552              -3.6125
        59                         -0.1135580              -3.0901
       ...                                ...                  ...
       107                          1.2610781              34.3157
      -------------------------------------------------------------
                  HL-Gap            0.0886809 Eh            2.4131 eV
             Fermi-level           -0.3076244 Eh           -8.3709 eV

 SCC (total)                   0 d,  0 h,  0 min,  0.047 sec
 SCC setup                      ...        0 min,  0.000 sec (  0.466%)
 Dispersion                     ...        0 min,  0.000 sec (  0.590%)
 classical contributions        ...        0 min,  0.000 sec (  0.105%)
 integral evaluation            ...        0 min,  0.018 sec ( 37.738%)
 iterations                     ...        0 min,  0.015 sec ( 32.061%)
 molecular gradient             ...        0 min,  0.013 sec ( 28.670%)
 printout                       ...        0 min,  0.000 sec (  0.349%)

         :::::::::::::::::::::::::::::::::::::::::::::::::::::
         ::                     SUMMARY                     ::
         :::::::::::::::::::::::::::::::::::::::::::::::::::::
         :: total energy             -60.390796211928 Eh    ::
         :: gradient norm              0.024761350024 Eh/a0 ::
         :: HOMO-LUMO gap              2.413129669733 eV    ::
         ::.................................................::
         :: SCC energy               -61.094204023009 Eh    ::
         :: -> isotropic ES            0.095471754659 Eh    ::
         :: -> anisotropic ES         -0.006124903427 Eh    ::
         :: -> anisotropic XC          0.034198897359 Eh    ::
         :: -> dispersion             -0.043512594257 Eh    ::
         :: repulsion energy           0.703407811081 Eh    ::
         :: add. restraining           0.000000000000 Eh    ::
         :: total charge              -0.000000000000 e     ::
         :::::::::::::::::::::::::::::::::::::::::::::::::::::

           -------------------------------------------------
          |                Property Printout                |
           -------------------------------------------------

    * Orbital Energies and Occupations

         #    Occupation            Energy/Eh            Energy/eV
      -------------------------------------------------------------
         1        2.0000           -0.7529795             -20.4896
       ...           ...                  ...                  ...
        42        2.0000           -0.4577580             -12.4562
        43        2.0000           -0.4548416             -12.3769
        44        2.0000           -0.4518221             -12.2947
        45        2.0000           -0.4470819             -12.1657
        46        2.0000           -0.4465910             -12.1524
        47        2.0000           -0.4428542             -12.0507
        48        2.0000           -0.4392620             -11.9529
        49        2.0000           -0.4274656             -11.6319
        50        2.0000           -0.4223300             -11.4922
        51        2.0000           -0.4093719             -11.1396
        52        2.0000           -0.3793033             -10.3214
        53        2.0000           -0.3561520              -9.6914
        54        2.0000           -0.3519648              -9.5775 (HOMO)
        55                         -0.2632840              -7.1643 (LUMO)
        56                         -0.2518289              -6.8526
        57                         -0.1624381              -4.4202
        58                         -0.1327552              -3.6125
        59                         -0.1135580              -3.0901
        60                         -0.1041902              -2.8352
        61                         -0.0758718              -2.0646
        62                          0.0093811               0.2553
        63                          0.0283821               0.7723
        64                          0.0335121               0.9119
        65                          0.0512991               1.3959
       ...                                ...                  ...
       107                          1.2610781              34.3157
      -------------------------------------------------------------
                  HL-Gap            0.0886809 Eh            2.4131 eV
             Fermi-level           -0.3076244 Eh           -8.3709 eV

     #   Z          covCN         q      C6AA      α(0)
     1   6 C        3.751    -0.119    22.832     6.814
     2   6 C        3.863     0.087    19.105     6.216
     3   8 O        1.655    -0.270    18.494     5.805
     4  15 P        4.292     0.498   139.963    21.252
     5  16 S        0.924    -0.451   159.034    21.330
     6   8 O        1.655    -0.247    18.108     5.744
     7   6 C        3.907     0.082    19.162     6.222
     8   6 C        3.751    -0.117    22.811     6.811
     9   8 O        1.664    -0.253    18.210     5.761
    10   6 C        3.230     0.256    22.047     7.624
    11   6 C        2.908    -0.090    30.270     9.021
    12   6 C        2.963     0.124    25.284     8.248
    13   7 N        1.845    -0.265    27.730     7.804
    14   6 C        2.954     0.194    23.878     8.015
    15   7 N        1.984    -0.273    27.894     7.833
    16   6 C        3.859    -0.018    20.860     6.495
    17   6 C        3.758    -0.107    22.602     6.778
    18   6 C        3.758    -0.105    22.554     6.771
    19   6 C        3.760    -0.123    22.900     6.822
    20   1 H        0.925     0.057     2.239     2.340
    21   1 H        0.925     0.070     2.088     2.260
    22   1 H        0.925     0.057     2.239     2.340
    23   1 H        0.924     0.058     2.224     2.332
    24   1 H        0.924     0.050     2.323     2.383
    25   1 H        0.924     0.064     2.151     2.294
    26   1 H        0.924     0.064     2.158     2.297
    27   1 H        0.925     0.061     2.191     2.315
    28   1 H        0.925     0.063     2.169     2.303
    29   1 H        0.925     0.059     2.212     2.326
    30   1 H        0.926     0.056     2.249     2.345
    31   1 H        0.924     0.053     2.278     2.360
    32   1 H        0.925     0.066     2.134     2.284
    33   1 H        0.925     0.046     2.376     2.410
    34   1 H        0.925     0.040     2.449     2.447
    35   1 H        0.925     0.050     2.314     2.379
    36   1 H        0.925     0.035     2.513     2.479
    37   1 H        0.925     0.047     2.362     2.404
    38   1 H        0.925     0.075     2.027     2.227
    39   1 H        0.925     0.068     2.111     2.272
    40   1 H        0.925     0.062     2.177     2.307

 Mol. C6AA /au·bohr⁶  :      18492.038954
 Mol. C8AA /au·bohr⁸  :     486906.979908
 Mol. α(0) /au        :        210.472363


Wiberg/Mayer (AO) data.
largest (>0.10) Wiberg bond orders for each atom

 ---------------------------------------------------------------------------
     #   Z sym  total        # sym  WBO       # sym  WBO       # sym  WBO
 ---------------------------------------------------------------------------
     1   6 C    3.989 --     2 C    1.019    22 H    0.985    20 H    0.981
                            21 H    0.980
     2   6 C    3.916 --     1 C    1.019    23 H    0.972    24 H    0.971
                             3 O    0.911
     3   8 O    2.368 --     4 P    1.265     2 C    0.911
     4  15 P    5.409 --     5 S    1.515     6 O    1.291     3 O    1.265
                             9 O    1.125
     5  16 S    1.789 --     4 P    1.515
     6   8 O    2.396 --     4 P    1.291     7 C    0.906
     7   6 C    3.908 --     8 C    1.021    26 H    0.971    25 H    0.966
                             6 O    0.906
     8   6 C    3.991 --     7 C    1.021    27 H    0.984    29 H    0.981
                            28 H    0.977
     9   8 O    2.429 --     4 P    1.125    10 C    1.019
    10   6 C    3.923 --    15 N    1.385    11 C    1.365     9 O    1.019
    11   6 C    3.981 --    12 C    1.402    10 C    1.365    30 H    0.966
                            14 C    0.104
    12   6 C    3.968 --    11 C    1.402    13 N    1.386    19 C    1.031
    13   7 N    3.056 --    14 C    1.418    12 C    1.386
    14   6 C    3.952 --    13 N    1.418    15 N    1.357    16 C    0.998
                            11 C    0.104
    15   7 N    3.129 --    10 C    1.385    14 C    1.357
    16   6 C    3.993 --    14 C    0.998    18 C    0.992    17 C    0.986
                            31 H    0.967
    17   6 C    3.991 --    34 H    0.987    16 C    0.986    33 H    0.983
                            32 H    0.981
    18   6 C    3.994 --    16 C    0.992    36 H    0.988    37 H    0.984
                            35 H    0.983
    19   6 C    3.992 --    12 C    1.031    38 H    0.982    40 H    0.969
                            39 H    0.960
    20   1 H    0.996 --     1 C    0.981
    21   1 H    0.995 --     1 C    0.980
    22   1 H    0.997 --     1 C    0.985
    23   1 H    0.997 --     2 C    0.972
    24   1 H    0.998 --     2 C    0.971
    25   1 H    0.996 --     7 C    0.966
    26   1 H    0.995 --     7 C    0.971
    27   1 H    0.996 --     8 C    0.984
    28   1 H    0.996 --     8 C    0.977
    29   1 H    0.996 --     8 C    0.981
    30   1 H    0.997 --    11 C    0.966
    31   1 H    0.997 --    16 C    0.967
    32   1 H    0.996 --    17 C    0.981
    33   1 H    0.997 --    17 C    0.983
    34   1 H    0.998 --    17 C    0.987
    35   1 H    0.997 --    18 C    0.983
    36   1 H    0.999 --    18 C    0.988
    37   1 H    0.997 --    18 C    0.984
    38   1 H    0.994 --    19 C    0.982
    39   1 H    0.995 --    19 C    0.960
    40   1 H    0.996 --    19 C    0.969
 ---------------------------------------------------------------------------

Topologies differ in total number of bonds
Writing topology from bond orders to xtbtopo.mol

molecular dipole:
                 x           y           z       tot (Debye)
 q only:       -0.139       0.104      -0.759
   full:       -0.121      -0.624      -1.416       3.945
molecular quadrupole (traceless):
                xx          xy          yy          xz          yz          zz
 q only:       12.486      -4.044       6.445       0.650      -3.505     -18.931
  q+dip:        7.400      -3.735      10.744       3.668      -3.191     -18.144
   full:        6.672      -4.216      10.549       2.741      -4.556     -17.221


           -------------------------------------------------
          | TOTAL ENERGY              -60.390796211928 Eh   |
          | GRADIENT NORM               0.024761350024 Eh/α |
          | HOMO-LUMO GAP               2.413129669733 eV   |
           -------------------------------------------------

------------------------------------------------------------------------
 * finished run on 2025/04/03 at 17:49:48.673     
------------------------------------------------------------------------
 total:
 * wall-time:     0 d,  0 h,  0 min,  0.078 sec
 *  cpu-time:     0 d,  0 h,  0 min,  0.045 sec
 * ratio c/w:     0.581 speedup
 SCF:
 * wall-time:     0 d,  0 h,  0 min,  0.047 sec
 *  cpu-time:     0 d,  0 h,  0 min,  0.035 sec
 * ratio c/w:     0.756 speedup

