      -----------------------------------------------------------      
     |                   =====================                   |     
     |                           x T B                           |     
     |                   =====================                   |     
     |                         S. Grimme                         |     
     |          Mulliken Center for Theoretical Chemistry        |     
     |                    University of Bonn                     |     
      -----------------------------------------------------------      

   * xtb version 6.7.1 (edcfbbe) compiled by 'albert@albert-system' on 2024-07-22

   xtb is free software: you can redistribute it and/or modify it under
   the terms of the GNU Lesser General Public License as published by
   the Free Software Foundation, either version 3 of the License, or
   (at your option) any later version.
   
   xtb is distributed in the hope that it will be useful,
   but WITHOUT ANY WARRANTY; without even the implied warranty of
   MERCHANTABILITY or FITNESS FOR A PARTICULAR PURPOSE.  See the
   GNU Lesser General Public License for more details.
   
   Cite this work as:
   * C. Bannwarth, E. Caldeweyher, S. Ehlert, A. Hansen, P. Pracht,
     J. Seibert, S. Spicher, S. Grimme, WIREs Comput. Mol. Sci., 2020, 11,
     e01493. DOI: 10.1002/wcms.1493
   
   for GFN2-xTB:
   * C. Bannwarth, S. Ehlert and S. Grimme., J. Chem. Theory Comput., 2019,
     15, 1652-1671. DOI: 10.1021/acs.jctc.8b01176
   for GFN1-xTB:
   * S. Grimme, C. Bannwarth, P. Shushkov, J. Chem. Theory Comput., 2017,
     13, 1989-2009. DOI: 10.1021/acs.jctc.7b00118
   for GFN0-xTB:
   * P. Pracht, E. Caldeweyher, S. Ehlert, S. Grimme, ChemRxiv, 2019, preprint.
     DOI: 10.26434/chemrxiv.8326202.v1
   for GFN-FF:
   * S. Spicher and S. Grimme, Angew. Chem. Int. Ed., 2020, 59, 15665-15673.
     DOI: 10.1002/anie.202004239
   
   for ALPB and GBSA implicit solvation:
   * S. Ehlert, M. Stahn, S. Spicher, S. Grimme, J. Chem. Theory Comput.,
     2021, 17, 4250-4261. DOI: 10.1021/acs.jctc.1c00471
   
   for ddCOSMO and CPCM-X implicit solvation:
   * M. Stahn, S. Ehlert, S. Grimme, J. Phys. Chem. A,
     2023, XX, XXXX-XXXX. DOI: 10.1021/acs.jpca.3c04382
   
   for DFT-D4:
   * E. Caldeweyher, C. Bannwarth and S. Grimme, J. Chem. Phys., 2017,
     147, 034112. DOI: 10.1063/1.4993215
   * E. Caldeweyher, S. Ehlert, A. Hansen, H. Neugebauer, S. Spicher,
     C. Bannwarth and S. Grimme, J. Chem. Phys., 2019, 150, 154122.
     DOI: 10.1063/1.5090222
   * E. Caldeweyher, J.-M. Mewes, S. Ehlert and S. Grimme, Phys. Chem. Chem. Phys.
     2020, 22, 8499-8512. DOI: 10.1039/D0CP00502A
   
   for sTDA-xTB:
   * S. Grimme and C. Bannwarth, J. Chem. Phys., 2016, 145, 054103.
     DOI: 10.1063/1.4959605
   
   in the mass-spec context:
   * V. Asgeirsson, C. Bauer and S. Grimme, Chem. Sci., 2017, 8, 4879.
     DOI: 10.1039/c7sc00601b
   * J. Koopman and S. Grimme, ACS Omega 2019, 4, 12, 15120-15133.
     DOI: 10.1021/acsomega.9b02011
   
   for metadynamics refer to:
   * S. Grimme, J. Chem. Theory Comput., 2019, 155, 2847-2862
     DOI: 10.1021/acs.jctc.9b00143
   
   for SPH calculations refer to:
   * S. Spicher and S. Grimme, J. Chem. Theory Comput., 2021, 17, 1701-1714
     DOI: 10.1021/acs.jctc.0c01306
   
   for ONIOM refer to:
   * C. Plett, A. Katbashev, S. Ehlert, S. Grimme, M. Bursch,
     Phys. Chem. Chem. Phys., 2023, 25, 17860-17868. DOI: 10.1039/D3CP02178E
   
   for DIPRO refer to:
   * J. Kohn, N. Gildemeister, S. Grimme, D. Fazzi, A. Hansen,
     J. Chem. Phys., 2023, just accepted.
   
   for PTB refer to:
   * S. Grimme, M. Mueller, A. Hansen, J. Chem. Phys., 2023, 158, 124111.
     DOI: 10.1063/5.0137838
   
   with help from (in alphabetical order)
   P. Atkinson, C. Bannwarth, F. Bohle, G. Brandenburg, E. Caldeweyher
   M. Checinski, S. Dohm, S. Ehlert, S. Ehrlich, I. Gerasimov, C. Hölzer
   A. Katbashev, J. Kohn, J. Koopman, C. Lavigne, S. Lehtola, F. März, M. Müller,
   F. Musil, H. Neugebauer, J. Pisarek, C. Plett, P. Pracht, F. Pultar,
   J. Seibert, P. Shushkov, S. Spicher, M. Stahn, M. Steiner, T. Strunk,
   J. Stückrath, T. Rose, and J. Unsleber
   
 * started run on 2025/04/03 at 17:02:02.623     
   ID    Z sym.   atoms
    1    6 C      1-10
    2    8 O      11
    3    1 H      12-33

           -------------------------------------------------
          |                Calculation Setup                |
           -------------------------------------------------

          program call               : /srv/scratch/z5358697/.xtb/bin/xtb gas.coord --gfn2 --sp --chrg 0 --norestart --parallel 1
          hostname                   : k140
          coordinate file            : gas.coord
          omp threads                :                     1


           -------------------------------------------------
          |                 G F N 2 - x T B                 |
           -------------------------------------------------

        Reference                      10.1021/acs.jctc.8b01176
      * Hamiltonian:
        H0-scaling (s, p, d)           1.850000    2.230000    2.230000
        zeta-weighting                 0.500000
      * Dispersion:
        s8                             2.700000
        a1                             0.520000
        a2                             5.000000
        s9                             5.000000
      * Repulsion:
        kExp                           1.500000    1.000000
        rExp                           1.000000
      * Coulomb:
        alpha                          2.000000
        third order                    shell-resolved
        anisotropic                    true
        a3                             3.000000
        a5                             4.000000
        cn-shift                       1.200000
        cn-exp                         4.000000
        max-rad                        5.000000


          ...................................................
          :                      SETUP                      :
          :.................................................:
          :  # basis functions                  66          :
          :  # atomic orbitals                  66          :
          :  # shells                           44          :
          :  # electrons                        68          :
          :  max. iterations                   250          :
          :  Hamiltonian                  GFN2-xTB          :
          :  restarted?                      false          :
          :  GBSA solvation                  false          :
          :  PC potential                    false          :
          :  electronic temp.          300.0000000     K    :
          :  accuracy                    1.0000000          :
          :  -> integral cutoff          0.2500000E+02      :
          :  -> integral neglect         0.1000000E-07      :
          :  -> SCF convergence          0.1000000E-05 Eh   :
          :  -> wf. convergence          0.1000000E-03 e    :
          :  Broyden damping             0.4000000          :
          :  net charge                          0          :
          :  unpaired electrons                  0          :
          ...................................................

 iter      E             dE          RMSdq      gap      omega  full diag
   1    -37.1217345 -0.371217E+02  0.303E+00   11.75       0.0  T
   2    -37.2016335 -0.798990E-01  0.172E+00   11.35       1.0  T
   3    -37.2029692 -0.133567E-02  0.779E-01   11.54       1.0  T
   4    -37.2032419 -0.272779E-03  0.980E-02   11.71       1.0  T
   5    -37.2032751 -0.332006E-04  0.569E-02   11.71       1.0  T
   6    -37.2032770 -0.187952E-05  0.667E-03   11.70       2.6  T
   7    -37.2032773 -0.292103E-06  0.312E-03   11.70       5.6  T
   8    -37.2032773 -0.115964E-07  0.856E-04   11.70      20.3  T
   9    -37.2032773 -0.219529E-08  0.230E-04   11.70      75.5  T

   *** convergence criteria satisfied after 9 iterations ***

         #    Occupation            Energy/Eh            Energy/eV
      -------------------------------------------------------------
         1        2.0000           -0.6843717             -18.6227
       ...           ...                  ...                  ...
        28        2.0000           -0.4347823             -11.8310
        29        2.0000           -0.4299068             -11.6984
        30        2.0000           -0.4277698             -11.6402
        31        2.0000           -0.4222129             -11.4890
        32        2.0000           -0.4199905             -11.4285
        33        2.0000           -0.4191451             -11.4055
        34        2.0000           -0.4065407             -11.0625 (HOMO)
        35                          0.0235512               0.6409 (LUMO)
        36                          0.0577863               1.5724
        37                          0.0887896               2.4161
        38                          0.0986718               2.6850
        39                          0.1083843               2.9493
       ...                                ...                  ...
        66                          0.3217187               8.7544
      -------------------------------------------------------------
                  HL-Gap            0.4300919 Eh           11.7034 eV
             Fermi-level           -0.1914947 Eh           -5.2108 eV

 SCC (total)                   0 d,  0 h,  0 min,  0.033 sec
 SCC setup                      ...        0 min,  0.000 sec (  0.689%)
 Dispersion                     ...        0 min,  0.000 sec (  0.741%)
 classical contributions        ...        0 min,  0.000 sec (  0.128%)
 integral evaluation            ...        0 min,  0.003 sec (  7.998%)
 iterations                     ...        0 min,  0.022 sec ( 67.290%)
 molecular gradient             ...        0 min,  0.007 sec ( 22.733%)
 printout                       ...        0 min,  0.000 sec (  0.381%)

         :::::::::::::::::::::::::::::::::::::::::::::::::::::
         ::                     SUMMARY                     ::
         :::::::::::::::::::::::::::::::::::::::::::::::::::::
         :: total energy             -36.709150865231 Eh    ::
         :: gradient norm              0.005582644041 Eh/a0 ::
         :: HOMO-LUMO gap             11.703396898862 eV    ::
         ::.................................................::
         :: SCC energy               -37.203480660085 Eh    ::
         :: -> isotropic ES            0.029307104406 Eh    ::
         :: -> anisotropic ES          0.009743519304 Eh    ::
         :: -> anisotropic XC          0.017043975792 Eh    ::
         :: -> dispersion             -0.020129798409 Eh    ::
         :: repulsion energy           0.494329794854 Eh    ::
         :: add. restraining           0.000000000000 Eh    ::
         :: total charge               0.000000000000 e     ::
         :::::::::::::::::::::::::::::::::::::::::::::::::::::

           -------------------------------------------------
          |                Property Printout                |
           -------------------------------------------------

    * Orbital Energies and Occupations

         #    Occupation            Energy/Eh            Energy/eV
      -------------------------------------------------------------
         1        2.0000           -0.6843717             -18.6227
       ...           ...                  ...                  ...
        22        2.0000           -0.4674166             -12.7191
        23        2.0000           -0.4612039             -12.5500
        24        2.0000           -0.4532548             -12.3337
        25        2.0000           -0.4483493             -12.2002
        26        2.0000           -0.4440609             -12.0835
        27        2.0000           -0.4364649             -11.8768
        28        2.0000           -0.4347823             -11.8310
        29        2.0000           -0.4299068             -11.6984
        30        2.0000           -0.4277698             -11.6402
        31        2.0000           -0.4222129             -11.4890
        32        2.0000           -0.4199905             -11.4285
        33        2.0000           -0.4191451             -11.4055
        34        2.0000           -0.4065407             -11.0625 (HOMO)
        35                          0.0235512               0.6409 (LUMO)
        36                          0.0577863               1.5724
        37                          0.0887896               2.4161
        38                          0.0986718               2.6850
        39                          0.1083843               2.9493
        40                          0.1140909               3.1046
        41                          0.1168068               3.1785
        42                          0.1248961               3.3986
        43                          0.1371820               3.7329
        44                          0.1413341               3.8459
        45                          0.1436179               3.9080
       ...                                ...                  ...
        66                          0.3217187               8.7544
      -------------------------------------------------------------
                  HL-Gap            0.4300919 Eh           11.7034 eV
             Fermi-level           -0.1914947 Eh           -5.2108 eV

     #   Z          covCN         q      C6AA      α(0)
     1   6 C        3.752    -0.102    22.516     6.767
     2   6 C        3.801    -0.053    21.527     6.606
     3   6 C        3.803    -0.059    21.638     6.622
     4   6 C        3.803    -0.059    21.629     6.621
     5   6 C        3.803    -0.059    21.626     6.621
     6   6 C        3.803    -0.059    21.636     6.622
     7   6 C        3.803    -0.059    21.626     6.621
     8   6 C        3.803    -0.061    21.670     6.627
     9   6 C        3.801    -0.072    21.868     6.658
    10   6 C        3.675     0.079    19.479     6.324
    11   8 O        1.654    -0.442    21.690     6.287
    12   1 H        0.925     0.034     2.537     2.491
    13   1 H        0.925     0.033     2.544     2.494
    14   1 H        0.925     0.033     2.539     2.492
    15   1 H        0.924     0.029     2.604     2.524
    16   1 H        0.924     0.029     2.606     2.525
    17   1 H        0.924     0.030     2.588     2.516
    18   1 H        0.924     0.030     2.585     2.514
    19   1 H        0.924     0.029     2.602     2.523
    20   1 H        0.924     0.029     2.598     2.521
    21   1 H        0.924     0.030     2.593     2.518
    22   1 H        0.924     0.030     2.585     2.514
    23   1 H        0.924     0.030     2.587     2.515
    24   1 H        0.924     0.031     2.577     2.510
    25   1 H        0.924     0.033     2.550     2.497
    26   1 H        0.924     0.031     2.575     2.509
    27   1 H        0.924     0.030     2.580     2.512
    28   1 H        0.924     0.033     2.543     2.494
    29   1 H        0.924     0.030     2.581     2.512
    30   1 H        0.924     0.044     2.390     2.418
    31   1 H        0.923     0.016     2.797     2.615
    32   1 H        0.924     0.048     2.351     2.398
    33   1 H        0.805     0.284     0.770     1.379

 Mol. C6AA /au·bohr⁶  :       7293.468930
 Mol. C8AA /au·bohr⁸  :     151905.015764
 Mol. α(0) /au        :        126.366540


Wiberg/Mayer (AO) data.
largest (>0.10) Wiberg bond orders for each atom

 ---------------------------------------------------------------------------
     #   Z sym  total        # sym  WBO       # sym  WBO       # sym  WBO
 ---------------------------------------------------------------------------
     1   6 C    3.997 --     2 C    1.019    14 H    0.988    12 H    0.988
                            13 H    0.988
     2   6 C    3.998 --     1 C    1.019     3 C    1.008    15 H    0.979
                            16 H    0.979
     3   6 C    3.997 --     2 C    1.008     4 C    1.007    18 H    0.978
                            17 H    0.978
     4   6 C    3.997 --     3 C    1.007     5 C    1.007    20 H    0.978
                            19 H    0.978
     5   6 C    3.997 --     4 C    1.007     6 C    1.007    21 H    0.978
                            22 H    0.978
     6   6 C    3.997 --     5 C    1.007     7 C    1.007    23 H    0.977
                            24 H    0.977
     7   6 C    3.997 --     8 C    1.007     6 C    1.007    26 H    0.977
                            25 H    0.977
     8   6 C    3.997 --     7 C    1.007     9 C    1.006    28 H    0.977
                            27 H    0.977
     9   6 C    3.996 --     8 C    1.006    10 C    0.998    30 H    0.977
                            29 H    0.976
    10   6 C    3.955 --     9 C    0.998    11 O    0.998    32 H    0.973
                            31 H    0.971
    11   8 O    1.958 --    10 C    0.998    33 H    0.905
    12   1 H    0.999 --     1 C    0.988
    13   1 H    0.999 --     1 C    0.988
    14   1 H    0.999 --     1 C    0.988
    15   1 H    0.999 --     2 C    0.979
    16   1 H    0.999 --     2 C    0.979
    17   1 H    0.999 --     3 C    0.978
    18   1 H    0.999 --     3 C    0.978
    19   1 H    0.999 --     4 C    0.978
    20   1 H    0.999 --     4 C    0.978
    21   1 H    0.999 --     5 C    0.978
    22   1 H    0.999 --     5 C    0.978
    23   1 H    0.999 --     6 C    0.977
    24   1 H    0.999 --     6 C    0.977
    25   1 H    0.999 --     7 C    0.977
    26   1 H    0.999 --     7 C    0.977
    27   1 H    0.999 --     8 C    0.977
    28   1 H    0.999 --     8 C    0.977
    29   1 H    0.999 --     9 C    0.976
    30   1 H    0.998 --     9 C    0.977
    31   1 H    1.000 --    10 C    0.971
    32   1 H    0.998 --    10 C    0.973
    33   1 H    0.919 --    11 O    0.905
 ---------------------------------------------------------------------------

Topologies differ in total number of bonds
Writing topology from bond orders to xtbtopo.mol

molecular dipole:
                 x           y           z       tot (Debye)
 q only:        0.507      -0.103      -0.340
   full:        0.594      -0.152      -0.531       2.062
molecular quadrupole (traceless):
                xx          xy          yy          xz          yz          zz
 q only:       -9.080       1.984       5.149       6.471       1.080       3.931
  q+dip:      -15.777       2.639       6.584       9.818       1.492       9.193
   full:      -13.862       2.883       6.533       9.784       1.605       7.329


           -------------------------------------------------
          | TOTAL ENERGY              -36.709150865231 Eh   |
          | GRADIENT NORM               0.005582644041 Eh/α |
          | HOMO-LUMO GAP              11.703396898862 eV   |
           -------------------------------------------------

------------------------------------------------------------------------
 * finished run on 2025/04/03 at 17:02:02.982     
------------------------------------------------------------------------
 total:
 * wall-time:     0 d,  0 h,  0 min,  0.358 sec
 *  cpu-time:     0 d,  0 h,  0 min,  0.032 sec
 * ratio c/w:     0.089 speedup
 SCF:
 * wall-time:     0 d,  0 h,  0 min,  0.033 sec
 *  cpu-time:     0 d,  0 h,  0 min,  0.019 sec
 * ratio c/w:     0.592 speedup

