      -----------------------------------------------------------      
     |                   =====================                   |     
     |                           x T B                           |     
     |                   =====================                   |     
     |                         S. Grimme                         |     
     |          Mulliken Center for Theoretical Chemistry        |     
     |                    University of Bonn                     |     
      -----------------------------------------------------------      

   * xtb version 6.7.1 (edcfbbe) compiled by 'albert@albert-system' on 2024-07-22

   xtb is free software: you can redistribute it and/or modify it under
   the terms of the GNU Lesser General Public License as published by
   the Free Software Foundation, either version 3 of the License, or
   (at your option) any later version.
   
   xtb is distributed in the hope that it will be useful,
   but WITHOUT ANY WARRANTY; without even the implied warranty of
   MERCHANTABILITY or FITNESS FOR A PARTICULAR PURPOSE.  See the
   GNU Lesser General Public License for more details.
   
   Cite this work as:
   * C. Bannwarth, E. Caldeweyher, S. Ehlert, A. Hansen, P. Pracht,
     J. Seibert, S. Spicher, S. Grimme, WIREs Comput. Mol. Sci., 2020, 11,
     e01493. DOI: 10.1002/wcms.1493
   
   for GFN2-xTB:
   * C. Bannwarth, S. Ehlert and S. Grimme., J. Chem. Theory Comput., 2019,
     15, 1652-1671. DOI: 10.1021/acs.jctc.8b01176
   for GFN1-xTB:
   * S. Grimme, C. Bannwarth, P. Shushkov, J. Chem. Theory Comput., 2017,
     13, 1989-2009. DOI: 10.1021/acs.jctc.7b00118
   for GFN0-xTB:
   * P. Pracht, E. Caldeweyher, S. Ehlert, S. Grimme, ChemRxiv, 2019, preprint.
     DOI: 10.26434/chemrxiv.8326202.v1
   for GFN-FF:
   * S. Spicher and S. Grimme, Angew. Chem. Int. Ed., 2020, 59, 15665-15673.
     DOI: 10.1002/anie.202004239
   
   for ALPB and GBSA implicit solvation:
   * S. Ehlert, M. Stahn, S. Spicher, S. Grimme, J. Chem. Theory Comput.,
     2021, 17, 4250-4261. DOI: 10.1021/acs.jctc.1c00471
   
   for ddCOSMO and CPCM-X implicit solvation:
   * M. Stahn, S. Ehlert, S. Grimme, J. Phys. Chem. A,
     2023, XX, XXXX-XXXX. DOI: 10.1021/acs.jpca.3c04382
   
   for DFT-D4:
   * E. Caldeweyher, C. Bannwarth and S. Grimme, J. Chem. Phys., 2017,
     147, 034112. DOI: 10.1063/1.4993215
   * E. Caldeweyher, S. Ehlert, A. Hansen, H. Neugebauer, S. Spicher,
     C. Bannwarth and S. Grimme, J. Chem. Phys., 2019, 150, 154122.
     DOI: 10.1063/1.5090222
   * E. Caldeweyher, J.-M. Mewes, S. Ehlert and S. Grimme, Phys. Chem. Chem. Phys.
     2020, 22, 8499-8512. DOI: 10.1039/D0CP00502A
   
   for sTDA-xTB:
   * S. Grimme and C. Bannwarth, J. Chem. Phys., 2016, 145, 054103.
     DOI: 10.1063/1.4959605
   
   in the mass-spec context:
   * V. Asgeirsson, C. Bauer and S. Grimme, Chem. Sci., 2017, 8, 4879.
     DOI: 10.1039/c7sc00601b
   * J. Koopman and S. Grimme, ACS Omega 2019, 4, 12, 15120-15133.
     DOI: 10.1021/acsomega.9b02011
   
   for metadynamics refer to:
   * S. Grimme, J. Chem. Theory Comput., 2019, 155, 2847-2862
     DOI: 10.1021/acs.jctc.9b00143
   
   for SPH calculations refer to:
   * S. Spicher and S. Grimme, J. Chem. Theory Comput., 2021, 17, 1701-1714
     DOI: 10.1021/acs.jctc.0c01306
   
   for ONIOM refer to:
   * C. Plett, A. Katbashev, S. Ehlert, S. Grimme, M. Bursch,
     Phys. Chem. Chem. Phys., 2023, 25, 17860-17868. DOI: 10.1039/D3CP02178E
   
   for DIPRO refer to:
   * J. Kohn, N. Gildemeister, S. Grimme, D. Fazzi, A. Hansen,
     J. Chem. Phys., 2023, just accepted.
   
   for PTB refer to:
   * S. Grimme, M. Mueller, A. Hansen, J. Chem. Phys., 2023, 158, 124111.
     DOI: 10.1063/5.0137838
   
   with help from (in alphabetical order)
   P. Atkinson, C. Bannwarth, F. Bohle, G. Brandenburg, E. Caldeweyher
   M. Checinski, S. Dohm, S. Ehlert, S. Ehrlich, I. Gerasimov, C. Hölzer
   A. Katbashev, J. Kohn, J. Koopman, C. Lavigne, S. Lehtola, F. März, M. Müller,
   F. Musil, H. Neugebauer, J. Pisarek, C. Plett, P. Pracht, F. Pultar,
   J. Seibert, P. Shushkov, S. Spicher, M. Stahn, M. Steiner, T. Strunk,
   J. Stückrath, T. Rose, and J. Unsleber
   
 * started run on 2025/04/03 at 17:02:03.056     
   ID    Z sym.   atoms
    1    6 C      1-10
    2    8 O      11
    3    1 H      12-33

           -------------------------------------------------
          |                Calculation Setup                |
           -------------------------------------------------

          program call               : /srv/scratch/z5358697/.xtb/bin/xtb solv.coord --gfn2 --sp --chrg 0 --norestart --parallel 1 --alpb water reference -I xtb_sp-xcontrol-inp
          hostname                   : k140
          coordinate file            : solv.coord
          omp threads                :                     1


           -------------------------------------------------
          |                 G F N 2 - x T B                 |
           -------------------------------------------------

        Reference                      10.1021/acs.jctc.8b01176
      * Hamiltonian:
        H0-scaling (s, p, d)           1.850000    2.230000    2.230000
        zeta-weighting                 0.500000
      * Dispersion:
        s8                             2.700000
        a1                             0.520000
        a2                             5.000000
        s9                             5.000000
      * Repulsion:
        kExp                           1.500000    1.000000
        rExp                           1.000000
      * Coulomb:
        alpha                          2.000000
        third order                    shell-resolved
        anisotropic                    true
        a3                             3.000000
        a5                             4.000000
        cn-shift                       1.200000
        cn-exp                         4.000000
        max-rad                        5.000000

      * Solvation model:               ALPB
        Solvent                        water
        Parameter file                 internal GFN2-xTB/ALPB
        Dielectric constant                8.0200E+01
        Reference state                gsolv=reference [X=1]
        Free energy shift                  2.8945E-03 Eh       1.8164E+00 kcal/mol
        Temperature                        2.9815E+02 K
        Density                            1.0000E+00 kg/L
        Solvent mass                       1.8000E+01 g/mol
        Interaction kernel             P16
        Born radius scaling (c1)           1.4744E+00
        Born radii integrator          GBOBC
        Born offset                        0.0000E+00 a0       0.0000E+00 AA
        H-bond correction              true
        Ion screening                  false
        Surface tension                    1.0000E-05 Eh       1.5569E+01 dyn/cm
        Grid points                               974 per atom

          ...................................................
          :                      SETUP                      :
          :.................................................:
          :  # basis functions                  66          :
          :  # atomic orbitals                  66          :
          :  # shells                           44          :
          :  # electrons                        68          :
          :  max. iterations                   250          :
          :  Hamiltonian                  GFN2-xTB          :
          :  restarted?                      false          :
          :  GBSA solvation                   true          :
          :  PC potential                    false          :
          :  electronic temp.          300.0000000     K    :
          :  accuracy                    1.0000000          :
          :  -> integral cutoff          0.2500000E+02      :
          :  -> integral neglect         0.1000000E-07      :
          :  -> SCF convergence          0.1000000E-05 Eh   :
          :  -> wf. convergence          0.1000000E-03 e    :
          :  Broyden damping             0.4000000          :
          :  net charge                          0          :
          :  unpaired electrons                  0          :
          ...................................................

 iter      E             dE          RMSdq      gap      omega  full diag
   1    -37.1478314 -0.371478E+02  0.306E+00   11.75       0.0  T
   2    -37.2068882 -0.590568E-01  0.171E+00   11.71       1.0  T
   3    -37.2087228 -0.183463E-02  0.655E-01   11.68       1.0  T
   4    -37.2090227 -0.299852E-03  0.968E-02   11.74       1.0  T
   5    -37.2090444 -0.217218E-04  0.563E-02   11.75       1.0  T
   6    -37.2090478 -0.341537E-05  0.874E-03   11.75       2.0  T
   7    -37.2090482 -0.353452E-06  0.433E-03   11.75       4.0  T
   8    -37.2090482 -0.632768E-07  0.187E-03   11.75       9.3  T
   9    -37.2090482 -0.116086E-07  0.598E-04   11.75      29.1  T
  10    -37.2090482 -0.196451E-08  0.147E-04   11.75     118.4  T

   *** convergence criteria satisfied after 10 iterations ***

         #    Occupation            Energy/Eh            Energy/eV
      -------------------------------------------------------------
         1        2.0000           -0.6878546             -18.7175
       ...           ...                  ...                  ...
        28        2.0000           -0.4318949             -11.7525
        29        2.0000           -0.4271800             -11.6242
        30        2.0000           -0.4240296             -11.5384
        31        2.0000           -0.4184921             -11.3877
        32        2.0000           -0.4180328             -11.3753
        33        2.0000           -0.4164284             -11.3316
        34        2.0000           -0.4064032             -11.0588 (HOMO)
        35                          0.0254529               0.6926 (LUMO)
        36                          0.0600501               1.6340
        37                          0.0928615               2.5269
        38                          0.1023057               2.7839
        39                          0.1115263               3.0348
       ...                                ...                  ...
        66                          0.3248811               8.8405
      -------------------------------------------------------------
                  HL-Gap            0.4318561 Eh           11.7514 eV
             Fermi-level           -0.1904751 Eh           -5.1831 eV

 SCC (total)                   0 d,  0 h,  0 min,  0.041 sec
 SCC setup                      ...        0 min,  0.002 sec (  4.113%)
 Dispersion                     ...        0 min,  0.000 sec (  0.520%)
 classical contributions        ...        0 min,  0.000 sec (  0.095%)
 integral evaluation            ...        0 min,  0.002 sec (  5.941%)
 iterations                     ...        0 min,  0.029 sec ( 70.630%)
 molecular gradient             ...        0 min,  0.008 sec ( 18.322%)
 printout                       ...        0 min,  0.000 sec (  0.355%)

         :::::::::::::::::::::::::::::::::::::::::::::::::::::
         ::                     SUMMARY                     ::
         :::::::::::::::::::::::::::::::::::::::::::::::::::::
         :: total energy             -36.714921777680 Eh    ::
         :: total w/o Gsasa/hb       -36.711995081451 Eh    ::
         :: gradient norm              0.000052455083 Eh/a0 ::
         :: HOMO-LUMO gap             11.751403309279 eV    ::
         ::.................................................::
         :: SCC energy               -37.209251572534 Eh    ::
         :: -> isotropic ES            0.038646150672 Eh    ::
         :: -> anisotropic ES          0.008736715015 Eh    ::
         :: -> anisotropic XC          0.017279666022 Eh    ::
         :: -> dispersion             -0.020060268536 Eh    ::
         :: -> Gsolv                  -0.007687706829 Eh    ::
         ::    -> Gelec               -0.004761010600 Eh    ::
         ::    -> Gsasa                0.000266943386 Eh    ::
         ::    -> Ghb                 -0.006088188775 Eh    ::
         ::    -> Gshift               0.002894549160 Eh    ::
         :: repulsion energy           0.494329794854 Eh    ::
         :: add. restraining           0.000000000000 Eh    ::
         :: total charge              -0.000000000000 e     ::
         :::::::::::::::::::::::::::::::::::::::::::::::::::::

           -------------------------------------------------
          |                Property Printout                |
           -------------------------------------------------

    * Orbital Energies and Occupations

         #    Occupation            Energy/Eh            Energy/eV
      -------------------------------------------------------------
         1        2.0000           -0.6878546             -18.7175
       ...           ...                  ...                  ...
        22        2.0000           -0.4646569             -12.6440
        23        2.0000           -0.4582550             -12.4698
        24        2.0000           -0.4502875             -12.2529
        25        2.0000           -0.4452274             -12.1153
        26        2.0000           -0.4412392             -12.0067
        27        2.0000           -0.4330227             -11.7831
        28        2.0000           -0.4318949             -11.7525
        29        2.0000           -0.4271800             -11.6242
        30        2.0000           -0.4240296             -11.5384
        31        2.0000           -0.4184921             -11.3877
        32        2.0000           -0.4180328             -11.3753
        33        2.0000           -0.4164284             -11.3316
        34        2.0000           -0.4064032             -11.0588 (HOMO)
        35                          0.0254529               0.6926 (LUMO)
        36                          0.0600501               1.6340
        37                          0.0928615               2.5269
        38                          0.1023057               2.7839
        39                          0.1115263               3.0348
        40                          0.1172589               3.1908
        41                          0.1197396               3.2583
        42                          0.1272280               3.4620
        43                          0.1410567               3.8383
        44                          0.1450470               3.9469
        45                          0.1465041               3.9866
       ...                                ...                  ...
        66                          0.3248811               8.8405
      -------------------------------------------------------------
                  HL-Gap            0.4318561 Eh           11.7514 eV
             Fermi-level           -0.1904751 Eh           -5.1831 eV

     #   Z          covCN         q      C6AA      α(0)
     1   6 C        3.752    -0.111    22.688     6.793
     2   6 C        3.801    -0.058    21.615     6.619
     3   6 C        3.803    -0.063    21.708     6.633
     4   6 C        3.803    -0.062    21.696     6.631
     5   6 C        3.803    -0.062    21.697     6.632
     6   6 C        3.803    -0.063    21.706     6.633
     7   6 C        3.803    -0.063    21.705     6.633
     8   6 C        3.803    -0.065    21.738     6.638
     9   6 C        3.801    -0.076    21.958     6.672
    10   6 C        3.675     0.079    19.482     6.325
    11   8 O        1.654    -0.521    23.345     6.522
    12   1 H        0.925     0.037     2.495     2.470
    13   1 H        0.925     0.037     2.485     2.465
    14   1 H        0.925     0.037     2.494     2.470
    15   1 H        0.924     0.030     2.583     2.513
    16   1 H        0.924     0.030     2.581     2.512
    17   1 H        0.924     0.032     2.565     2.505
    18   1 H        0.924     0.031     2.567     2.505
    19   1 H        0.924     0.030     2.580     2.512
    20   1 H        0.924     0.030     2.582     2.513
    21   1 H        0.924     0.032     2.559     2.502
    22   1 H        0.924     0.032     2.563     2.503
    23   1 H        0.924     0.032     2.554     2.499
    24   1 H        0.924     0.032     2.559     2.502
    25   1 H        0.924     0.035     2.523     2.484
    26   1 H        0.924     0.035     2.517     2.481
    27   1 H        0.924     0.035     2.518     2.481
    28   1 H        0.924     0.034     2.525     2.485
    29   1 H        0.924     0.041     2.435     2.440
    30   1 H        0.924     0.045     2.382     2.413
    31   1 H        0.923     0.021     2.721     2.580
    32   1 H        0.924     0.042     2.421     2.433
    33   1 H        0.805     0.355     0.577     1.193

 Mol. C6AA /au·bohr⁶  :       7279.856057
 Mol. C8AA /au·bohr⁸  :     151950.863445
 Mol. α(0) /au        :        126.192754


Wiberg/Mayer (AO) data.
largest (>0.10) Wiberg bond orders for each atom

 ---------------------------------------------------------------------------
     #   Z sym  total        # sym  WBO       # sym  WBO       # sym  WBO
 ---------------------------------------------------------------------------
     1   6 C    3.996 --     2 C    1.019    12 H    0.988    14 H    0.988
                            13 H    0.987
     2   6 C    3.997 --     1 C    1.019     3 C    1.008    15 H    0.979
                            16 H    0.979
     3   6 C    3.997 --     2 C    1.008     4 C    1.007    18 H    0.977
                            17 H    0.977
     4   6 C    3.997 --     3 C    1.007     5 C    1.007    20 H    0.977
                            19 H    0.977
     5   6 C    3.997 --     4 C    1.007     6 C    1.007    22 H    0.977
                            21 H    0.977
     6   6 C    3.996 --     5 C    1.007     7 C    1.007    24 H    0.977
                            23 H    0.977
     7   6 C    3.996 --     8 C    1.007     6 C    1.007    25 H    0.977
                            26 H    0.977
     8   6 C    3.996 --     7 C    1.007     9 C    1.006    28 H    0.977
                            27 H    0.977
     9   6 C    3.995 --     8 C    1.006    10 C    0.998    30 H    0.977
                            29 H    0.976
    10   6 C    3.951 --     9 C    0.998    11 O    0.993    32 H    0.974
                            31 H    0.971
    11   8 O    1.909 --    10 C    0.993    33 H    0.860
    12   1 H    0.999 --     1 C    0.988
    13   1 H    0.998 --     1 C    0.987
    14   1 H    0.999 --     1 C    0.988
    15   1 H    0.999 --     2 C    0.979
    16   1 H    0.999 --     2 C    0.979
    17   1 H    0.999 --     3 C    0.977
    18   1 H    0.999 --     3 C    0.977
    19   1 H    0.999 --     4 C    0.977
    20   1 H    0.999 --     4 C    0.977
    21   1 H    0.999 --     5 C    0.977
    22   1 H    0.999 --     5 C    0.977
    23   1 H    0.999 --     6 C    0.977
    24   1 H    0.999 --     6 C    0.977
    25   1 H    0.999 --     7 C    0.977
    26   1 H    0.999 --     7 C    0.977
    27   1 H    0.999 --     8 C    0.977
    28   1 H    0.999 --     8 C    0.977
    29   1 H    0.998 --     9 C    0.976
    30   1 H    0.998 --     9 C    0.977
    31   1 H    1.000 --    10 C    0.971
    32   1 H    0.998 --    10 C    0.974
    33   1 H    0.874 --    11 O    0.860
 ---------------------------------------------------------------------------

Topologies differ in total number of bonds
Writing topology from bond orders to xtbtopo.mol

molecular dipole:
                 x           y           z       tot (Debye)
 q only:        0.545      -0.204      -0.487
   full:        0.614      -0.219      -0.624       2.293
molecular quadrupole (traceless):
                xx          xy          yy          xz          yz          zz
 q only:       -9.798       3.509       5.587       8.664       1.309       4.211
  q+dip:      -16.198       3.645       6.823      11.206       1.673       9.375
   full:      -14.259       3.895       6.776      11.174       1.779       7.484


           -------------------------------------------------
          | TOTAL ENERGY              -36.714921777680 Eh   |
          | GRADIENT NORM               0.000052455083 Eh/α |
          | HOMO-LUMO GAP              11.751403309279 eV   |
           -------------------------------------------------

------------------------------------------------------------------------
 * finished run on 2025/04/03 at 17:02:03.152     
------------------------------------------------------------------------
 total:
 * wall-time:     0 d,  0 h,  0 min,  0.096 sec
 *  cpu-time:     0 d,  0 h,  0 min,  0.033 sec
 * ratio c/w:     0.343 speedup
 SCF:
 * wall-time:     0 d,  0 h,  0 min,  0.041 sec
 *  cpu-time:     0 d,  0 h,  0 min,  0.023 sec
 * ratio c/w:     0.550 speedup

