      -----------------------------------------------------------      
     |                   =====================                   |     
     |                           x T B                           |     
     |                   =====================                   |     
     |                         S. Grimme                         |     
     |          Mulliken Center for Theoretical Chemistry        |     
     |                    University of Bonn                     |     
      -----------------------------------------------------------      

   * xtb version 6.7.1 (edcfbbe) compiled by 'albert@albert-system' on 2024-07-22

   xtb is free software: you can redistribute it and/or modify it under
   the terms of the GNU Lesser General Public License as published by
   the Free Software Foundation, either version 3 of the License, or
   (at your option) any later version.
   
   xtb is distributed in the hope that it will be useful,
   but WITHOUT ANY WARRANTY; without even the implied warranty of
   MERCHANTABILITY or FITNESS FOR A PARTICULAR PURPOSE.  See the
   GNU Lesser General Public License for more details.
   
   Cite this work as:
   * C. Bannwarth, E. Caldeweyher, S. Ehlert, A. Hansen, P. Pracht,
     J. Seibert, S. Spicher, S. Grimme, WIREs Comput. Mol. Sci., 2020, 11,
     e01493. DOI: 10.1002/wcms.1493
   
   for GFN2-xTB:
   * C. Bannwarth, S. Ehlert and S. Grimme., J. Chem. Theory Comput., 2019,
     15, 1652-1671. DOI: 10.1021/acs.jctc.8b01176
   for GFN1-xTB:
   * S. Grimme, C. Bannwarth, P. Shushkov, J. Chem. Theory Comput., 2017,
     13, 1989-2009. DOI: 10.1021/acs.jctc.7b00118
   for GFN0-xTB:
   * P. Pracht, E. Caldeweyher, S. Ehlert, S. Grimme, ChemRxiv, 2019, preprint.
     DOI: 10.26434/chemrxiv.8326202.v1
   for GFN-FF:
   * S. Spicher and S. Grimme, Angew. Chem. Int. Ed., 2020, 59, 15665-15673.
     DOI: 10.1002/anie.202004239
   
   for ALPB and GBSA implicit solvation:
   * S. Ehlert, M. Stahn, S. Spicher, S. Grimme, J. Chem. Theory Comput.,
     2021, 17, 4250-4261. DOI: 10.1021/acs.jctc.1c00471
   
   for ddCOSMO and CPCM-X implicit solvation:
   * M. Stahn, S. Ehlert, S. Grimme, J. Phys. Chem. A,
     2023, XX, XXXX-XXXX. DOI: 10.1021/acs.jpca.3c04382
   
   for DFT-D4:
   * E. Caldeweyher, C. Bannwarth and S. Grimme, J. Chem. Phys., 2017,
     147, 034112. DOI: 10.1063/1.4993215
   * E. Caldeweyher, S. Ehlert, A. Hansen, H. Neugebauer, S. Spicher,
     C. Bannwarth and S. Grimme, J. Chem. Phys., 2019, 150, 154122.
     DOI: 10.1063/1.5090222
   * E. Caldeweyher, J.-M. Mewes, S. Ehlert and S. Grimme, Phys. Chem. Chem. Phys.
     2020, 22, 8499-8512. DOI: 10.1039/D0CP00502A
   
   for sTDA-xTB:
   * S. Grimme and C. Bannwarth, J. Chem. Phys., 2016, 145, 054103.
     DOI: 10.1063/1.4959605
   
   in the mass-spec context:
   * V. Asgeirsson, C. Bauer and S. Grimme, Chem. Sci., 2017, 8, 4879.
     DOI: 10.1039/c7sc00601b
   * J. Koopman and S. Grimme, ACS Omega 2019, 4, 12, 15120-15133.
     DOI: 10.1021/acsomega.9b02011
   
   for metadynamics refer to:
   * S. Grimme, J. Chem. Theory Comput., 2019, 155, 2847-2862
     DOI: 10.1021/acs.jctc.9b00143
   
   for SPH calculations refer to:
   * S. Spicher and S. Grimme, J. Chem. Theory Comput., 2021, 17, 1701-1714
     DOI: 10.1021/acs.jctc.0c01306
   
   for ONIOM refer to:
   * C. Plett, A. Katbashev, S. Ehlert, S. Grimme, M. Bursch,
     Phys. Chem. Chem. Phys., 2023, 25, 17860-17868. DOI: 10.1039/D3CP02178E
   
   for DIPRO refer to:
   * J. Kohn, N. Gildemeister, S. Grimme, D. Fazzi, A. Hansen,
     J. Chem. Phys., 2023, just accepted.
   
   for PTB refer to:
   * S. Grimme, M. Mueller, A. Hansen, J. Chem. Phys., 2023, 158, 124111.
     DOI: 10.1063/5.0137838
   
   with help from (in alphabetical order)
   P. Atkinson, C. Bannwarth, F. Bohle, G. Brandenburg, E. Caldeweyher
   M. Checinski, S. Dohm, S. Ehlert, S. Ehrlich, I. Gerasimov, C. Hölzer
   A. Katbashev, J. Kohn, J. Koopman, C. Lavigne, S. Lehtola, F. März, M. Müller,
   F. Musil, H. Neugebauer, J. Pisarek, C. Plett, P. Pracht, F. Pultar,
   J. Seibert, P. Shushkov, S. Spicher, M. Stahn, M. Steiner, T. Strunk,
   J. Stückrath, T. Rose, and J. Unsleber
   
 * started run on 2025/04/03 at 17:02:03.049     
   ID    Z sym.   atoms
    1    6 C      1-10
    2    8 O      11
    3    1 H      12-33

           -------------------------------------------------
          |                Calculation Setup                |
           -------------------------------------------------

          program call               : /srv/scratch/z5358697/.xtb/bin/xtb solv.coord --gfn2 --sp --chrg 0 --norestart --parallel 1 --alpb water reference -I xtb_sp-xcontrol-inp
          hostname                   : k140
          coordinate file            : solv.coord
          omp threads                :                     1


           -------------------------------------------------
          |                 G F N 2 - x T B                 |
           -------------------------------------------------

        Reference                      10.1021/acs.jctc.8b01176
      * Hamiltonian:
        H0-scaling (s, p, d)           1.850000    2.230000    2.230000
        zeta-weighting                 0.500000
      * Dispersion:
        s8                             2.700000
        a1                             0.520000
        a2                             5.000000
        s9                             5.000000
      * Repulsion:
        kExp                           1.500000    1.000000
        rExp                           1.000000
      * Coulomb:
        alpha                          2.000000
        third order                    shell-resolved
        anisotropic                    true
        a3                             3.000000
        a5                             4.000000
        cn-shift                       1.200000
        cn-exp                         4.000000
        max-rad                        5.000000

      * Solvation model:               ALPB
        Solvent                        water
        Parameter file                 internal GFN2-xTB/ALPB
        Dielectric constant                8.0200E+01
        Reference state                gsolv=reference [X=1]
        Free energy shift                  2.8945E-03 Eh       1.8164E+00 kcal/mol
        Temperature                        2.9815E+02 K
        Density                            1.0000E+00 kg/L
        Solvent mass                       1.8000E+01 g/mol
        Interaction kernel             P16
        Born radius scaling (c1)           1.4744E+00
        Born radii integrator          GBOBC
        Born offset                        0.0000E+00 a0       0.0000E+00 AA
        H-bond correction              true
        Ion screening                  false
        Surface tension                    1.0000E-05 Eh       1.5569E+01 dyn/cm
        Grid points                               974 per atom

          ...................................................
          :                      SETUP                      :
          :.................................................:
          :  # basis functions                  66          :
          :  # atomic orbitals                  66          :
          :  # shells                           44          :
          :  # electrons                        68          :
          :  max. iterations                   250          :
          :  Hamiltonian                  GFN2-xTB          :
          :  restarted?                      false          :
          :  GBSA solvation                   true          :
          :  PC potential                    false          :
          :  electronic temp.          300.0000000     K    :
          :  accuracy                    1.0000000          :
          :  -> integral cutoff          0.2500000E+02      :
          :  -> integral neglect         0.1000000E-07      :
          :  -> SCF convergence          0.1000000E-05 Eh   :
          :  -> wf. convergence          0.1000000E-03 e    :
          :  Broyden damping             0.4000000          :
          :  net charge                          0          :
          :  unpaired electrons                  0          :
          ...................................................

 iter      E             dE          RMSdq      gap      omega  full diag
   1    -37.1469003 -0.371469E+02  0.302E+00   11.77       0.0  T
   2    -37.2059701 -0.590698E-01  0.167E+00   11.73       1.0  T
   3    -37.2077589 -0.178879E-02  0.649E-01   11.70       1.0  T
   4    -37.2080518 -0.292896E-03  0.967E-02   11.76       1.0  T
   5    -37.2080729 -0.211572E-04  0.560E-02   11.77       1.0  T
   6    -37.2080764 -0.349668E-05  0.846E-03   11.77       2.1  T
   7    -37.2080767 -0.327847E-06  0.440E-03   11.77       4.0  T
   8    -37.2080768 -0.649335E-07  0.180E-03   11.77       9.7  T
   9    -37.2080768 -0.107728E-07  0.597E-04   11.77      29.2  T
  10    -37.2080768 -0.192139E-08  0.148E-04   11.77     117.8  T

   *** convergence criteria satisfied after 10 iterations ***

         #    Occupation            Energy/Eh            Energy/eV
      -------------------------------------------------------------
         1        2.0000           -0.6878962             -18.7186
       ...           ...                  ...                  ...
        28        2.0000           -0.4317943             -11.7497
        29        2.0000           -0.4264179             -11.6034
        30        2.0000           -0.4222473             -11.4899
        31        2.0000           -0.4194673             -11.4143
        32        2.0000           -0.4171525             -11.3513
        33        2.0000           -0.4145716             -11.2811
        34        2.0000           -0.4061751             -11.0526 (HOMO)
        35                          0.0263201               0.7162 (LUMO)
        36                          0.0634432               1.7264
        37                          0.0953257               2.5939
        38                          0.1017716               2.7693
        39                          0.1080422               2.9400
       ...                                ...                  ...
        66                          0.3247662               8.8373
      -------------------------------------------------------------
                  HL-Gap            0.4324952 Eh           11.7688 eV
             Fermi-level           -0.1899275 Eh           -5.1682 eV

 SCC (total)                   0 d,  0 h,  0 min,  0.046 sec
 SCC setup                      ...        0 min,  0.002 sec (  3.707%)
 Dispersion                     ...        0 min,  0.000 sec (  0.453%)
 classical contributions        ...        0 min,  0.000 sec (  0.080%)
 integral evaluation            ...        0 min,  0.003 sec (  6.372%)
 iterations                     ...        0 min,  0.033 sec ( 71.778%)
 molecular gradient             ...        0 min,  0.008 sec ( 17.300%)
 printout                       ...        0 min,  0.000 sec (  0.281%)

         :::::::::::::::::::::::::::::::::::::::::::::::::::::
         ::                     SUMMARY                     ::
         :::::::::::::::::::::::::::::::::::::::::::::::::::::
         :: total energy             -36.714009982993 Eh    ::
         :: total w/o Gsasa/hb       -36.711110959533 Eh    ::
         :: gradient norm              0.000048439730 Eh/a0 ::
         :: HOMO-LUMO gap             11.768794179617 eV    ::
         ::.................................................::
         :: SCC energy               -37.208246299506 Eh    ::
         :: -> isotropic ES            0.038633277898 Eh    ::
         :: -> anisotropic ES          0.008762496009 Eh    ::
         :: -> anisotropic XC          0.017218784050 Eh    ::
         :: -> dispersion             -0.020369093066 Eh    ::
         :: -> Gsolv                  -0.007657789934 Eh    ::
         ::    -> Gelec               -0.004758766474 Eh    ::
         ::    -> Gsasa                0.000276541398 Eh    ::
         ::    -> Ghb                 -0.006070114019 Eh    ::
         ::    -> Gshift               0.002894549160 Eh    ::
         :: repulsion energy           0.494236316513 Eh    ::
         :: add. restraining           0.000000000000 Eh    ::
         :: total charge              -0.000000000000 e     ::
         :::::::::::::::::::::::::::::::::::::::::::::::::::::

           -------------------------------------------------
          |                Property Printout                |
           -------------------------------------------------

    * Orbital Energies and Occupations

         #    Occupation            Energy/Eh            Energy/eV
      -------------------------------------------------------------
         1        2.0000           -0.6878962             -18.7186
       ...           ...                  ...                  ...
        22        2.0000           -0.4670508             -12.7091
        23        2.0000           -0.4585526             -12.4779
        24        2.0000           -0.4500615             -12.2468
        25        2.0000           -0.4468339             -12.1590
        26        2.0000           -0.4392759             -11.9533
        27        2.0000           -0.4350858             -11.8393
        28        2.0000           -0.4317943             -11.7497
        29        2.0000           -0.4264179             -11.6034
        30        2.0000           -0.4222473             -11.4899
        31        2.0000           -0.4194673             -11.4143
        32        2.0000           -0.4171525             -11.3513
        33        2.0000           -0.4145716             -11.2811
        34        2.0000           -0.4061751             -11.0526 (HOMO)
        35                          0.0263201               0.7162 (LUMO)
        36                          0.0634432               1.7264
        37                          0.0953257               2.5939
        38                          0.1017716               2.7693
        39                          0.1080422               2.9400
        40                          0.1122092               3.0534
        41                          0.1203492               3.2749
        42                          0.1305510               3.5525
        43                          0.1390700               3.7843
        44                          0.1396435               3.7999
        45                          0.1491941               4.0598
       ...                                ...                  ...
        66                          0.3247662               8.8373
      -------------------------------------------------------------
                  HL-Gap            0.4324952 Eh           11.7688 eV
             Fermi-level           -0.1899275 Eh           -5.1682 eV

     #   Z          covCN         q      C6AA      α(0)
     1   6 C        3.751    -0.110    22.669     6.790
     2   6 C        3.800    -0.058    21.622     6.621
     3   6 C        3.802    -0.063    21.700     6.632
     4   6 C        3.802    -0.062    21.688     6.630
     5   6 C        3.803    -0.062    21.697     6.631
     6   6 C        3.803    -0.063    21.702     6.632
     7   6 C        3.803    -0.063    21.704     6.633
     8   6 C        3.803    -0.065    21.737     6.638
     9   6 C        3.801    -0.076    21.958     6.672
    10   6 C        3.675     0.079    19.482     6.325
    11   8 O        1.654    -0.521    23.345     6.522
    12   1 H        0.925     0.037     2.492     2.469
    13   1 H        0.925     0.035     2.516     2.480
    14   1 H        0.925     0.037     2.488     2.466
    15   1 H        0.924     0.031     2.577     2.511
    16   1 H        0.924     0.031     2.570     2.507
    17   1 H        0.924     0.032     2.559     2.502
    18   1 H        0.924     0.029     2.597     2.520
    19   1 H        0.924     0.034     2.535     2.490
    20   1 H        0.924     0.030     2.580     2.512
    21   1 H        0.924     0.031     2.572     2.508
    22   1 H        0.924     0.030     2.582     2.513
    23   1 H        0.924     0.032     2.561     2.502
    24   1 H        0.924     0.032     2.557     2.501
    25   1 H        0.924     0.035     2.522     2.483
    26   1 H        0.924     0.034     2.525     2.485
    27   1 H        0.924     0.034     2.526     2.485
    28   1 H        0.924     0.035     2.519     2.482
    29   1 H        0.924     0.045     2.382     2.414
    30   1 H        0.924     0.041     2.436     2.441
    31   1 H        0.924     0.042     2.421     2.433
    32   1 H        0.923     0.021     2.722     2.580
    33   1 H        0.805     0.355     0.577     1.194

 Mol. C6AA /au·bohr⁶  :       7280.735670
 Mol. C8AA /au·bohr⁸  :     151959.080190
 Mol. α(0) /au        :        126.201951


Wiberg/Mayer (AO) data.
largest (>0.10) Wiberg bond orders for each atom

 ---------------------------------------------------------------------------
     #   Z sym  total        # sym  WBO       # sym  WBO       # sym  WBO
 ---------------------------------------------------------------------------
     1   6 C    3.997 --     2 C    1.020    12 H    0.988    13 H    0.987
                            14 H    0.986
     2   6 C    3.997 --     1 C    1.020     3 C    1.007    15 H    0.979
                            16 H    0.978
     3   6 C    3.997 --     4 C    1.008     2 C    1.007    18 H    0.977
                            17 H    0.977
     4   6 C    3.997 --     3 C    1.008     5 C    1.007    20 H    0.977
                            19 H    0.976
     5   6 C    3.997 --     6 C    1.007     4 C    1.007    21 H    0.977
                            22 H    0.977
     6   6 C    3.996 --     5 C    1.007     7 C    1.007    23 H    0.977
                            24 H    0.977
     7   6 C    3.996 --     8 C    1.007     6 C    1.007    26 H    0.977
                            25 H    0.977
     8   6 C    3.996 --     7 C    1.007     9 C    1.006    27 H    0.977
                            28 H    0.977
     9   6 C    3.995 --     8 C    1.006    10 C    0.998    29 H    0.977
                            30 H    0.976
    10   6 C    3.951 --     9 C    0.998    11 O    0.993    31 H    0.974
                            32 H    0.971
    11   8 O    1.909 --    10 C    0.993    33 H    0.860
    12   1 H    0.999 --     1 C    0.988
    13   1 H    0.999 --     1 C    0.987
    14   1 H    0.999 --     1 C    0.986
    15   1 H    0.999 --     2 C    0.979
    16   1 H    0.999 --     2 C    0.978
    17   1 H    0.999 --     3 C    0.977
    18   1 H    0.999 --     3 C    0.977
    19   1 H    0.999 --     4 C    0.976
    20   1 H    0.999 --     4 C    0.977
    21   1 H    0.999 --     5 C    0.977
    22   1 H    0.999 --     5 C    0.977
    23   1 H    0.999 --     6 C    0.977
    24   1 H    0.999 --     6 C    0.977
    25   1 H    0.999 --     7 C    0.977
    26   1 H    0.999 --     7 C    0.977
    27   1 H    0.999 --     8 C    0.977
    28   1 H    0.999 --     8 C    0.977
    29   1 H    0.998 --     9 C    0.977
    30   1 H    0.998 --     9 C    0.976
    31   1 H    0.998 --    10 C    0.974
    32   1 H    1.000 --    10 C    0.971
    33   1 H    0.874 --    11 O    0.860
 ---------------------------------------------------------------------------

Topologies differ in total number of bonds
Writing topology from bond orders to xtbtopo.mol

molecular dipole:
                 x           y           z       tot (Debye)
 q only:        0.516       0.011       0.533
   full:        0.578       0.047       0.674       2.260
molecular quadrupole (traceless):
                xx          xy          yy          xz          yz          zz
 q only:       -8.994       0.266       4.151     -10.188      -1.152       4.843
  q+dip:      -14.487      -1.032       6.059     -12.564       0.070       8.428
   full:      -12.825      -0.582       5.459     -12.679      -0.670       7.365


           -------------------------------------------------
          | TOTAL ENERGY              -36.714009982993 Eh   |
          | GRADIENT NORM               0.000048439730 Eh/α |
          | HOMO-LUMO GAP              11.768794179617 eV   |
           -------------------------------------------------

------------------------------------------------------------------------
 * finished run on 2025/04/03 at 17:02:03.135     
------------------------------------------------------------------------
 total:
 * wall-time:     0 d,  0 h,  0 min,  0.085 sec
 *  cpu-time:     0 d,  0 h,  0 min,  0.032 sec
 * ratio c/w:     0.373 speedup
 SCF:
 * wall-time:     0 d,  0 h,  0 min,  0.046 sec
 *  cpu-time:     0 d,  0 h,  0 min,  0.023 sec
 * ratio c/w:     0.506 speedup

