      -----------------------------------------------------------      
     |                   =====================                   |     
     |                           x T B                           |     
     |                   =====================                   |     
     |                         S. Grimme                         |     
     |          Mulliken Center for Theoretical Chemistry        |     
     |                    University of Bonn                     |     
      -----------------------------------------------------------      

   * xtb version 6.7.1 (edcfbbe) compiled by 'albert@albert-system' on 2024-07-22

   xtb is free software: you can redistribute it and/or modify it under
   the terms of the GNU Lesser General Public License as published by
   the Free Software Foundation, either version 3 of the License, or
   (at your option) any later version.
   
   xtb is distributed in the hope that it will be useful,
   but WITHOUT ANY WARRANTY; without even the implied warranty of
   MERCHANTABILITY or FITNESS FOR A PARTICULAR PURPOSE.  See the
   GNU Lesser General Public License for more details.
   
   Cite this work as:
   * C. Bannwarth, E. Caldeweyher, S. Ehlert, A. Hansen, P. Pracht,
     J. Seibert, S. Spicher, S. Grimme, WIREs Comput. Mol. Sci., 2020, 11,
     e01493. DOI: 10.1002/wcms.1493
   
   for GFN2-xTB:
   * C. Bannwarth, S. Ehlert and S. Grimme., J. Chem. Theory Comput., 2019,
     15, 1652-1671. DOI: 10.1021/acs.jctc.8b01176
   for GFN1-xTB:
   * S. Grimme, C. Bannwarth, P. Shushkov, J. Chem. Theory Comput., 2017,
     13, 1989-2009. DOI: 10.1021/acs.jctc.7b00118
   for GFN0-xTB:
   * P. Pracht, E. Caldeweyher, S. Ehlert, S. Grimme, ChemRxiv, 2019, preprint.
     DOI: 10.26434/chemrxiv.8326202.v1
   for GFN-FF:
   * S. Spicher and S. Grimme, Angew. Chem. Int. Ed., 2020, 59, 15665-15673.
     DOI: 10.1002/anie.202004239
   
   for ALPB and GBSA implicit solvation:
   * S. Ehlert, M. Stahn, S. Spicher, S. Grimme, J. Chem. Theory Comput.,
     2021, 17, 4250-4261. DOI: 10.1021/acs.jctc.1c00471
   
   for ddCOSMO and CPCM-X implicit solvation:
   * M. Stahn, S. Ehlert, S. Grimme, J. Phys. Chem. A,
     2023, XX, XXXX-XXXX. DOI: 10.1021/acs.jpca.3c04382
   
   for DFT-D4:
   * E. Caldeweyher, C. Bannwarth and S. Grimme, J. Chem. Phys., 2017,
     147, 034112. DOI: 10.1063/1.4993215
   * E. Caldeweyher, S. Ehlert, A. Hansen, H. Neugebauer, S. Spicher,
     C. Bannwarth and S. Grimme, J. Chem. Phys., 2019, 150, 154122.
     DOI: 10.1063/1.5090222
   * E. Caldeweyher, J.-M. Mewes, S. Ehlert and S. Grimme, Phys. Chem. Chem. Phys.
     2020, 22, 8499-8512. DOI: 10.1039/D0CP00502A
   
   for sTDA-xTB:
   * S. Grimme and C. Bannwarth, J. Chem. Phys., 2016, 145, 054103.
     DOI: 10.1063/1.4959605
   
   in the mass-spec context:
   * V. Asgeirsson, C. Bauer and S. Grimme, Chem. Sci., 2017, 8, 4879.
     DOI: 10.1039/c7sc00601b
   * J. Koopman and S. Grimme, ACS Omega 2019, 4, 12, 15120-15133.
     DOI: 10.1021/acsomega.9b02011
   
   for metadynamics refer to:
   * S. Grimme, J. Chem. Theory Comput., 2019, 155, 2847-2862
     DOI: 10.1021/acs.jctc.9b00143
   
   for SPH calculations refer to:
   * S. Spicher and S. Grimme, J. Chem. Theory Comput., 2021, 17, 1701-1714
     DOI: 10.1021/acs.jctc.0c01306
   
   for ONIOM refer to:
   * C. Plett, A. Katbashev, S. Ehlert, S. Grimme, M. Bursch,
     Phys. Chem. Chem. Phys., 2023, 25, 17860-17868. DOI: 10.1039/D3CP02178E
   
   for DIPRO refer to:
   * J. Kohn, N. Gildemeister, S. Grimme, D. Fazzi, A. Hansen,
     J. Chem. Phys., 2023, just accepted.
   
   for PTB refer to:
   * S. Grimme, M. Mueller, A. Hansen, J. Chem. Phys., 2023, 158, 124111.
     DOI: 10.1063/5.0137838
   
   with help from (in alphabetical order)
   P. Atkinson, C. Bannwarth, F. Bohle, G. Brandenburg, E. Caldeweyher
   M. Checinski, S. Dohm, S. Ehlert, S. Ehrlich, I. Gerasimov, C. Hölzer
   A. Katbashev, J. Kohn, J. Koopman, C. Lavigne, S. Lehtola, F. März, M. Müller,
   F. Musil, H. Neugebauer, J. Pisarek, C. Plett, P. Pracht, F. Pultar,
   J. Seibert, P. Shushkov, S. Spicher, M. Stahn, M. Steiner, T. Strunk,
   J. Stückrath, T. Rose, and J. Unsleber
   
 * started run on 2025/04/03 at 17:02:52.114     
   ID    Z sym.   atoms
    1    6 C      1-10
    2    8 O      11
    3    1 H      12-33

           -------------------------------------------------
          |                Calculation Setup                |
           -------------------------------------------------

          program call               : /srv/scratch/z5358697/.xtb/bin/xtb solv.coord --gfn2 --sp --chrg 0 --norestart --parallel 1 --alpb water reference -I xtb_sp-xcontrol-inp
          hostname                   : k140
          coordinate file            : solv.coord
          omp threads                :                     1


           -------------------------------------------------
          |                 G F N 2 - x T B                 |
           -------------------------------------------------

        Reference                      10.1021/acs.jctc.8b01176
      * Hamiltonian:
        H0-scaling (s, p, d)           1.850000    2.230000    2.230000
        zeta-weighting                 0.500000
      * Dispersion:
        s8                             2.700000
        a1                             0.520000
        a2                             5.000000
        s9                             5.000000
      * Repulsion:
        kExp                           1.500000    1.000000
        rExp                           1.000000
      * Coulomb:
        alpha                          2.000000
        third order                    shell-resolved
        anisotropic                    true
        a3                             3.000000
        a5                             4.000000
        cn-shift                       1.200000
        cn-exp                         4.000000
        max-rad                        5.000000

      * Solvation model:               ALPB
        Solvent                        water
        Parameter file                 internal GFN2-xTB/ALPB
        Dielectric constant                8.0200E+01
        Reference state                gsolv=reference [X=1]
        Free energy shift                  2.8945E-03 Eh       1.8164E+00 kcal/mol
        Temperature                        2.9815E+02 K
        Density                            1.0000E+00 kg/L
        Solvent mass                       1.8000E+01 g/mol
        Interaction kernel             P16
        Born radius scaling (c1)           1.4744E+00
        Born radii integrator          GBOBC
        Born offset                        0.0000E+00 a0       0.0000E+00 AA
        H-bond correction              true
        Ion screening                  false
        Surface tension                    1.0000E-05 Eh       1.5569E+01 dyn/cm
        Grid points                               974 per atom

          ...................................................
          :                      SETUP                      :
          :.................................................:
          :  # basis functions                  66          :
          :  # atomic orbitals                  66          :
          :  # shells                           44          :
          :  # electrons                        68          :
          :  max. iterations                   250          :
          :  Hamiltonian                  GFN2-xTB          :
          :  restarted?                      false          :
          :  GBSA solvation                   true          :
          :  PC potential                    false          :
          :  electronic temp.          300.0000000     K    :
          :  accuracy                    1.0000000          :
          :  -> integral cutoff          0.2500000E+02      :
          :  -> integral neglect         0.1000000E-07      :
          :  -> SCF convergence          0.1000000E-05 Eh   :
          :  -> wf. convergence          0.1000000E-03 e    :
          :  Broyden damping             0.4000000          :
          :  net charge                          0          :
          :  unpaired electrons                  0          :
          ...................................................

 iter      E             dE          RMSdq      gap      omega  full diag
   1    -37.1447561 -0.371448E+02  0.285E+00   12.45       0.0  T
   2    -37.2026684 -0.579123E-01  0.152E+00   12.42       1.0  T
   3    -37.2043975 -0.172918E-02  0.614E-01   12.40       1.0  T
   4    -37.2046767 -0.279181E-03  0.965E-02   12.41       1.0  T
   5    -37.2047012 -0.244733E-04  0.549E-02   12.42       1.0  T
   6    -37.2047045 -0.334538E-05  0.855E-03   12.43       2.0  T
   7    -37.2047049 -0.333187E-06  0.435E-03   12.43       4.0  T
   8    -37.2047050 -0.717334E-07  0.194E-03   12.43       9.0  T
   9    -37.2047050 -0.117232E-07  0.658E-04   12.43      26.4  T
  10    -37.2047050 -0.209116E-08  0.152E-04   12.43     114.5  T

   *** convergence criteria satisfied after 10 iterations ***

         #    Occupation            Energy/Eh            Energy/eV
      -------------------------------------------------------------
         1        2.0000           -0.6853860             -18.6503
       ...           ...                  ...                  ...
        28        2.0000           -0.4291524             -11.6778
        29        2.0000           -0.4231064             -11.5133
        30        2.0000           -0.4204232             -11.4403
        31        2.0000           -0.4142437             -11.2721
        32        2.0000           -0.4122091             -11.2168
        33        2.0000           -0.4075913             -11.0911
        34        2.0000           -0.4055156             -11.0346 (HOMO)
        35                          0.0512211               1.3938 (LUMO)
        36                          0.0630793               1.7165
        37                          0.0745939               2.0298
        38                          0.0947651               2.5787
        39                          0.1121913               3.0529
       ...                                ...                  ...
        66                          0.3233716               8.7994
      -------------------------------------------------------------
                  HL-Gap            0.4567367 Eh           12.4284 eV
             Fermi-level           -0.1771472 Eh           -4.8204 eV

 SCC (total)                   0 d,  0 h,  0 min,  0.032 sec
 SCC setup                      ...        0 min,  0.002 sec (  5.646%)
 Dispersion                     ...        0 min,  0.000 sec (  0.616%)
 classical contributions        ...        0 min,  0.000 sec (  0.123%)
 integral evaluation            ...        0 min,  0.002 sec (  7.813%)
 iterations                     ...        0 min,  0.019 sec ( 59.005%)
 molecular gradient             ...        0 min,  0.008 sec ( 26.332%)
 printout                       ...        0 min,  0.000 sec (  0.428%)

         :::::::::::::::::::::::::::::::::::::::::::::::::::::
         ::                     SUMMARY                     ::
         :::::::::::::::::::::::::::::::::::::::::::::::::::::
         :: total energy             -36.710781773907 Eh    ::
         :: total w/o Gsasa/hb       -36.706850870380 Eh    ::
         :: gradient norm              0.000038349704 Eh/a0 ::
         :: HOMO-LUMO gap             12.428438304106 eV    ::
         ::.................................................::
         :: SCC energy               -37.204602682608 Eh    ::
         :: -> isotropic ES            0.038799143013 Eh    ::
         :: -> anisotropic ES          0.009411943011 Eh    ::
         :: -> anisotropic XC          0.016776038559 Eh    ::
         :: -> dispersion             -0.021796181030 Eh    ::
         :: -> Gsolv                  -0.008555132191 Eh    ::
         ::    -> Gelec               -0.004624228664 Eh    ::
         ::    -> Gsasa               -0.000153279102 Eh    ::
         ::    -> Ghb                 -0.006672173586 Eh    ::
         ::    -> Gshift               0.002894549160 Eh    ::
         :: repulsion energy           0.493820908702 Eh    ::
         :: add. restraining           0.000000000000 Eh    ::
         :: total charge               0.000000000000 e     ::
         :::::::::::::::::::::::::::::::::::::::::::::::::::::

           -------------------------------------------------
          |                Property Printout                |
           -------------------------------------------------

    * Orbital Energies and Occupations

         #    Occupation            Energy/Eh            Energy/eV
      -------------------------------------------------------------
         1        2.0000           -0.6853860             -18.6503
       ...           ...                  ...                  ...
        22        2.0000           -0.4658510             -12.6765
        23        2.0000           -0.4566749             -12.4268
        24        2.0000           -0.4511477             -12.2764
        25        2.0000           -0.4468451             -12.1593
        26        2.0000           -0.4374598             -11.9039
        27        2.0000           -0.4337251             -11.8023
        28        2.0000           -0.4291524             -11.6778
        29        2.0000           -0.4231064             -11.5133
        30        2.0000           -0.4204232             -11.4403
        31        2.0000           -0.4142437             -11.2721
        32        2.0000           -0.4122091             -11.2168
        33        2.0000           -0.4075913             -11.0911
        34        2.0000           -0.4055156             -11.0346 (HOMO)
        35                          0.0512211               1.3938 (LUMO)
        36                          0.0630793               1.7165
        37                          0.0745939               2.0298
        38                          0.0947651               2.5787
        39                          0.1121913               3.0529
        40                          0.1186946               3.2298
        41                          0.1217384               3.3127
        42                          0.1236893               3.3658
        43                          0.1345952               3.6625
        44                          0.1383238               3.7640
        45                          0.1430143               3.8916
       ...                                ...                  ...
        66                          0.3233716               8.7994
      -------------------------------------------------------------
                  HL-Gap            0.4567367 Eh           12.4284 eV
             Fermi-level           -0.1771472 Eh           -4.8204 eV

     #   Z          covCN         q      C6AA      α(0)
     1   6 C        3.752    -0.111    22.676     6.791
     2   6 C        3.801    -0.057    21.603     6.617
     3   6 C        3.802    -0.062    21.688     6.630
     4   6 C        3.801    -0.061    21.663     6.627
     5   6 C        3.800    -0.062    21.689     6.631
     6   6 C        3.800    -0.062    21.689     6.631
     7   6 C        3.802    -0.061    21.680     6.629
     8   6 C        3.803    -0.060    21.658     6.626
     9   6 C        3.802    -0.067    21.781     6.645
    10   6 C        3.674     0.084    19.402     6.312
    11   8 O        1.655    -0.521    23.350     6.523
    12   1 H        0.925     0.036     2.498     2.472
    13   1 H        0.925     0.036     2.500     2.473
    14   1 H        0.925     0.036     2.499     2.472
    15   1 H        0.924     0.029     2.604     2.524
    16   1 H        0.924     0.028     2.612     2.527
    17   1 H        0.924     0.030     2.586     2.515
    18   1 H        0.924     0.033     2.538     2.491
    19   1 H        0.924     0.027     2.627     2.535
    20   1 H        0.924     0.033     2.545     2.495
    21   1 H        0.924     0.033     2.548     2.496
    22   1 H        0.924     0.030     2.584     2.514
    23   1 H        0.924     0.034     2.531     2.488
    24   1 H        0.924     0.031     2.577     2.510
    25   1 H        0.924     0.035     2.523     2.484
    26   1 H        0.924     0.030     2.588     2.516
    27   1 H        0.924     0.031     2.567     2.506
    28   1 H        0.924     0.044     2.399     2.422
    29   1 H        0.924     0.038     2.480     2.463
    30   1 H        0.924     0.046     2.371     2.408
    31   1 H        0.923     0.019     2.744     2.591
    32   1 H        0.923     0.021     2.718     2.578
    33   1 H        0.805     0.359     0.568     1.183

 Mol. C6AA /au·bohr⁶  :       7293.146583
 Mol. C8AA /au·bohr⁸  :     152087.668872
 Mol. α(0) /au        :        126.323528


Wiberg/Mayer (AO) data.
largest (>0.10) Wiberg bond orders for each atom

 ---------------------------------------------------------------------------
     #   Z sym  total        # sym  WBO       # sym  WBO       # sym  WBO
 ---------------------------------------------------------------------------
     1   6 C    3.996 --     2 C    1.019    13 H    0.988    14 H    0.988
                            12 H    0.987
     2   6 C    3.998 --     1 C    1.019     3 C    1.008    15 H    0.979
                            16 H    0.979
     3   6 C    3.997 --     4 C    1.008     2 C    1.008    17 H    0.977
                            18 H    0.976
     4   6 C    3.997 --     3 C    1.008     5 C    1.007    19 H    0.977
                            20 H    0.975
     5   6 C    3.997 --     6 C    1.007     4 C    1.007    22 H    0.977
                            21 H    0.976
     6   6 C    3.997 --     5 C    1.007     7 C    1.007    24 H    0.977
                            23 H    0.976
     7   6 C    3.997 --     8 C    1.008     6 C    1.007    26 H    0.977
                            25 H    0.975
     8   6 C    3.996 --     7 C    1.008     9 C    1.008    27 H    0.977
                            28 H    0.975
     9   6 C    3.996 --     8 C    1.008    10 C    1.005    30 H    0.976
                            29 H    0.976
    10   6 C    3.955 --     9 C    1.005    11 O    0.991    31 H    0.972
                            32 H    0.972
    11   8 O    1.901 --    10 C    0.991    33 H    0.858
    12   1 H    0.998 --     1 C    0.987
    13   1 H    0.999 --     1 C    0.988
    14   1 H    0.999 --     1 C    0.988
    15   1 H    0.999 --     2 C    0.979
    16   1 H    0.999 --     2 C    0.979
    17   1 H    0.999 --     3 C    0.977
    18   1 H    0.999 --     3 C    0.976
    19   1 H    0.999 --     4 C    0.977
    20   1 H    0.999 --     4 C    0.975
    21   1 H    0.999 --     5 C    0.976
    22   1 H    0.999 --     5 C    0.977
    23   1 H    0.999 --     6 C    0.976
    24   1 H    0.999 --     6 C    0.977
    25   1 H    0.999 --     7 C    0.975
    26   1 H    0.999 --     7 C    0.977
    27   1 H    0.999 --     8 C    0.977
    28   1 H    0.998 --     8 C    0.975
    29   1 H    0.999 --     9 C    0.976
    30   1 H    0.998 --     9 C    0.976
    31   1 H    0.999 --    10 C    0.972
    32   1 H    1.000 --    10 C    0.972
    33   1 H    0.871 --    11 O    0.858
 ---------------------------------------------------------------------------

Topologies differ in total number of bonds
Writing topology from bond orders to xtbtopo.mol

molecular dipole:
                 x           y           z       tot (Debye)
 q only:       -0.475       0.059      -0.189
   full:       -0.703       0.078      -0.201       1.869
molecular quadrupole (traceless):
                xx          xy          yy          xz          yz          zz
 q only:        7.799      -1.607      -3.947      -1.944       1.361      -3.852
  q+dip:       10.312      -1.232      -4.496      -2.205       0.910      -5.816
   full:       10.754      -1.570      -5.060      -2.359       1.311      -5.694


           -------------------------------------------------
          | TOTAL ENERGY              -36.710781773907 Eh   |
          | GRADIENT NORM               0.000038349704 Eh/α |
          | HOMO-LUMO GAP              12.428438304106 eV   |
           -------------------------------------------------

------------------------------------------------------------------------
 * finished run on 2025/04/03 at 17:02:52.195     
------------------------------------------------------------------------
 total:
 * wall-time:     0 d,  0 h,  0 min,  0.080 sec
 *  cpu-time:     0 d,  0 h,  0 min,  0.034 sec
 * ratio c/w:     0.425 speedup
 SCF:
 * wall-time:     0 d,  0 h,  0 min,  0.032 sec
 *  cpu-time:     0 d,  0 h,  0 min,  0.024 sec
 * ratio c/w:     0.735 speedup

