      -----------------------------------------------------------      
     |                   =====================                   |     
     |                           x T B                           |     
     |                   =====================                   |     
     |                         S. Grimme                         |     
     |          Mulliken Center for Theoretical Chemistry        |     
     |                    University of Bonn                     |     
      -----------------------------------------------------------      

   * xtb version 6.7.1 (edcfbbe) compiled by 'albert@albert-system' on 2024-07-22

   xtb is free software: you can redistribute it and/or modify it under
   the terms of the GNU Lesser General Public License as published by
   the Free Software Foundation, either version 3 of the License, or
   (at your option) any later version.
   
   xtb is distributed in the hope that it will be useful,
   but WITHOUT ANY WARRANTY; without even the implied warranty of
   MERCHANTABILITY or FITNESS FOR A PARTICULAR PURPOSE.  See the
   GNU Lesser General Public License for more details.
   
   Cite this work as:
   * C. Bannwarth, E. Caldeweyher, S. Ehlert, A. Hansen, P. Pracht,
     J. Seibert, S. Spicher, S. Grimme, WIREs Comput. Mol. Sci., 2020, 11,
     e01493. DOI: 10.1002/wcms.1493
   
   for GFN2-xTB:
   * C. Bannwarth, S. Ehlert and S. Grimme., J. Chem. Theory Comput., 2019,
     15, 1652-1671. DOI: 10.1021/acs.jctc.8b01176
   for GFN1-xTB:
   * S. Grimme, C. Bannwarth, P. Shushkov, J. Chem. Theory Comput., 2017,
     13, 1989-2009. DOI: 10.1021/acs.jctc.7b00118
   for GFN0-xTB:
   * P. Pracht, E. Caldeweyher, S. Ehlert, S. Grimme, ChemRxiv, 2019, preprint.
     DOI: 10.26434/chemrxiv.8326202.v1
   for GFN-FF:
   * S. Spicher and S. Grimme, Angew. Chem. Int. Ed., 2020, 59, 15665-15673.
     DOI: 10.1002/anie.202004239
   
   for ALPB and GBSA implicit solvation:
   * S. Ehlert, M. Stahn, S. Spicher, S. Grimme, J. Chem. Theory Comput.,
     2021, 17, 4250-4261. DOI: 10.1021/acs.jctc.1c00471
   
   for ddCOSMO and CPCM-X implicit solvation:
   * M. Stahn, S. Ehlert, S. Grimme, J. Phys. Chem. A,
     2023, XX, XXXX-XXXX. DOI: 10.1021/acs.jpca.3c04382
   
   for DFT-D4:
   * E. Caldeweyher, C. Bannwarth and S. Grimme, J. Chem. Phys., 2017,
     147, 034112. DOI: 10.1063/1.4993215
   * E. Caldeweyher, S. Ehlert, A. Hansen, H. Neugebauer, S. Spicher,
     C. Bannwarth and S. Grimme, J. Chem. Phys., 2019, 150, 154122.
     DOI: 10.1063/1.5090222
   * E. Caldeweyher, J.-M. Mewes, S. Ehlert and S. Grimme, Phys. Chem. Chem. Phys.
     2020, 22, 8499-8512. DOI: 10.1039/D0CP00502A
   
   for sTDA-xTB:
   * S. Grimme and C. Bannwarth, J. Chem. Phys., 2016, 145, 054103.
     DOI: 10.1063/1.4959605
   
   in the mass-spec context:
   * V. Asgeirsson, C. Bauer and S. Grimme, Chem. Sci., 2017, 8, 4879.
     DOI: 10.1039/c7sc00601b
   * J. Koopman and S. Grimme, ACS Omega 2019, 4, 12, 15120-15133.
     DOI: 10.1021/acsomega.9b02011
   
   for metadynamics refer to:
   * S. Grimme, J. Chem. Theory Comput., 2019, 155, 2847-2862
     DOI: 10.1021/acs.jctc.9b00143
   
   for SPH calculations refer to:
   * S. Spicher and S. Grimme, J. Chem. Theory Comput., 2021, 17, 1701-1714
     DOI: 10.1021/acs.jctc.0c01306
   
   for ONIOM refer to:
   * C. Plett, A. Katbashev, S. Ehlert, S. Grimme, M. Bursch,
     Phys. Chem. Chem. Phys., 2023, 25, 17860-17868. DOI: 10.1039/D3CP02178E
   
   for DIPRO refer to:
   * J. Kohn, N. Gildemeister, S. Grimme, D. Fazzi, A. Hansen,
     J. Chem. Phys., 2023, just accepted.
   
   for PTB refer to:
   * S. Grimme, M. Mueller, A. Hansen, J. Chem. Phys., 2023, 158, 124111.
     DOI: 10.1063/5.0137838
   
   with help from (in alphabetical order)
   P. Atkinson, C. Bannwarth, F. Bohle, G. Brandenburg, E. Caldeweyher
   M. Checinski, S. Dohm, S. Ehlert, S. Ehrlich, I. Gerasimov, C. Hölzer
   A. Katbashev, J. Kohn, J. Koopman, C. Lavigne, S. Lehtola, F. März, M. Müller,
   F. Musil, H. Neugebauer, J. Pisarek, C. Plett, P. Pracht, F. Pultar,
   J. Seibert, P. Shushkov, S. Spicher, M. Stahn, M. Steiner, T. Strunk,
   J. Stückrath, T. Rose, and J. Unsleber
   
 * started run on 2025/04/03 at 17:02:52.271     
   ID    Z sym.   atoms
    1    6 C      1-10
    2    8 O      11
    3    1 H      12-33

           -------------------------------------------------
          |                Calculation Setup                |
           -------------------------------------------------

          program call               : /srv/scratch/z5358697/.xtb/bin/xtb gas.coord --gfn2 --sp --chrg 0 --norestart --parallel 1
          hostname                   : k140
          coordinate file            : gas.coord
          omp threads                :                     1


           -------------------------------------------------
          |                 G F N 2 - x T B                 |
           -------------------------------------------------

        Reference                      10.1021/acs.jctc.8b01176
      * Hamiltonian:
        H0-scaling (s, p, d)           1.850000    2.230000    2.230000
        zeta-weighting                 0.500000
      * Dispersion:
        s8                             2.700000
        a1                             0.520000
        a2                             5.000000
        s9                             5.000000
      * Repulsion:
        kExp                           1.500000    1.000000
        rExp                           1.000000
      * Coulomb:
        alpha                          2.000000
        third order                    shell-resolved
        anisotropic                    true
        a3                             3.000000
        a5                             4.000000
        cn-shift                       1.200000
        cn-exp                         4.000000
        max-rad                        5.000000


          ...................................................
          :                      SETUP                      :
          :.................................................:
          :  # basis functions                  66          :
          :  # atomic orbitals                  66          :
          :  # shells                           44          :
          :  # electrons                        68          :
          :  max. iterations                   250          :
          :  Hamiltonian                  GFN2-xTB          :
          :  restarted?                      false          :
          :  GBSA solvation                  false          :
          :  PC potential                    false          :
          :  electronic temp.          300.0000000     K    :
          :  accuracy                    1.0000000          :
          :  -> integral cutoff          0.2500000E+02      :
          :  -> integral neglect         0.1000000E-07      :
          :  -> SCF convergence          0.1000000E-05 Eh   :
          :  -> wf. convergence          0.1000000E-03 e    :
          :  Broyden damping             0.4000000          :
          :  net charge                          0          :
          :  unpaired electrons                  0          :
          ...................................................

 iter      E             dE          RMSdq      gap      omega  full diag
   1    -37.1160942 -0.371161E+02  0.294E+00   12.11       0.0  T
   2    -37.1964353 -0.803411E-01  0.160E+00   11.62       1.0  T
   3    -37.1977454 -0.131005E-02  0.748E-01   11.76       1.0  T
   4    -37.1980337 -0.288371E-03  0.102E-01   11.86       1.0  T
   5    -37.1980832 -0.495054E-04  0.580E-02   11.87       1.0  T
   6    -37.1980852 -0.194581E-05  0.630E-03   11.87       2.8  T
   7    -37.1980854 -0.196512E-06  0.326E-03   11.87       5.3  T
   8    -37.1980854 -0.101248E-07  0.613E-04   11.87      28.4  T
   9    -37.1980854 -0.117805E-08  0.239E-04   11.87      72.9  T

   *** convergence criteria satisfied after 9 iterations ***

         #    Occupation            Energy/Eh            Energy/eV
      -------------------------------------------------------------
         1        2.0000           -0.6829740             -18.5847
       ...           ...                  ...                  ...
        28        2.0000           -0.4322361             -11.7617
        29        2.0000           -0.4274702             -11.6321
        30        2.0000           -0.4224949             -11.4967
        31        2.0000           -0.4215266             -11.4703
        32        2.0000           -0.4172157             -11.3530
        33        2.0000           -0.4110862             -11.1862
        34        2.0000           -0.4048434             -11.0164 (HOMO)
        35                          0.0315309               0.8580 (LUMO)
        36                          0.0565335               1.5384
        37                          0.0826161               2.2481
        38                          0.0993541               2.7036
        39                          0.1071802               2.9165
       ...                                ...                  ...
        66                          0.3259224               8.8688
      -------------------------------------------------------------
                  HL-Gap            0.4363744 Eh           11.8744 eV
             Fermi-level           -0.1866562 Eh           -5.0792 eV

 SCC (total)                   0 d,  0 h,  0 min,  0.022 sec
 SCC setup                      ...        0 min,  0.000 sec (  0.919%)
 Dispersion                     ...        0 min,  0.000 sec (  0.900%)
 classical contributions        ...        0 min,  0.000 sec (  0.170%)
 integral evaluation            ...        0 min,  0.002 sec ( 11.357%)
 iterations                     ...        0 min,  0.011 sec ( 50.478%)
 molecular gradient             ...        0 min,  0.008 sec ( 35.533%)
 printout                       ...        0 min,  0.000 sec (  0.570%)

         :::::::::::::::::::::::::::::::::::::::::::::::::::::
         ::                     SUMMARY                     ::
         :::::::::::::::::::::::::::::::::::::::::::::::::::::
         :: total energy             -36.704266115445 Eh    ::
         :: gradient norm              0.004986740472 Eh/a0 ::
         :: HOMO-LUMO gap             11.874351367419 eV    ::
         ::.................................................::
         :: SCC energy               -37.198202986270 Eh    ::
         :: -> isotropic ES            0.029657421331 Eh    ::
         :: -> anisotropic ES          0.009919015062 Eh    ::
         :: -> anisotropic XC          0.016682653964 Eh    ::
         :: -> dispersion             -0.021116606196 Eh    ::
         :: repulsion energy           0.493936870825 Eh    ::
         :: add. restraining           0.000000000000 Eh    ::
         :: total charge              -0.000000000000 e     ::
         :::::::::::::::::::::::::::::::::::::::::::::::::::::

           -------------------------------------------------
          |                Property Printout                |
           -------------------------------------------------

    * Orbital Energies and Occupations

         #    Occupation            Energy/Eh            Energy/eV
      -------------------------------------------------------------
         1        2.0000           -0.6829740             -18.5847
       ...           ...                  ...                  ...
        22        2.0000           -0.4657823             -12.6746
        23        2.0000           -0.4606457             -12.5348
        24        2.0000           -0.4562989             -12.4165
        25        2.0000           -0.4463291             -12.1452
        26        2.0000           -0.4421210             -12.0307
        27        2.0000           -0.4353662             -11.8469
        28        2.0000           -0.4322361             -11.7617
        29        2.0000           -0.4274702             -11.6321
        30        2.0000           -0.4224949             -11.4967
        31        2.0000           -0.4215266             -11.4703
        32        2.0000           -0.4172157             -11.3530
        33        2.0000           -0.4110862             -11.1862
        34        2.0000           -0.4048434             -11.0164 (HOMO)
        35                          0.0315309               0.8580 (LUMO)
        36                          0.0565335               1.5384
        37                          0.0826161               2.2481
        38                          0.0993541               2.7036
        39                          0.1071802               2.9165
        40                          0.1150272               3.1300
        41                          0.1226456               3.3374
        42                          0.1248124               3.3963
        43                          0.1341902               3.6515
        44                          0.1393258               3.7912
        45                          0.1429903               3.8910
       ...                                ...                  ...
        66                          0.3259224               8.8688
      -------------------------------------------------------------
                  HL-Gap            0.4363744 Eh           11.8744 eV
             Fermi-level           -0.1866562 Eh           -5.0792 eV

     #   Z          covCN         q      C6AA      α(0)
     1   6 C        3.751    -0.102    22.511     6.766
     2   6 C        3.800    -0.053    21.528     6.606
     3   6 C        3.801    -0.059    21.632     6.622
     4   6 C        3.801    -0.059    21.632     6.622
     5   6 C        3.802    -0.059    21.630     6.621
     6   6 C        3.802    -0.059    21.634     6.622
     7   6 C        3.802    -0.061    21.664     6.627
     8   6 C        3.802    -0.062    21.697     6.632
     9   6 C        3.801    -0.065    21.746     6.639
    10   6 C        3.673     0.088    19.345     6.303
    11   8 O        1.655    -0.445    21.751     6.296
    12   1 H        0.925     0.034     2.535     2.490
    13   1 H        0.925     0.031     2.571     2.508
    14   1 H        0.925     0.034     2.531     2.488
    15   1 H        0.924     0.028     2.620     2.531
    16   1 H        0.924     0.029     2.605     2.524
    17   1 H        0.924     0.030     2.580     2.512
    18   1 H        0.924     0.029     2.595     2.519
    19   1 H        0.924     0.032     2.554     2.499
    20   1 H        0.924     0.030     2.590     2.517
    21   1 H        0.924     0.028     2.621     2.532
    22   1 H        0.924     0.030     2.581     2.513
    23   1 H        0.924     0.029     2.594     2.519
    24   1 H        0.924     0.032     2.564     2.504
    25   1 H        0.924     0.033     2.545     2.495
    26   1 H        0.924     0.027     2.622     2.532
    27   1 H        0.924     0.031     2.568     2.506
    28   1 H        0.924     0.037     2.494     2.470
    29   1 H        0.924     0.047     2.362     2.403
    30   1 H        0.924     0.050     2.320     2.382
    31   1 H        0.924     0.016     2.790     2.612
    32   1 H        0.923     0.015     2.806     2.620
    33   1 H        0.805     0.283     0.774     1.382

 Mol. C6AA /au·bohr⁶  :       7298.096188
 Mol. C8AA /au·bohr⁸  :     151951.023474
 Mol. α(0) /au        :        126.412881


Wiberg/Mayer (AO) data.
largest (>0.10) Wiberg bond orders for each atom

 ---------------------------------------------------------------------------
     #   Z sym  total        # sym  WBO       # sym  WBO       # sym  WBO
 ---------------------------------------------------------------------------
     1   6 C    3.997 --     2 C    1.020    12 H    0.988    13 H    0.988
                            14 H    0.986
     2   6 C    3.998 --     1 C    1.020     3 C    1.007    15 H    0.979
                            16 H    0.978
     3   6 C    3.998 --     4 C    1.009     2 C    1.007    17 H    0.977
                            18 H    0.975
     4   6 C    3.997 --     3 C    1.009     5 C    1.006    20 H    0.977
                            19 H    0.976
     5   6 C    3.997 --     6 C    1.008     4 C    1.006    21 H    0.978
                            22 H    0.977
     6   6 C    3.997 --     5 C    1.008     7 C    1.006    23 H    0.977
                            24 H    0.975
     7   6 C    3.997 --     8 C    1.007     6 C    1.006    25 H    0.977
                            26 H    0.976
     8   6 C    3.997 --     7 C    1.007     9 C    1.007    27 H    0.977
                            28 H    0.977
     9   6 C    3.994 --     8 C    1.007    10 C    1.005    29 H    0.976
                            30 H    0.975
    10   6 C    3.956 --     9 C    1.005    11 O    0.991    32 H    0.972
                            31 H    0.972
    11   8 O    1.947 --    10 C    0.991    33 H    0.906
    12   1 H    0.999 --     1 C    0.988
    13   1 H    0.999 --     1 C    0.988
    14   1 H    0.999 --     1 C    0.986
    15   1 H    0.999 --     2 C    0.979
    16   1 H    0.999 --     2 C    0.978
    17   1 H    0.999 --     3 C    0.977
    18   1 H    0.999 --     3 C    0.975
    19   1 H    0.999 --     4 C    0.976
    20   1 H    0.999 --     4 C    0.977
    21   1 H    0.999 --     5 C    0.978
    22   1 H    0.999 --     5 C    0.977
    23   1 H    0.999 --     6 C    0.977
    24   1 H    0.999 --     6 C    0.975
    25   1 H    0.999 --     7 C    0.977
    26   1 H    0.999 --     7 C    0.976
    27   1 H    0.999 --     8 C    0.977
    28   1 H    0.998 --     8 C    0.977
    29   1 H    0.998 --     9 C    0.976
    30   1 H    0.997 --     9 C    0.975
    31   1 H    1.000 --    10 C    0.972
    32   1 H    1.000 --    10 C    0.972
    33   1 H    0.919 --    11 O    0.906
 ---------------------------------------------------------------------------

Topologies differ in total number of bonds
Writing topology from bond orders to xtbtopo.mol

molecular dipole:
                 x           y           z       tot (Debye)
 q only:        0.318       0.082      -0.342
   full:        0.317       0.102      -0.602       1.749
molecular quadrupole (traceless):
                xx          xy          yy          xz          yz          zz
 q only:       -4.417      -1.090       1.023       6.502       0.808       3.394
  q+dip:       -8.121      -2.184       3.029      11.085       0.148       5.093
   full:       -6.485      -1.722       1.840      10.914       0.582       4.645


           -------------------------------------------------
          | TOTAL ENERGY              -36.704266115445 Eh   |
          | GRADIENT NORM               0.004986740472 Eh/α |
          | HOMO-LUMO GAP              11.874351367419 eV   |
           -------------------------------------------------

------------------------------------------------------------------------
 * finished run on 2025/04/03 at 17:02:52.325     
------------------------------------------------------------------------
 total:
 * wall-time:     0 d,  0 h,  0 min,  0.054 sec
 *  cpu-time:     0 d,  0 h,  0 min,  0.030 sec
 * ratio c/w:     0.566 speedup
 SCF:
 * wall-time:     0 d,  0 h,  0 min,  0.022 sec
 *  cpu-time:     0 d,  0 h,  0 min,  0.020 sec
 * ratio c/w:     0.936 speedup

