32
CONF1
C 5.7028261808 0.2982679162 -0.0051398878
C 4.4231971353 -0.5298223711 -0.0045233356
C 3.1759467798 0.3512217939 0.0029198536
C 1.8892435010 -0.4707695500 0.0023916693
C 0.6435392926 0.4123726603 0.0051902972
C -0.6432985000 -0.4094430724 0.0051398705
C -1.8895866831 0.4728582731 0.0021396980
C -3.1753865029 -0.3505729535 0.0017111629
C -4.4241555684 0.5282914295 -0.0047436462
C -5.7023527242 -0.3019888463 -0.0042740958
H 6.5771080266 -0.3479413975 -0.0086484090
H 5.7463238861 0.9316524362 0.8780810809
H 5.7426360020 0.9361045607 -0.8853065257
H 4.4106870569 -1.1785146721 0.8743305290
H 4.4052830388 -1.1712826364 -0.8885949496
H 3.1890683992 1.0007626439 -0.8756097078
H 3.1936188733 0.9927048250 0.8872672133
H 1.8742629569 -1.1184845436 0.8822346276
H 1.8727205990 -1.1145396032 -0.8803345608
H 0.6582018206 1.0591971449 -0.8752140115
H 0.6600086336 1.0566994376 0.8873778687
H -0.6596897637 -1.0537044382 0.8873847904
H -0.6576817939 -1.0563917447 -0.8751834462
H -1.8756451941 1.1201102526 0.8823300752
H -1.8732453493 1.1170714850 -0.8802460484
H -3.1875590616 -0.9992159848 -0.8774765407
H -3.1922228860 -0.9930382781 0.8853380542
H -4.4121137182 1.1770435246 0.8740300922
H -4.4080145514 1.1696848765 -0.8888758990
H -6.5778993396 0.3425045963 -0.0089626100
H -5.7407488601 -0.9412365805 -0.8834724775
H -5.7447759577 -0.9341347346 0.8798793001
32
CONF5
C 4.9170299814 -0.5447923641 1.0100944740
C 4.5420242548 -0.1413373569 -0.4116311479
C 3.2232129458 0.6289453125 -0.4920757000
C 2.0025027204 -0.2199885499 -0.1425030537
C 0.6991714567 0.5508417903 -0.3405212974
C -0.5249439091 -0.2902241508 0.0142591927
C -1.8286160035 0.4789277658 -0.1866549787
C -3.0528723733 -0.3624193431 0.1664328440
C -4.3571923930 0.4065841236 -0.0319066276
C -5.5748727985 -0.4387442050 0.3226788875
H 4.1970607661 -1.2487659428 1.4184690230
H 4.9499925696 0.3297132012 1.6561449460
H 5.8964756238 -1.0171077361 1.0213932256
H 4.4747189135 -1.0348368577 -1.0364023235
H 5.3366281080 0.4877308743 -0.8197313341
H 3.1031721905 1.0102416778 -1.5092914320
H 3.2680437780 1.4900702393 0.1788065862
H 2.0648991669 -0.5470159706 0.8966208930
H 1.9923755208 -1.1124957596 -0.7728797496
H 0.6245683177 0.8742456184 -1.3816223283
H 0.7128976985 1.4483568065 0.2824730333
H -0.4527374741 -0.6110727679 1.0561868054
H -0.5371453852 -1.1889493082 -0.6069906434
H -1.8167098133 1.3772745948 0.4352224246
H -1.9004494240 0.8009361326 -1.2283188728
H -3.0657085036 -1.2597539328 -0.4568319008
H -2.9803152908 -0.6854568734 1.2076879496
H -4.3439614416 1.3036121786 0.5913478051
H -4.4297185267 0.7290652178 -1.0730733083
H -5.6158245800 -1.3278469026 -0.3025562958
H -5.5291437506 -0.7541256025 1.3626562999
H -6.4906666974 0.1283013727 0.1749832605
32
CONF3
C 5.2405748402 0.7435706956 -0.5725596950
C 3.8183556570 0.2035879291 -0.6701613594
C 3.3047495303 -0.2756426464 0.6863289809
C 1.9229716201 -0.9273792936 0.6200914940
C 0.8056158156 0.0522518781 0.2666164470
C -0.5695931339 -0.6091600740 0.3249714618
C -1.6896637790 0.3630836706 -0.0382327239
C -3.0659408045 -0.2947032829 0.0276844063
C -4.1875001572 0.6779478795 -0.3300806919
C -5.5581538495 0.0151375769 -0.2590297472
H 5.2821740119 1.5807690086 0.1207498282
H 5.5881330970 1.0846837865 -1.5447350955
H 5.9186061607 -0.0289640335 -0.2163841295
H 3.7938130846 -0.6285297968 -1.3775820729
H 3.1654959262 0.9884251129 -1.0550512072
H 3.2716971160 0.5695177411 1.3780065348
H 4.0139574252 -1.0031433360 1.0891018264
H 1.7007907841 -1.3725750872 1.5931584092
H 1.9402201797 -1.7356038407 -0.1149234015
H 0.9649807413 0.4478258291 -0.7378454811
H 0.8304498268 0.8932584424 0.9637370467
H -0.7418857134 -0.9974914692 1.3317026003
H -0.5909375889 -1.4575989921 -0.3631637762
H -1.6638364361 1.2145129452 0.6461915551
H -1.5212961498 0.7469006867 -1.0473527300
H -3.0930501565 -1.1440311128 -0.6591914694
H -3.2327584865 -0.6810191540 1.0360635286
H -4.1590713923 1.5275769703 0.3559668279
H -4.0219104304 1.0625961895 -1.3389949484
H -6.3402748517 0.7240058614 -0.5195400054
H -5.6107904264 -0.8245645476 -0.9485020085
H -5.7497150207 -0.3551489142 0.7456704330
32
CONF2
C 5.3076177964 0.1693779905 0.7944379489
C 3.8598210299 -0.2952400451 0.8993613075
C 3.0107186389 0.2213452669 -0.2600548836
C 1.5595295785 -0.2442330800 -0.1636931985
C 0.7157510424 0.2842197622 -1.3221183029
C -0.7156271900 -0.2540497551 -1.3280907214
C -1.5605043508 0.2515308203 -0.1603172204
C -3.0106508321 -0.2154392784 -0.2652398261
C -3.8603644099 0.2763189502 0.9044789936
C -5.3064026921 -0.1921759801 0.7926969789
H 5.3598219147 1.2558132469 0.8015786366
H 5.7557429654 -0.1881670097 -0.1299375001
H 5.8925986229 -0.2087907774 1.6292128031
H 3.4334646622 0.0556651979 1.8419192982
H 3.8288287707 -1.3871623680 0.9090947323
H 3.4402051824 -0.1260599782 -1.2028858349
H 3.0387886261 1.3136249474 -0.2680145997
H 1.1407664725 0.0972099820 0.7844638661
H 1.5306613581 -1.3365457121 -0.1664529904
H 1.1976990361 0.0013221370 -2.2613113714
H 0.6900983395 1.3756675936 -1.2813816712
H -0.6898342960 -1.3460888422 -1.3085563601
H -1.1967329888 0.0469773237 -2.2620697787
H -1.1410477842 -0.1063108690 0.7814634284
H -1.5339145570 1.3437658642 -0.1431238314
H -3.4414038111 0.1492011349 -1.2009524243
H -3.0360934535 -1.3074268367 -0.2944462196
H -3.4314249596 -0.0902579501 1.8398778025
H -3.8337043601 1.3679844467 0.9343854396
H -5.8917063464 0.1678231307 1.6352422525
H -5.7573415341 0.1808073724 -0.1241885297
H -5.3541444567 -1.2787702763 0.7795256700
32
CONF4
C 5.2256394091 0.3831135782 1.0490899472
C 4.2102392308 -0.3023293068 0.1423165092
C 2.8044119873 0.2629595911 0.3321630174
C 1.7817228120 -0.4202623850 -0.5726636569
C 0.3761863248 0.1460805139 -0.3825734519
C -0.6418802615 -0.5495081145 -1.2841184397
C -2.0411318225 0.0630649977 -1.2093965425
C -2.7276727068 -0.1495223483 0.1383379339
C -4.1650722850 0.3667731483 0.1318298424
C -4.8487511599 0.1617106267 1.4785601497
H 4.9531591662 0.2505529768 2.0937180176
H 5.2645473757 1.4495441576 0.8387275656
H 6.2179776304 -0.0340323084 0.8967670504
H 4.1986139950 -1.3737565693 0.3549077331
H 4.5108872716 -0.1759764251 -0.9002416059
H 2.8156067450 1.3345292806 0.1189472241
H 2.5041821469 0.1375121068 1.3752128831
H 1.7700793432 -1.4917725911 -0.3589386487
H 2.0836179453 -0.2963467622 -1.6155537401
H 0.3850546450 1.2152482211 -0.6076255235
H 0.0856651987 0.0282239244 0.6626373644
H -0.6969513931 -1.6074166623 -1.0168905282
H -0.2903169297 -0.4892321721 -2.3171757365
H -1.9773462210 1.1337972021 -1.4171633880
H -2.6597862966 -0.3868948115 -1.9900278171
H -2.7297950113 -1.2158427865 0.3768694160
H -2.1707751811 0.3662259315 0.9224034732
H -4.1635414544 1.4306204263 -0.1163605449
H -4.7312036523 -0.1524664785 -0.6449832526
H -4.3107451836 0.6894256705 2.2629250214
H -5.8694487596 0.5351583401 1.4504707171
H -4.8759670892 -0.8952170509 1.7341596101
32
CONF20
C 4.6952396828 -0.6552449370 -1.2252262189
C 3.4608672044 -0.9148979392 -0.3697409764
C 2.5670916157 0.3193298161 -0.2697514104
C 1.3300941336 0.0660311256 0.5891226955
C 0.4364878801 1.3013934597 0.6754236130
C -0.7415810179 1.1369314280 1.6376235556
C -1.7261881160 0.0245204358 1.2719134314
C -2.4097698861 0.2350177193 -0.0772679742
C -3.4908705478 -0.8121801692 -0.3365984801
C -4.1589925473 -0.6144987734 -1.6922774851
H 5.2889729399 0.1515574161 -0.8012992606
H 4.4057534259 -0.3723539983 -2.2348692672
H 5.3159654398 -1.5460873692 -1.2820638897
H 3.7712170917 -1.2160074508 0.6334597596
H 2.8885092335 -1.7400572194 -0.7998249793
H 2.2541653982 0.6193446044 -1.2728882019
H 3.1412100978 1.1455789238 0.1566661756
H 1.6424161498 -0.2241629257 1.5953374601
H 0.7694682287 -0.7670399984 0.1617541039
H 0.0679561190 1.5527317971 -0.3204625636
H 1.0396448349 2.1455330549 1.0197658160
H -1.2855601302 2.0838094188 1.6815347744
H -0.3499264923 0.9358004973 2.6379052741
H -1.2126697139 -0.9384036106 1.2721392821
H -2.4932569839 -0.0180961634 2.0496513887
H -2.8594162356 1.2306699577 -0.1023384234
H -1.6706613294 0.1829363147 -0.8784583447
H -3.0440545861 -1.8082986226 -0.2940024353
H -4.2453393567 -0.7553127867 0.4515566978
H -3.4271025238 -0.6959496578 -2.4929673012
H -4.9291077244 -1.3650142962 -1.8529814982
H -4.6198526816 0.3691798748 -1.7493671562
32
CONF33
C 4.2452735277 0.2954480065 -1.3759661923
C 3.9323769841 0.7652774738 0.0402079717
C 3.3868964969 -0.3462658678 0.9389645650
C 2.0553482329 -0.9487064782 0.4868473382
C 0.9020228918 0.0524510174 0.4866217626
C -0.4321225669 -0.6206792586 0.1716593830
C -1.5900244397 0.3747432920 0.1606801909
C -2.9242250483 -0.2993738381 -0.1504043402
C -4.0839066552 0.6940947128 -0.1604848748
C -5.4117578064 0.0138289725 -0.4721221280
H 4.9153771139 -0.5612239080 -1.3525234999
H 4.7257574785 1.0921143051 -1.9391293654
H 3.3383599738 0.0097065286 -1.9019870441
H 3.2204260961 1.5911089118 0.0015220927
H 4.8493711163 1.1478700736 0.4951323011
H 3.2642588856 0.0535042607 1.9487424547
H 4.1285905470 -1.1473916334 0.9899957891
H 1.8058479498 -1.7677998866 1.1663901511
H 2.1630860453 -1.3779473298 -0.5104765239
H 1.0872238506 0.8314464238 -0.2548631382
H 0.8412318967 0.5329882549 1.4661832252
H -0.6307660270 -1.3958703045 0.9157375191
H -0.3679046745 -1.1097149515 -0.8034195692
H -1.6524451564 0.8657765059 1.1348351939
H -1.3942822915 1.1483997598 -0.5857448677
H -2.8618816986 -0.7897608351 -1.1248433369
H -3.1197592101 -1.0731621098 0.5958496691
H -4.1465768520 1.1836133374 0.8140648342
H -3.8883420960 1.4676804737 -0.9065507389
H -5.6329703384 -0.7476005987 0.2724553700
H -6.2220735672 0.7386736731 -0.4743054875
H -5.3744668352 -0.4638221888 -1.4486327963
32
CONF21
C 4.6844947947 -0.7372269579 -1.1849083565
C 3.4446781893 -0.9434719426 -0.3227305909
C 2.5642863995 0.3036990751 -0.2832857782
C 1.3233781641 0.1053453557 0.5843525243
C 0.4358955127 1.3480906613 0.5978915915
C -0.7430616033 1.2465810535 1.5676733903
C -1.7275531773 0.1129301765 1.2736987790
C -2.4046289819 0.2319617821 -0.0897923261
C -3.4784930638 -0.8359526748 -0.2870402471
C -4.1374883813 -0.7315488206 -1.6575263282
H 4.4011863661 -0.4951257560 -2.2068376282
H 5.2938978544 -1.6374994974 -1.2008404105
H 5.2874504314 0.0797590389 -0.7948675494
H 3.7484716288 -1.2013478601 0.6944291775
H 2.8644532397 -1.7812370768 -0.7163680575
H 2.2559400754 0.5585815014 -1.3002398553
H 3.1467366338 1.1432296203 0.1040333391
H 1.6309740301 -0.1296650810 1.6062917109
H 0.7596676551 -0.7474625861 0.2023153302
H 0.0684649546 1.5419846628 -0.4111814155
H 1.0430914296 2.2082566871 0.8917933927
H -1.2864741077 2.1946355022 1.5499743790
H -0.3523562373 1.1100841970 2.5791538551
H -1.2150109124 -0.8481875873 1.3412914290
H -2.4980525322 0.1235535498 2.0491541935
H -2.8590922127 1.2214428795 -0.1819295185
H -1.6606148272 0.1319698634 -0.8818420063
H -3.0266740550 -1.8245219633 -0.1759490932
H -4.2390694165 -0.7319807117 0.4903339402
H -4.8978018563 -1.4995878328 -1.7765891145
H -4.6086240552 0.2412601752 -1.7799604526
H -3.3978586796 -0.8546860089 -2.4456675360
32
CONF34
C 5.4116778350 -0.0222570846 -0.4677910298
C 4.0822268948 -0.6972756256 -0.1515743796
C 2.9233248340 0.2971216466 -0.1573175897
C 1.5887111670 -0.3714562519 0.1637138769
C 0.4311408101 0.6244131093 0.1607738751
C -0.9025242735 -0.0442599420 0.4870081771
C -2.0560735306 0.9565169067 0.4761572144
C -3.3872226676 0.3587013771 0.9355983319
C -3.9309177225 -0.7650772189 0.0510710706
C -4.2405468110 -0.3151574412 -1.3722664227
H 5.6311004505 0.7485515239 0.2676294086
H 5.3781238067 0.4427365223 -1.4505454941
H 6.2213112708 -0.7477961986 -0.4578018731
H 4.1415001200 -1.1745356205 0.8292889921
H 3.8880845596 -1.4800480249 -0.8883924426
H 2.8617636338 0.7726976446 -1.1391336533
H 3.1191464942 1.0819792041 0.5772245924
H 1.6511698773 -0.8483898747 1.1448714110
H 1.3923421736 -1.1557659513 -0.5713458606
H 0.3659546620 1.0988931374 -0.8214082050
H 0.6305563631 1.4105591599 0.8930645419
H -0.8399421677 -0.5117000481 1.4727692190
H -1.0889648670 -0.8330746514 -0.2436971790
H -1.8067532324 1.7834582538 1.1461903115
H -2.1642836665 1.3742515939 -0.5259930688
H -3.2647912856 -0.0276623293 1.9506239025
H -4.1297913848 1.1596354497 0.9756177603
H -3.2190724517 -1.5915076438 0.0255179802
H -4.8489640118 -1.1411680363 0.5092543387
H -3.3323550049 -0.0368407188 -1.9000381287
H -4.7197841404 -1.1195505201 -1.9254368770
H -4.9105779974 0.5418118349 -1.3623132459
32
CONF19
C 4.2199314023 0.1377694175 -1.7112937507
C 3.3544845125 0.5091190256 -0.5125378355
C 2.8682131105 -0.7311528822 0.2344369227
C 2.1235634831 -0.4115327120 1.5319218293
C 0.8352106285 0.3951504154 1.3584873811
C -0.2296288135 -0.3262967487 0.5350539742
C -1.5500020901 0.4409648112 0.5195647130
C -2.6192230966 -0.2706632094 -0.3061568277
C -3.9423537528 0.4916978203 -0.3151499614
C -5.0063714651 -0.2260217571 -1.1372249524
H 3.6588991267 -0.4812696110 -2.4080454699
H 5.0976883966 -0.4191455115 -1.3906226086
H 4.5520594069 1.0307373606 -2.2353562693
H 2.4988129859 1.0906055372 -0.8591199406
H 3.9308045062 1.1374162257 0.1706456480
H 3.7347721669 -1.3487199368 0.4848907841
H 2.2287424135 -1.3225376495 -0.4230178971
H 2.7940455248 0.1466949129 2.1902688817
H 1.8806182696 -1.3527384998 2.0314735148
H 1.0605742459 1.3578367065 0.8967074128
H 0.4280886513 0.6003196850 2.3520310617
H -0.3959674534 -1.3217585140 0.9539093502
H 0.1176846493 -0.4510170966 -0.4919060144
H -1.9090168422 0.5634839097 1.5444116857
H -1.3820176635 1.4395950443 0.1088197960
H -2.2644584931 -0.3877733054 -1.3329724168
H -2.7831769187 -1.2709018916 0.1019911525
H -4.2957680742 0.6102990947 0.7116779897
H -3.7790037270 1.4908618287 -0.7254218599
H -5.1966939132 -1.2168871458 -0.7308991584
H -5.9383176476 0.3338563141 -1.1294573847
H -4.6797815465 -0.3366164927 -2.1688385286
32
CONF37
C 4.9974954063 0.1656351791 1.1588738783
C 3.9376450446 -0.5038013179 0.2920407245
C 2.6146719111 0.2584520528 0.3182943662
C 1.5480569594 -0.4109339863 -0.5451980055
C 0.2270307794 0.3551434430 -0.5274732787
C -0.8364641141 -0.3321027475 -1.3813571546
C -2.1283701926 0.4760295927 -1.5174508207
C -2.8698500489 0.7393016191 -0.2055916762
C -3.3411268530 -0.5326354395 0.4963955568
C -4.2034168835 -0.2142509202 1.7125638248
H 4.6676416142 0.2133333078 2.1942743738
H 5.1866150942 1.1795429601 0.8133752263
H 5.9308138765 -0.3907712544 1.1203876206
H 3.7717641633 -1.5241812253 0.6448468075
H 4.2965454782 -0.5650318649 -0.7378120937
H 2.7795989213 1.2780214166 -0.0381085596
H 2.2571482796 0.3232613495 1.3487139054
H 1.3790417016 -1.4285740932 -0.1846781761
H 1.9103916445 -0.4828320994 -1.5736186046
H 0.3920166859 1.3680159814 -0.9027285160
H -0.1206121390 0.4346704667 0.5038224929
H -1.0576079535 -1.3153455443 -0.9628252254
H -0.4297668817 -0.4911761033 -2.3834835290
H -1.8909815429 1.4379701893 -1.9786892695
H -2.7987040226 -0.0575878050 -2.1960597338
H -2.2327928999 1.3114913949 0.4709329907
H -3.7431614821 1.3577528415 -0.4289294554
H -3.9154751882 -1.1401310801 -0.2069712929
H -2.4784447794 -1.1188372649 0.8166587008
H -5.0898851973 0.3426492123 1.4170042849
H -4.5212718514 -1.1290482547 2.2069554268
H -3.6454546279 0.3868273965 2.4272262554
32
CONF57
C 4.4946121353 0.6286735124 1.0847562004
C 3.3436223312 -0.3588882318 0.9328049271
C 2.3994848270 0.0372612761 -0.2004764621
C 1.2406621492 -0.9465742213 -0.3453305372
C 0.3500768010 -0.6655257716 -1.5567126211
C -0.3504619967 0.6955882369 -1.5447731811
C -1.2422347612 0.9546970262 -0.3293690133
C -2.4003329298 -0.0324814687 -0.2027231338
C -3.3429607538 0.3402666520 0.9397150523
C -4.4926414443 -0.6514082076 1.0738684802
H 5.1537112947 0.3271395471 1.8952308446
H 4.1154309882 1.6247894993 1.3021455562
H 5.0772300723 0.6774577791 0.1674716280
H 2.7816817769 -0.4078871400 1.8684976062
H 3.7447971507 -1.3560102157 0.7366663900
H 2.9591104867 0.0756278140 -1.1383319826
H 2.0123475600 1.0383235457 -0.0027389509
H 0.6409929195 -0.9362029622 0.5663891450
H 1.6494944885 -1.9550388486 -0.4514035336
H -0.4015085384 -1.4541686164 -1.6264747733
H 0.9625659978 -0.7214496319 -2.4603615351
H -0.9619917165 0.7678416648 -2.4479141374
H 0.4012095252 1.4853412524 -1.5994081080
H -0.6432366595 0.9287319555 0.5824927387
H -1.6517473771 1.9645691784 -0.4180019765
H -2.9612533407 -0.0524014566 -1.1403809817
H -2.0123501428 -1.0370588183 -0.0255797241
H -2.7795022603 0.3711615528 1.8752746952
H -3.7454452632 1.3406891832 0.7641443396
H -5.1506968304 -0.3667868489 1.8912665702
H -5.0767489141 -0.6826239406 0.1567792623
H -4.1120219480 -1.6512163641 1.2707952231
32
CONF61
C 4.4320238012 0.6383661561 -1.1372432373
C 3.2947265254 -0.3591674387 -0.9513781477
C 2.3767297716 0.0330213677 0.2045123873
C 1.2270782825 -0.9568845569 0.3772729494
C 0.3500865691 -0.6675284211 1.5965874482
C -0.3491021089 0.6945102612 1.5841227056
C -1.2261090453 0.9614562670 0.3597515921
C -2.3785720659 -0.0284570417 0.2071124413
C -3.2928152843 0.3411697741 -0.9591982904
C -4.4339434697 -0.6554233674 -1.1252972796
H 5.0388999807 0.6953582637 -0.2363478691
H 4.0377630159 1.6302573926 -1.3470156030
H 5.0715354903 0.3405200899 -1.9645881856
H 3.7097523080 -1.3519943858 -0.7624926726
H 2.7088557729 -0.4165837441 -1.8718360595
H 1.9794376518 1.0316668213 0.0150446761
H 2.9584121696 0.0756916665 1.1286225007
H 1.6439090285 -1.9614448695 0.4892045228
H 0.6151009975 -0.9609334173 -0.5263081888
H 0.9714191852 -0.7190207388 2.4944193682
H -0.4015845272 -1.4550189026 1.6783022473
H 0.4027789033 1.4832061436 1.6510349631
H -0.9702151590 0.7628077100 2.4809858588
H -1.6403128439 1.9691204669 0.4517413235
H -0.6146782401 0.9457900315 -0.5440626639
H -1.9842383402 -1.0324333676 0.0409956480
H -2.9621704136 -0.0484216843 1.1307963924
H -3.7041328135 1.3396599887 -0.7935710470
H -2.7049014910 0.3754839487 -1.8795056381
H -5.0415733182 -0.6914848899 -0.2238266312
H -5.0717297152 -0.3719453166 -1.9590234608
H -4.0435547868 -1.6529488297 -1.3144898048
32
CONF59
C 4.4570921266 0.6331833590 1.1178103533
C 3.3196567280 -0.3653668604 0.9380197317
C 2.3835617417 0.0369015590 -0.1997634909
C 1.2310697104 -0.9513498839 -0.3633564768
C 0.3490606958 -0.6643931721 -1.5796445330
C -0.3493030808 0.6978944641 -1.5675124522
C -1.2342726264 0.9616372779 -0.3481626427
C -2.3856057805 -0.0309740139 -0.2040766863
C -3.3184473786 0.3444441412 0.9454773273
C -4.4531957895 -0.6600741233 1.1078851186
H 5.1136528034 0.3242174503 1.9273676634
H 4.0639208433 1.6200673209 1.3514170578
H 5.0459123944 0.7069708381 0.2062963017
H 2.7479194239 -0.4349595465 1.8664517655
H 3.7345305856 -1.3547688622 0.7315317847
H 2.9510608035 0.0870969986 -1.1322883934
H 1.9895187221 1.0340274629 0.0040948682
H 0.6237050299 -0.9516560722 0.5433338482
H 1.6456494838 -1.9569118297 -0.4746184696
H -0.4033398000 -1.4516085339 -1.6567556871
H 0.9669669830 -0.7181792500 -2.4797213972
H -0.9649202964 0.7688994915 -2.4679379406
H 0.4033532928 1.4863518877 -1.6275468870
H -0.6285105853 0.9463621745 0.5594676142
H -1.6499949791 1.9684967563 -0.4419543134
H -2.9556411801 -0.0605157999 -1.1358860758
H -1.9902635109 -1.0320932828 -0.0239028060
H -2.7433020117 0.3946909978 1.8729946412
H -3.7359088543 1.3372719821 0.7623830467
H -5.0492888371 -0.7107133397 0.1994643778
H -4.0567698417 -1.6521962198 1.3122545220
H -5.1036785272 -0.3735253955 1.9306916684
32
CONF58
C 4.5341208261 0.6258946703 -1.0497878828
C 3.3761739134 -0.3568331259 -0.9205055845
C 2.4172296265 0.0383459663 0.2005871271
C 1.2530195924 -0.9418814945 0.3261457616
C 0.3513668682 -0.6649582181 1.5302803049
C -0.3510030590 0.6950401005 1.5152030719
C -1.2512557456 0.9462089847 0.3043534410
C -2.4140491531 -0.0378348588 0.1967521122
C -3.3771105389 0.3394218569 -0.9270233311
C -4.5381148661 -0.6424458447 -1.0335595883
H 5.2058534775 0.3236375559 -1.8494845052
H 5.1009138336 0.6694544332 -0.1224207544
H 4.1633752592 1.6243125247 -1.2708377350
H 3.7696349224 -1.3568755891 -0.7233816428
H 2.8282302651 -0.3983623619 -1.8648281793
H 2.0365186535 1.0415654206 0.0012027079
H 2.9638985207 0.0711659335 1.1463004417
H 1.6568503306 -1.9525894533 0.4299950307
H 0.6630309447 -0.9231831566 -0.5917224261
H 0.9565157309 -0.7218552182 2.4388191849
H -0.3996764267 -1.4547101808 1.5921509240
H 0.3998700865 1.4860551161 1.5611345291
H -0.9573245562 0.7714168327 2.4215249464
H -1.6567445752 1.9581484443 0.3876447101
H -0.6599452388 0.9103650862 -0.6121526119
H -2.0322246160 -1.0432587604 0.0111243461
H -2.9578715647 -0.0575159795 1.1444648190
H -3.7672803331 1.3437552032 -0.7457233926
H -2.8334443210 0.3629987713 -1.8744445002
H -5.2135058664 -0.3515821330 -1.8343776791
H -4.1712894134 -1.6454094880 -1.2399862751
H -5.0998832955 -0.6689497871 -0.1025037578
32
CONF31
C 4.9802394431 0.2412118126 -0.2627025967
C 4.1643890238 -0.7341725512 0.5785081849
C 2.7602986547 -0.2227503144 0.9040294761
C 1.8538741118 -0.1185053407 -0.3209903989
C 0.4271614258 0.2724603063 0.0589255033
C -0.4740628966 0.3883074293 -1.1688738728
C -1.8925097594 0.8568784936 -0.8412996431
C -2.7073829532 -0.1739916984 -0.0627203373
C -4.1514139707 0.2782110075 0.1440168010
C -4.9618975119 -0.7506831325 0.9236440434
H 4.5330167345 0.3788364017 -1.2434044192
H 5.9909583378 -0.1352826222 -0.4012626248
H 5.0388990903 1.2095519924 0.2293097010
H 4.6932107987 -0.9169308775 1.5169536191
H 4.0857442205 -1.6885100726 0.0528314110
H 2.8357632529 0.7569864632 1.3816321659
H 2.2990449503 -0.9047489649 1.6228790575
H 1.8368609126 -1.0806518227 -0.8388402223
H 2.2525713807 0.6249874611 -1.0131805309
H 0.4435089430 1.2300709426 0.5849194182
H 0.0247344146 -0.4761244996 0.7435308636
H -0.5226974986 -0.5796938562 -1.6731750520
H -0.0237302367 1.0997786179 -1.8655959717
H -1.8422251644 1.7857862451 -0.2683475761
H -2.4119875804 1.0758660720 -1.7776490996
H -2.7023415458 -1.1214292781 -0.6070571763
H -2.2491751462 -0.3477897548 0.9123487566
H -4.1569342238 1.2287191201 0.6824000880
H -4.6193741405 0.4470992230 -0.8286230985
H -5.9855445507 -0.4100277729 1.0584206989
H -4.9821739399 -1.6999125648 0.3927966368
H -4.5225842705 -0.9170991260 1.9047212255
32
CONF23
C 4.6864144347 1.0256151691 -1.0290017379
C 3.4993232259 0.7115513840 -0.1257312738
C 2.9539001303 -0.6921841895 -0.3820389561
C 1.8356899306 -1.0967737863 0.5794264809
C 0.5435896107 -0.3068894437 0.3778994792
C -0.5721742979 -0.8203049481 1.2863909165
C -1.8533986591 0.0110115699 1.2080832826
C -2.5706281647 -0.1024464939 -0.1356641580
C -3.9058518092 0.6390740369 -0.1320912926
C -4.6223164186 0.5261687034 -1.4726989533
H 4.3951929059 0.9620294466 -2.0751097030
H 5.4950126693 0.3187391578 -0.8560126118
H 5.0594780381 2.0285450675 -0.8362503653
H 2.7147090221 1.4496332397 -0.2989598134
H 3.8078702357 0.7910734475 0.9192254768
H 3.7746410753 -1.4070097379 -0.2820723125
H 2.5868548993 -0.7544440490 -1.4092796256
H 2.1815620970 -0.9681437441 1.6079400126
H 1.6196407499 -2.1584522310 0.4358627769
H 0.2377253306 -0.3903159270 -0.6663233981
H 0.7179337200 0.7483921783 0.5946111077
H -0.2125871791 -0.8091259665 2.3184069166
H -0.7999627925 -1.8574879775 1.0290777966
H -2.5339745310 -0.3236719581 1.9951572599
H -1.6157627703 1.0594216905 1.4034945963
H -1.9408052977 0.3077271404 -0.9268691099
H -2.7459182201 -1.1569883317 -0.3618379909
H -4.5433719916 0.2298803353 0.6551026513
H -3.7313678806 1.6924098000 0.0989962158
H -5.5683641507 1.0613849998 -1.4475186801
H -4.0105369628 0.9460888910 -2.2680552674
H -4.8229980569 -0.5162943270 -1.7099567649
32
CONF24
C 4.6465277779 -0.5520615413 -1.4388422056
C 3.9128620782 -0.6460175546 -0.1061282606
C 2.5791243749 0.0976183051 -0.1365661730
C 1.8494253377 0.0130803147 1.2026175195
C 0.5691281875 0.8481282279 1.2517537955
C -0.5450275500 0.3088065178 0.3564593832
C -1.8289051410 1.1220533437 0.5123497731
C -2.9519320202 0.6748568896 -0.4243212829
C -3.5187746397 -0.7016884090 -0.0814578805
C -4.7072927647 -1.0559059827 -0.9678589600
H 5.5923398777 -1.0864620430 -1.3938271409
H 4.8500459117 0.4869571745 -1.6882077741
H 4.0451994495 -0.9834567283 -2.2359256808
H 4.5409927088 -0.2270586689 0.6835521132
H 3.7337694415 -1.6959074117 0.1369451916
H 1.9556802945 -0.3267194278 -0.9255328074
H 2.7589122187 1.1472216152 -0.3820539160
H 2.5236380003 0.3634764619 1.9883239495
H 1.6083591208 -1.0305861578 1.4181707696
H 0.7994301369 1.8765492235 0.9633036449
H 0.2062394204 0.8694027409 2.2824447678
H -0.7336449605 -0.7339703667 0.6173481539
H -0.2298433853 0.3429487911 -0.6877881031
H -2.1756676122 1.0558500049 1.5465021452
H -1.6017303638 2.1715574224 0.3086935308
H -3.7620403340 1.4065959670 -0.3708675714
H -2.5829555368 0.6672406434 -1.4527061756
H -2.7445789644 -1.4606459483 -0.2038422982
H -3.8319802261 -0.7097882796 0.9650858377
H -4.4117219237 -1.0635678659 -2.0147554485
H -5.0954650479 -2.0390779455 -0.7130148470
H -5.5061789228 -0.3279487294 -0.8439483166
32
CONF11
C 4.7957779240 0.4061357046 1.2941111305
C 4.0657517636 -0.2179291002 0.1105347450
C 2.5496712483 -0.0886354225 0.2428976883
C 1.8209377877 -0.6913970749 -0.9563993313
C 0.2988757580 -0.6877304740 -0.8080688057
C -0.2974031380 0.7191351190 -0.7723671461
C -1.8190121180 0.7309268476 -0.9247729262
C -2.5505649125 0.0752226902 0.2446204441
C -4.0662053510 0.2134783430 0.1164953525
C -4.7977525225 -0.4558714706 1.2740996183
H 4.4981123233 -0.0767676863 2.2222577440
H 4.5617103551 1.4657588539 1.3695704123
H 5.8717412256 0.2988737548 1.1800917655
H 4.3326767252 -1.2746973683 0.0357621666
H 4.3881008738 0.2697861401 -0.8123698946
H 2.2919905318 0.9675609246 0.3372323459
H 2.2234379920 -0.5945935526 1.1547537945
H 2.1558662162 -1.7237446826 -1.0863195522
H 2.0970551209 -0.1406902645 -1.8589850791
H 0.0307527804 -1.2253362650 0.1030157987
H -0.1325627548 -1.2290156358 -1.6538409396
H 0.1367998839 1.3035767311 -1.5874013331
H -0.0322287879 1.2084830726 0.1663706665
H -2.1527469811 1.7684517930 -1.0085783501
H -2.0932277905 0.2220231165 -1.8521343652
H -2.2947692912 -0.9846103364 0.2912463005
H -2.2248505646 0.5386370221 1.1789953150
H -4.3305292851 1.2731139604 0.0843937419
H -4.3895251541 -0.2357959012 -0.8254003431
H -5.8732610199 -0.3375274506 1.1670138901
H -4.5699104026 -1.5190410142 1.3045345996
H -4.4955429161 -0.0141898609 2.2211119906
32
CONF9
C 4.7605258930 0.3890920253 -1.3439976189
C 4.0554217287 -0.2014170655 -0.1285706322
C 2.5365712149 -0.0878718212 -0.2413309339
C 1.8290536712 -0.6764453155 0.9775616792
C 0.3052754344 -0.6871280895 0.8475858238
C -0.3050590409 0.7137649629 0.8270485159
C -1.8289421334 0.7072026544 0.9559346081
C -2.5362152735 0.0807000471 -0.2440618950
C -4.0549580429 0.2007839419 -0.1360900140
C -4.7615528557 -0.4354662792 -1.3273519873
H 5.8391125526 0.2945104894 -1.2446156397
H 4.5160601680 1.4436030239 -1.4508992112
H 4.4519587956 -0.1269275515 -2.2504982382
H 4.3885497406 0.3183422548 0.7726168332
H 4.3319793972 -1.2530991346 -0.0241333288
H 2.2026645803 -0.6129049258 -1.1395471534
H 2.2679893986 0.9641049706 -0.3510163535
H 2.1121758145 -0.1095088348 1.8677808370
H 2.1740152138 -1.7039371405 1.1191127105
H -0.1118104599 -1.2371735037 1.6948656539
H 0.0324295577 -1.2222299280 -0.0635318529
H -0.0311704804 1.2223351211 -0.0988493273
H 0.1112479170 1.2880041725 1.6585597100
H -2.1129002165 0.1686939505 1.8633848496
H -2.1736612929 1.7387431468 1.0647748481
H -2.2004691884 0.5755293862 -1.1585985301
H -2.2695851534 -0.9748289587 -0.3191032012
H -4.3888445221 -0.2829910443 0.7847442488
H -4.3299045211 1.2562426389 -0.0726197304
H -5.8399664125 -0.3370522887 -1.2302646191
H -4.4540667943 0.0455266336 -2.2532341110
H -4.5172412175 -1.4932958964 -1.3941338230
32
CONF10
C 4.7379733461 0.3771045679 -1.3731007472
C 4.0484938441 -0.1957270664 -0.1403276775
C 2.5278148711 -0.0977783321 -0.2424392004
C 1.8352778028 -0.6590690544 0.9977562236
C 0.3103579023 -0.6804531390 0.8825527435
C -0.3077560801 0.7165609645 0.8450231213
C -1.8324141675 0.7031003966 0.9638974184
C -2.5283870501 0.0782151832 -0.2435563826
C -4.0483389234 0.1923319299 -0.1468552112
C -4.7426559077 -0.4308786105 -1.3521609078
H 4.4284034927 -0.1609312137 -2.2663327873
H 5.8182374038 0.2966967702 -1.2801054236
H 4.4806832102 1.4263705461 -1.4997200879
H 4.3844462250 0.3447366323 0.7476209199
H 4.3355183894 -1.2426826878 -0.0176109962
H 2.1904171372 -0.6491604790 -1.1234113029
H 2.2499070143 0.9487825460 -0.3778055883
H 2.1238023371 -0.0683600590 1.8706156376
H 2.1872134550 -1.6808182522 1.1617517176
H -0.0961506750 -1.2186216947 1.7425145756
H 0.0320540092 -1.2318897080 -0.0170776003
H -0.0309985317 1.2180273031 -0.0838600117
H 0.1005884812 1.3006534529 1.6735866378
H -2.1203298469 0.1603363252 1.8675165727
H -2.1823653074 1.7327867787 1.0737200661
H -2.1876705760 0.5780626189 -1.1535307039
H -2.2571693213 -0.9759871809 -0.3210376165
H -4.3886048541 -0.3037217713 0.7650339474
H -4.3269785395 1.2461241294 -0.0727811381
H -5.8222202527 -0.3389942062 -1.2620885863
H -4.4304837373 0.0644331047 -2.2688264685
H -4.4926567650 -1.4864417780 -1.4317814907
32
CONF12
C 4.7134913724 0.3658849344 -1.4000736517
C 4.0377398665 -0.2028720602 -0.1578332576
C 2.5167440885 -0.0898441868 -0.2366361093
C 1.8370404244 -0.6497469496 1.0113767246
C 0.3112656423 -0.6744281067 0.9095142518
C -0.3108926979 0.7207220181 0.8740467633
C -1.8366375857 0.7009235534 0.9776578496
C -2.5167710583 0.0802876258 -0.2410297615
C -4.0380374469 0.1909741121 -0.1642575245
C -4.7139108865 -0.4368524809 -1.3776622791
H 4.3826217250 -0.1654633358 -2.2897185233
H 5.7940893715 0.2721082914 -1.3253400082
H 4.4668549203 1.4186177375 -1.5191521326
H 4.3928005776 0.3320363275 0.7260293803
H 4.3161204627 -1.2529723210 -0.0420724975
H 2.1611906066 -0.6345268031 -1.1146719725
H 2.2469684536 0.9598661268 -0.3639970663
H 2.1328199929 -0.0573851851 1.8806366479
H 2.1918250559 -1.6708255656 1.1734915528
H -0.0872009794 -1.2120287634 1.7735826844
H 0.0272409999 -1.2281769391 0.0131114572
H -0.0272709719 1.2279925660 -0.0495732299
H 0.0878789976 1.3017268895 1.7094033507
H -2.1318449986 0.1518393161 1.8750756081
H -2.1916677062 1.7286182351 1.0896391448
H -2.1651188243 0.5842993634 -1.1445438969
H -2.2431753624 -0.9732143640 -0.3193646323
H -4.3892026914 -0.3042169332 0.7439633759
H -4.3204155684 1.2441594617 -0.0961713993
H -4.3877834189 0.0551003676 -2.2913605073
H -4.4623353525 -1.4926660807 -1.4494668529
H -5.7947732781 -0.3450501616 -1.3045150689
32
CONF36
C 4.8432512340 -0.6611932813 -0.9043547004
C 4.4655934575 0.1616187710 0.3224167805
C 3.0869314042 0.8140683551 0.2098589188
C 1.9374243341 -0.1916693523 0.2188555932
C 0.5764943890 0.5008499098 0.2124763761
C -0.5770310639 -0.4997615284 0.2165810649
C -1.9378984708 0.1929087026 0.2184934408
C -3.0873518855 -0.8129128053 0.2170761931
C -4.4659925536 -0.1593533455 0.3230535932
C -4.8415398571 0.6558134569 -0.9095040639
H 4.7893172417 -0.0496618112 -1.8023296722
H 4.1764224409 -1.5106897393 -1.0247294268
H 5.8583370216 -1.0386869920 -0.8064160736
H 5.2112521860 0.9479242437 0.4616123242
H 4.4895106111 -0.4765124638 1.2086336390
H 3.0423324312 1.4050080015 -0.7079970285
H 2.9560970916 1.5007746730 1.0500376744
H 2.0169895076 -0.8210323726 1.1086053465
H 2.0072006165 -0.8408666625 -0.6553849688
H 0.4999223965 1.1364086859 -0.6730171494
H 0.4954065500 1.1475002192 1.0896306394
H -0.4954729604 -1.1397920333 1.0985331552
H -0.5009700679 -1.1419635336 -0.6641493791
H -2.0171497357 0.8286650813 1.1037164726
H -2.0078922754 0.8357801327 -0.6603954615
H -3.0421960359 -1.4111473661 -0.6960323443
H -2.9571484767 -1.4929082202 1.0628347902
H -5.2119552750 -0.9446972652 0.4658438684
H -4.4913733895 0.4842955148 1.2052683720
H -5.8583533147 1.0303344737 -0.8178982022
H -4.1771797603 1.5069671162 -1.0313165079
H -4.7816785533 0.0399043974 -1.8040994171
32
CONF25
C 4.6945226780 -1.0544244576 0.6967635916
C 4.3210190003 -0.3082640066 -0.5793672040
C 3.1271354070 0.6309301238 -0.4014437226
C 1.8112345858 -0.1016271954 -0.1471518820
C 0.6293306048 0.8627826930 -0.0754090218
C -0.6889872926 0.1371844316 0.1851394762
C -1.8671897134 1.1070432959 0.2511042200
C -3.1909655965 0.4333311964 0.6147029987
C -3.7188964055 -0.5003689033 -0.4729492464
C -5.0893645059 -1.0624035707 -0.1127925069
H 4.8839608029 -0.3516635788 1.5051427096
H 5.5933932347 -1.6454661624 0.5379521428
H 3.8974736130 -1.7263490606 1.0032395268
H 4.0964999463 -1.0292093451 -1.3686982875
H 5.1806686306 0.2816874450 -0.9059118646
H 3.0205640916 1.2355018657 -1.3057082990
H 3.3266420577 1.3128945559 0.4284921925
H 1.8719293683 -0.6557833318 0.7908810475
H 1.6399953659 -0.8228142693 -0.9500690358
H 0.5559782303 1.4160370868 -1.0149176593
H 0.8057098268 1.5896478682 0.7212506116
H -0.6195350914 -0.4089094392 1.1289999806
H -0.8542243687 -0.5919247941 -0.6098485942
H -1.6472817260 1.8709046532 1.0011720735
H -1.9726810136 1.6127001559 -0.7116893181
H -3.0660427189 -0.1291032561 1.5430380519
H -3.9378971262 1.2097965709 0.7982343536
H -3.7882070130 0.0489767027 -1.4146783846
H -3.0222857501 -1.3272031397 -0.6194023481
H -5.8105605424 -0.2578788170 0.0137051028
H -5.4486388178 -1.7263446632 -0.8952852888
H -5.0372115415 -1.6237124492 0.8174984529
32
CONF13
C 4.8306394325 0.4177503390 1.2497848555
C 4.0780331506 -0.2175453729 0.0865677297
C 2.5646207933 -0.0891340896 0.2478647416
C 1.8143852470 -0.7056699563 -0.9308744371
C 0.2947884024 -0.6925822727 -0.7595736040
C -0.2942896765 0.7178216969 -0.7342395555
C -1.8137264297 0.7373689096 -0.9062980263
C -2.5649234418 0.0773932380 0.2480635413
C -4.0781517512 0.2136878756 0.0916909641
C -4.8313404772 -0.4564880543 1.2347831287
H 5.9042304617 0.3114514715 1.1147180539
H 4.5530023966 -0.0578533805 2.1877733174
H 4.5961981052 1.4775037873 1.3211723758
H 4.3449846858 -1.2745655888 0.0156253987
H 4.3812533596 0.2624346490 -0.8468117225
H 2.3065493176 0.9675163765 0.3360754424
H 2.2571779677 -0.5860915579 1.1711140657
H 2.1428153532 -1.7412189533 -1.0516575907
H 2.0785681647 -0.1688672589 -1.8453583483
H 0.0373024079 -1.2168802331 0.1623061172
H -0.1510512408 -1.2429731408 -1.5918432908
H 0.1523069921 1.2980715073 -1.5455617339
H -0.0376320826 1.2082947792 0.2063042942
H -2.1419090786 1.7767779292 -0.9884759326
H -2.0772007433 0.2352548900 -1.8404765738
H -2.3081351904 -0.9821448350 0.2962097735
H -2.2570465421 0.5386428855 1.1895229808
H -4.3430695411 1.2729522881 0.0543980146
H -4.3828199401 -0.2359265897 -0.8562192904
H -5.9048550003 -0.3456930616 1.1027381055
H -4.5973066052 -1.5180132864 1.2740331313
H -4.5537833096 -0.0096840753 2.1868615510
32
CONF30
C 4.6743122366 -1.0961549087 0.6752965308
C 4.3244786655 -0.2913686085 -0.5716634560
C 3.1325187518 0.6454589570 -0.3703670301
C 1.8126173501 -0.0909389593 -0.1499489639
C 0.6302172114 0.8725858643 -0.0738708519
C -0.6880935872 0.1441862373 0.1787209813
C -1.8689319485 1.1112539971 0.2387292761
C -3.1905237919 0.4363133138 0.6078758034
C -3.7146584136 -0.5100337578 -0.4706274464
C -5.0831197491 -1.0733691392 -0.1049170526
H 3.8739975817 -1.7849879906 0.9318861134
H 4.8430945810 -0.4321342488 1.5202096840
H 5.5791627262 -1.6755800044 0.5078341315
H 4.1086679088 -0.9752435756 -1.3956910143
H 5.1917636151 0.3080109899 -0.8585773598
H 3.0347854116 1.2809145923 -1.2542478911
H 3.3282350076 1.2980245975 0.4837842152
H 1.8604330078 -0.6645966558 0.7770730136
H 1.6517004893 -0.7949275956 -0.9700797300
H 0.5588609088 1.4328206044 -1.0093493468
H 0.8043837569 1.5935214256 0.7286383996
H -0.6224835439 -0.4019423974 1.1228002144
H -0.8474384537 -0.5851030852 -0.6172806387
H -1.6509010129 1.8807219458 0.9836081743
H -1.9763143909 1.6101606394 -0.7273576273
H -3.0639999065 -0.1166756148 1.5416602650
H -3.9403434992 1.2118139942 0.7836341663
H -3.7858297394 0.0296800198 -1.4177571279
H -3.0149445715 -1.3356768266 -0.6087196589
H -5.4400152266 -1.7464531339 -0.8806709309
H -5.0290146274 -1.6250642950 0.8310210981
H -5.8072048100 -0.2701797188 0.0134584306
32
CONF26
C 4.6982598155 -1.0095145672 -0.7532569877
C 4.3205179540 -0.3409139606 0.5639518751
C 3.1263373575 0.6063651777 0.4387247863
C 1.8114072210 -0.1107894632 0.1394396920
C 0.6290010981 0.8555421295 0.1228658366
C -0.6888808672 0.1459420502 -0.1803794635
C -1.8670507360 1.1179938511 -0.1928164324
C -3.1911268654 0.4651818306 -0.5917512848
C -3.7194467426 -0.5244987250 0.4450431809
C -5.0912963964 -1.0642017786 0.0571146960
H 5.5979564829 -1.6072518570 -0.6276271608
H 4.8881180370 -0.2597663038 -1.5181615305
H 3.9031853557 -1.6635695945 -1.1007970129
H 5.1787223097 0.2291731959 0.9274833627
H 4.0943915229 -1.1077019334 1.3083435285
H 3.3270159627 1.3357410856 -0.3495713982
H 3.0175232370 1.1570501661 1.3765224284
H 1.6393529317 -0.8781129560 0.8981953215
H 1.8739968953 -0.6087028776 -0.8295068203
H 0.8056858615 1.6275673796 -0.6300275204
H 0.5546711177 1.3532200613 1.0928891958
H -0.8552242098 -0.6270831245 0.5717233907
H -0.6181326097 -0.3457248291 -1.1536047310
H -1.9719928063 1.5704261546 0.7961694999
H -1.6473940311 1.9215925311 -0.9002146021
H -3.9377135552 1.2506025752 -0.7338923436
H -3.0664145282 -0.0473421987 -1.5485692709
H -3.0241067863 -1.3591486663 0.5462247907
H -3.7867217323 -0.0261715231 1.4148824068
H -5.4505062275 -1.7687985635 0.8032383276
H -5.8113695897 -0.2529208062 -0.0247072020
H -5.0414008177 -1.5746244046 -0.9021547549
32
CONF65
C 4.5925972143 0.6323713876 -0.9894261359
C 3.4257541511 -0.3447054334 -0.9048859162
C 2.4419020465 0.0393481909 0.1983536668
C 1.2718026190 -0.9381813700 0.2856414874
C 0.3534487350 -0.6813668389 1.4817034189
C -0.3510681626 0.6775104704 1.4779809228
C -1.2656716911 0.9297142532 0.2781487911
C -2.4464662714 -0.0357574441 0.2020251765
C -3.4187728292 0.3387817799 -0.9146355676
C -4.6028274770 -0.6187869720 -0.9808856286
H 5.1376864760 0.6554805872 -0.0483544234
H 4.2335396261 1.6371302881 -1.2010042690
H 5.2810992148 0.3398899233 -1.7784673298
H 3.8082097894 -1.3501074039 -0.7136180431
H 2.9014223907 -0.3680490676 -1.8630714441
H 2.0691775200 1.0463148338 0.0028599546
H 2.9668294411 0.0583633074 1.1566965148
H 1.6701585057 -1.9523557919 0.3756435229
H 0.6961971016 -0.8989800763 -0.6406683511
H 0.9474760090 -0.7509328413 2.3966743054
H -0.3966440213 -1.4733245827 1.5223421562
H 0.3994176869 1.4691125327 1.5176445055
H -0.9477157438 0.7511750526 2.3909216233
H -1.6532187651 1.9491269744 0.3552546001
H -0.6898696209 0.8727389643 -0.6470790292
H -2.0845494411 -1.0506559471 0.0284632391
H -2.9774669457 -0.0300614075 1.1572006444
H -3.7838313474 1.3552214909 -0.7494649838
H -2.8901361733 0.3295357960 -1.8706811842
H -4.2611571311 -1.6351655024 -1.1637220058
H -5.1537475058 -0.6070474289 -0.0430150131
H -5.2811990183 -0.3346351135 -1.7816547072
32
CONF32
C 4.4346672791 -0.1107302937 -1.6865780387
C 3.1812497779 -0.4684354364 -0.8961983099
C 3.0920171891 0.3250432295 0.4061451015
C 1.9071461998 -0.0767219547 1.2857122056
C 0.5535534698 0.3271793656 0.7040479780
C -0.5929414335 -0.0448328846 1.6426043719
C -1.9565169150 0.4611613133 1.1701150350
C -2.4375046435 -0.1972999302 -0.1214247361
C -3.8586973393 0.2301870002 -0.4822987946
C -4.3318659985 -0.4095548910 -1.7823167223
H 5.3275012211 -0.3257943936 -1.1035232609
H 4.4370231068 0.9478710361 -1.9367815055
H 4.4811797684 -0.6825375171 -2.6102473722
H 3.1906708792 -1.5361571912 -0.6653583191
H 2.3031158129 -0.2683259474 -1.5120079745
H 3.0249233047 1.3908950918 0.1755551643
H 4.0143451009 0.1680561890 0.9710899202
H 2.0218621016 0.3971934708 2.2639211496
H 1.9245852124 -1.1581790455 1.4407436937
H 0.4097147083 -0.1667393726 -0.2567439079
H 0.5435149116 1.4064032259 0.5334100820
H -0.3889740444 0.3783682339 2.6295489846
H -0.6299429252 -1.1312515248 1.7523736257
H -2.6906239649 0.2651360755 1.9558237485
H -1.9095242953 1.5433761425 1.0272918975
H -1.7700270044 0.0689894396 -0.9426795449
H -2.4071505502 -1.2833390158 -0.0053533984
H -4.5362724291 -0.0500231221 0.3275552340
H -3.8928281184 1.3177401202 -0.5795036711
H -3.6817527842 -0.1231545388 -2.6060399292
H -4.3202841529 -1.4940154996 -1.6987851119
H -5.3450862335 -0.0934652911 -2.0180481843
32
CONF22
C 4.5981616492 -0.6993097409 1.4227382213
C 3.8898302886 -0.6601571738 0.0736355655
C 2.5646915614 0.0956950787 0.1476270534
C 1.8556552162 0.1323791198 -1.2046610044
C 0.5743393791 0.9672135481 -1.1988468050
C -0.5432214030 0.3594942732 -0.3528601739
C -1.8426418858 1.1512486774 -0.4894702646
C -2.9578138563 0.6549320249 0.4316794476
C -3.4723714036 -0.7371497425 0.0697942293
C -4.6611463157 -1.1385576363 0.9355561167
H 5.5369192679 -1.2424750424 1.3463169465
H 3.9750679287 -1.1921191066 2.1657704977
H 4.8114593201 0.3092701927 1.7698934433
H 3.7023656795 -1.6808178712 -0.2677943382
H 4.5384663155 -0.1798662653 -0.6626945930
H 2.7518862816 1.1183943547 0.4837709480
H 1.9241336587 -0.3863900861 0.8880077110
H 1.6190794118 -0.8879751687 -1.5157453261
H 2.5409977077 0.5511313505 -1.9459997174
H 0.2180138541 1.0640279315 -2.2275347483
H 0.8001132344 1.9718021200 -0.8333460235
H -0.2463543236 0.3462996635 0.6971954555
H -0.7046890913 -0.6720190292 -0.6704891156
H -1.6379935535 2.1990587076 -0.2555517951
H -2.1856971410 1.1069784789 -1.5260094512
H -2.5978227461 0.6491452656 1.4632692556
H -3.7923253172 1.3587035439 0.3784228638
H -3.7692371117 -0.7479086680 -0.9814825805
H -2.6746046457 -1.4701339183 0.1988961593
H -5.4825483470 -0.4374164114 0.8047973398
H -5.0115079610 -2.1323978516 0.6676488543
H -4.3810652892 -1.1442948835 1.9866469553
32
CONF18
C 5.2762633407 0.2192272079 0.4242715082
C 3.8148031619 -0.2111790388 0.4751444915
C 3.1029259460 0.0573264790 -0.8495650979
C 1.6665348102 -0.4660875741 -0.8868405297
C 0.7179414024 0.2933180883 0.0386809387
C -0.7184112385 -0.2117038605 -0.0830285505
C -1.6687838120 0.5529209700 0.8366357362
C -3.0863417774 -0.0199418927 0.8596587816
C -3.8327050655 0.1423555339 -0.4631375639
C -5.2726452203 -0.3467176221 -0.3571058535
H 5.8083237360 -0.3273855222 -0.3513268141
H 5.7649404679 0.0279475384 1.3765677493
H 5.3519172708 1.2822263843 0.2061737085
H 3.3127935218 0.3280777801 1.2798760590
H 3.7589190438 -1.2782628066 0.7024259422
H 3.6693671797 -0.4230731708 -1.6513477752
H 3.1005155228 1.1320027734 -1.0464306754
H 1.6624989919 -1.5248953051 -0.6170451617
H 1.2924253088 -0.3862382491 -1.9106085404
H 0.7483412696 1.3571969905 -0.2086181803
H 1.0453456692 0.1830295331 1.0738928965
H -0.7480632300 -1.2738636197 0.1717968875
H -1.0445537402 -0.1089743721 -1.1194565381
H -1.2671074659 0.5258381529 1.8527322403
H -1.7074218742 1.5997526129 0.5261886492
H -3.0416017785 -1.0802055662 1.1197500291
H -3.6541056873 0.4875233808 1.6436667350
H -3.8275286239 1.1960194206 -0.7514915061
H -3.3220669931 -0.4206063361 -1.2458749653
H -5.2969550468 -1.3991202734 -0.0829906211
H -5.8120236892 0.2162644174 0.4015199542
H -5.7889732140 -0.2266818725 -1.3064059080
32
CONF14
C 5.2274965813 1.0050543587 0.0094026498
C 4.1980858758 -0.1156471579 0.0954702804
C 2.7729465197 0.4060596855 -0.0740478396
C 1.7364831453 -0.7121824188 0.0076973217
C 0.3117737891 -0.1893916135 -0.1630314375
C -0.7195191008 -1.3126211118 -0.0743294757
C -2.1491577809 -0.8470691104 -0.3537863840
C -2.6922959560 0.0998160426 0.7156676327
C -4.1911329193 0.3687997590 0.5731345505
C -4.5425691970 1.1467172122 -0.6902202962
H 5.0497959659 1.7452667438 0.7863482360
H 5.1685816462 1.5022604377 -0.9562419062
H 6.2333368440 0.6112448942 0.1328711795
H 4.2853166680 -0.6154370267 1.0629091133
H 4.4038391199 -0.8578739009 -0.6791968412
H 2.6861743625 0.9080627822 -1.0406746957
H 2.5664014844 1.1470382501 0.7019500472
H 1.8225344784 -1.2138983688 0.9746204936
H 1.9449369340 -1.4539912870 -0.7672075634
H 0.2233024127 0.3047642737 -1.1335226976
H 0.1130844622 0.5554447841 0.6093149855
H -0.6743176236 -1.7660051985 0.9188502836
H -0.4564597260 -2.0858582270 -0.8006565481
H -2.1765804298 -0.3577889430 -1.3287960082
H -2.7971209897 -1.7258958590 -0.4032822912
H -2.5095665210 -0.3416585682 1.6986468651
H -2.1579432916 1.0504204564 0.6729950780
H -4.7298682804 -0.5816270001 0.5751590811
H -4.5257859314 0.9394096604 1.4427796523
H -5.6037147758 1.3842459158 -0.7037757271
H -3.9816727001 2.0778823193 -0.7304448471
H -4.3135872436 0.5670560307 -1.5803089049
32
CONF38
C 5.3575246426 0.2173025590 -0.0165027643
C 3.9502243907 -0.3662222443 0.0367095318
C 2.9165983685 0.6086583979 -0.5245079276
C 1.5015795912 0.0314600923 -0.5927155267
C 0.8665841840 -0.1699150293 0.7821696453
C -0.5454769091 -0.7545016551 0.7142282764
C -1.5809021665 0.2117175671 0.1417946988
C -2.9909076096 -0.3724237909 0.1937321071
C -4.0322124003 0.5831057768 -0.3848072266
C -5.4372981474 -0.0044491259 -0.3255427997
H 5.6375954141 0.4452935417 -1.0426563927
H 6.0797604696 -0.4873135604 0.3885804985
H 5.4100990866 1.1357367634 0.5639613487
H 3.7057020181 -0.6104224621 1.0716135588
H 3.9199114639 -1.2930069460 -0.5408828623
H 3.2244648055 0.8950789704 -1.5333610422
H 2.9065951050 1.5148739631 0.0857650044
H 1.5281505192 -0.9249563991 -1.1204320685
H 0.8813231601 0.7149066919 -1.1752152326
H 0.8347830945 0.7874670771 1.3076883820
H 1.4894098176 -0.8490967975 1.3669181655
H -0.8548168497 -1.0348712175 1.7242852024
H -0.5289983657 -1.6653330687 0.1111119072
H -1.5560332953 1.1443309466 0.7106992020
H -1.3348138818 0.4483057334 -0.8947773492
H -3.0128913360 -1.3105533906 -0.3660817453
H -3.2496667553 -0.6013684169 1.2304244235
H -4.0075984149 1.5222070387 0.1727201277
H -3.7765615917 0.8084469047 -1.4227005816
H -5.7178183033 -0.2164269127 0.7037759930
H -6.1610808432 0.6910800467 -0.7431907820
H -5.4856075706 -0.9324384612 -0.8909001002
32
CONF35
C 3.8990865099 0.8609820919 -1.5962471948
C 4.1353161777 -0.1593598893 -0.4881139882
C 3.1487761457 -0.0281982817 0.6732698941
C 1.7161959393 -0.4019041542 0.2970431164
C 0.7858503860 -0.3496084651 1.5073822698
C -0.6407817691 -0.8056244196 1.1978805407
C -1.4028147879 0.1549796202 0.2868539264
C -2.8555198851 -0.2758529751 0.0970362757
C -3.6279683633 0.6825096897 -0.8068291474
C -5.0766118779 0.2459587186 -0.9908540420
H 4.6721877614 0.7769958578 -2.3563866223
H 3.9222734219 1.8709403418 -1.1928777695
H 2.9362102247 0.7024062065 -2.0742464237
H 5.1480187919 -0.0279548817 -0.0996846743
H 4.0694646271 -1.1676762617 -0.9031315791
H 3.1672846387 0.9984613354 1.0466253568
H 3.4785761274 -0.6798366378 1.4865531975
H 1.7060722130 -1.4117176394 -0.1205482225
H 1.3522132950 0.2825569870 -0.4689155085
H 0.7608435515 0.6699143501 1.8994208690
H 1.1948615137 -0.9929128593 2.2907080141
H -1.1881877429 -0.8995863038 2.1391330479
H -0.6104075613 -1.7949019123 0.7352414872
H -1.3781555419 1.1576245898 0.7205923546
H -0.9178320249 0.2031268823 -0.6896007134
H -2.8802963448 -1.2785804125 -0.3363975619
H -3.3478436650 -0.3260522188 1.0713089675
H -3.6033250867 1.6846086320 -0.3726172417
H -3.1373997707 0.7328040813 -1.7815705821
H -5.1215242857 -0.7436819011 -1.4400130135
H -5.5875191671 0.2091352498 -0.0312860552
H -5.6070781447 0.9414145913 -1.6366157379
32
CONF28
C 4.3566532558 -1.0877747811 0.9900122267
C 3.9914014249 0.3848251254 0.8391410161
C 3.0848140891 0.6610663448 -0.3612580118
C 1.6839675797 0.0703609999 -0.2117814753
C 0.7836145829 0.4604360494 -1.3825896795
C -0.5960808410 -0.1975583238 -1.3342091209
C -1.4719573260 0.3104745693 -0.1905947242
C -2.8713145121 -0.2993744906 -0.2334516750
C -3.7575344400 0.2109163112 0.9006660374
C -5.1488340951 -0.4099298869 0.8575508747
H 3.4761422886 -1.6881017480 1.2022049508
H 5.0612277072 -1.2191962972 1.8078669664
H 4.8166708469 -1.4599098048 0.0772480609
H 4.9098499043 0.9646140440 0.7211537123
H 3.4975608595 0.7310299717 1.7499178550
H 3.5521101785 0.2605170594 -1.2640065868
H 2.9949023280 1.7427080653 -0.4895423100
H 1.2488028309 0.4261897502 0.7237563783
H 1.7454252658 -1.0180501192 -0.1623005237
H 1.2767549543 0.1673565493 -2.3128568307
H 0.6642270502 1.5463741530 -1.4019320324
H -0.4763683138 -1.2797938955 -1.2440246357
H -1.1092487511 -0.0013068319 -2.2789849788
H -1.0089134453 0.0659800545 0.7669038707
H -1.5507408274 1.3985300477 -0.2539714158
H -3.3405470137 -0.0611683087 -1.1911199371
H -2.7922250394 -1.3871520484 -0.1670166645
H -3.2861762246 -0.0211196194 1.8584250058
H -3.8425470289 1.2976554923 0.8291238674
H -5.7642462583 -0.0270966290 1.6678888423
H -5.6390226792 -0.1793562997 -0.0855664097
H -5.0858448503 -1.4914061072 0.9544883771
32
CONF39
C 5.3369822538 0.3460320926 -0.0299864988
C 3.9610031878 -0.3080644223 -0.0833405123
C 2.8948832102 0.5773671574 0.5590245613
C 1.5127652340 -0.0739241250 0.6282091219
C 0.8709179021 -0.2730780585 -0.7439459903
C -0.5525567555 -0.8289589610 -0.6673154792
C -1.5713986144 0.1807370700 -0.1418911926
C -2.9944586352 -0.3715801993 -0.1810953155
C -4.0152394087 0.6349453159 0.3453926820
C -5.4355438349 0.0844235431 0.2956771437
H 5.3250639865 1.2983754415 -0.5555205163
H 6.0836310373 -0.2935372431 -0.4943159624
H 5.6332139484 0.5285756551 1.0007096049
H 3.9942466823 -1.2669596658 0.4389796823
H 3.7005196691 -0.5039333389 -1.1245575244
H 2.8224382331 1.5146587573 0.0021167973
H 3.2146801514 0.8227092726 1.5750163020
H 0.8671885742 0.5627877955 1.2355763288
H 1.5935120717 -1.0405462553 1.1312047052
H 1.4804011546 -0.9671525260 -1.3252823423
H 0.8544509591 0.6811293975 -1.2759302617
H -0.5595449813 -1.7165106447 -0.0303916774
H -0.8596100951 -1.1405354005 -1.6688203410
H -1.3275887696 0.4545396312 0.8860802358
H -1.5216986975 1.0887955236 -0.7477408371
H -3.2504832111 -0.6392562306 -1.2091385412
H -3.0445194873 -1.2832982234 0.4190109741
H -3.7634992247 0.8972015565 1.3755544756
H -3.9592385745 1.5485574344 -0.2509085389
H -5.5155765382 -0.8168851309 0.8992656611
H -6.1433747191 0.8170712588 0.6755307101
H -5.7118551585 -0.1632489640 -0.7267834686
32
CONF60
C 4.7769314644 -0.1760999896 -1.1940983829
C 3.6142786257 -0.6345178750 -0.3216403202
C 2.4852887449 0.3933424986 -0.2908803361
C 1.3193632977 -0.0579072694 0.5860639794
C 0.1911864910 0.9712297139 0.6040407556
C -0.9328397551 0.6262535492 1.5824493984
C -1.6663538029 -0.6856014664 1.2918619156
C -2.3174704691 -0.7719650551 -0.0893915575
C -3.4013709534 0.2789134811 -0.3203576215
C -4.1153542331 0.0650875394 -1.6502145604
H 5.5686351345 -0.9212415412 -1.1995356989
H 5.1873018737 0.7593194725 -0.8202808848
H 4.4453430322 -0.0187213183 -2.2180213471
H 3.9706503490 -0.8074307571 0.6964260052
H 3.2274643763 -1.5829394734 -0.7014459342
H 2.1262321065 0.5640422807 -1.3088062031
H 2.8740974817 1.3431320671 0.0845315347
H 1.6767181327 -0.2186713026 1.6062415103
H 0.9442557893 -1.0117783901 0.2111891022
H -0.2142515727 1.0817436216 -0.4030379641
H 0.6067513003 1.9402425749 0.8930437520
H -1.6538173398 1.4459465037 1.5870930405
H -0.5109595683 0.5605937863 2.5887137868
H -0.9675502422 -1.5172858939 1.4000655081
H -2.4419088082 -0.8136586183 2.0515787279
H -1.5553628855 -0.6815352391 -0.8652557468
H -2.7664688913 -1.7635973324 -0.1911055563
H -4.1284133974 0.2302690388 0.4937466210
H -2.9571509666 1.2754797739 -0.3116174243
H -4.8775097633 0.8255475861 -1.8026700674
H -3.4074236802 0.1178557461 -2.4746018521
H -4.5943982862 -0.9114078392 -1.6738016677
32
CONF70
C 5.1094779353 0.4626822912 0.7260064061
C 3.9337239612 -0.4584850905 0.4224998033
C 2.6661009625 0.3262924735 0.0920816954
C 1.4845512062 -0.5904315845 -0.2159733362
C 0.2191135858 0.1959422728 -0.5514823527
C -0.9605383802 -0.7275244025 -0.8478212152
C -2.2091662598 0.0135413169 -1.3289567609
C -2.7965578983 1.0126077835 -0.3289460736
C -3.2043153682 0.4148366123 1.0187240591
C -4.2982425283 -0.6405621440 0.9022912367
H 4.8825888915 1.1014904614 1.5766341342
H 5.3259527095 1.0977256082 -0.1301409971
H 5.9996123635 -0.1166770045 0.9584905487
H 3.7440696169 -1.1015205943 1.2849947760
H 4.1868997744 -1.1043451167 -0.4213816508
H 2.8562655286 0.9708777995 -0.7694950595
H 2.4119891509 0.9714745696 0.9365631941
H 1.2919085437 -1.2327352468 0.6469406867
H 1.7414724367 -1.2388677305 -1.0572813271
H 0.4083290443 0.8294283021 -1.4215729028
H -0.0238978117 0.8487647354 0.2886495407
H -1.1953629240 -1.3116153883 0.0435788127
H -0.6638145615 -1.4338818711 -1.6277398533
H -1.9602482661 0.5584885280 -2.2432546583
H -2.9719043282 -0.7227073045 -1.5890747381
H -2.0726678427 1.8104707291 -0.1524163899
H -3.6772876157 1.4700385560 -0.7872730329
H -2.3318807345 -0.0180716040 1.5105066582
H -3.5647449479 1.2277549816 1.6541333962
H -5.1594228697 -0.2378760241 0.3733497857
H -3.9413859798 -1.5149600686 0.3646171152
H -4.6208805510 -0.9593107287 1.8908135906
32
CONF8
C 5.0514983575 0.9439313645 -0.0843932739
C 3.5336945992 0.8086010846 -0.1264057679
C 3.0613745083 -0.4536578219 0.5926768666
C 1.5387887462 -0.5788005130 0.6625773057
C 0.8932186240 -0.8233753957 -0.7006954303
C -0.5977681002 -1.1515664682 -0.6094877999
C -1.4483499461 0.0276973966 -0.1415611994
C -2.9399821709 -0.2976993205 -0.1732466340
C -3.7944752370 0.8755323863 0.3016410644
C -5.2823714111 0.5473162120 0.2653763564
H 5.4023197004 0.9906028425 0.9442841820
H 5.3695310084 1.8482709789 -0.5973928939
H 5.5226146187 0.0907407211 -0.5674857179
H 3.2068539538 0.7839085609 -1.1670630925
H 3.0783567896 1.6820882943 0.3460992542
H 3.4577651770 -0.4421982996 1.6112057041
H 3.4739325862 -1.3312794725 0.0890808070
H 1.1300782921 0.3300918902 1.1074737738
H 1.2876885088 -1.4140087767 1.3211978338
H 1.4051724033 -1.6595940532 -1.1834515072
H 1.0223953217 0.0559602241 -1.3339547456
H -0.7421501591 -1.9938594074 0.0713465406
H -0.9473082663 -1.4633629467 -1.5969717545
H -1.1679611904 0.3039508139 0.8762763209
H -1.2541233390 0.8888169107 -0.7856372936
H -3.2305890728 -0.5649995488 -1.1921688793
H -3.1334156742 -1.1649501571 0.4626558540
H -3.5062304463 1.1408708984 1.3213622753
H -3.5985358080 1.7427417831 -0.3331117627
H -5.8702631949 1.3980999972 0.6009345162
H -5.5912016632 0.2929865395 -0.7460724196
H -5.5011658253 -0.2991072430 0.9124911814
32
CONF17
C 5.1566230301 0.4733276737 -0.6621526512
C 3.6629368600 0.1777627015 -0.7332725188
C 3.1670262144 -0.5237356588 0.5299558974
C 1.6985253065 -0.9438972670 0.4568964639
C 0.7276967835 0.2353766032 0.4559387575
C -0.7272506345 -0.2289647373 0.4582697712
C -1.6996378167 0.9489742765 0.4495903537
C -3.1672092193 0.5259607028 0.5262201945
C -3.6649256241 -0.1739241356 -0.7371648988
C -5.1539771132 -0.4894375851 -0.6548932897
H 5.4909656410 0.9755703932 -1.5667597230
H 5.7232716909 -0.4486821307 -0.5511169713
H 5.3771210823 1.1142590992 0.1886855481
H 3.4598876691 -0.4569877788 -1.5988881670
H 3.1209215326 1.1144293167 -0.8719825268
H 3.3114523705 0.1355928081 1.3891085837
H 3.7767282088 -1.4159294897 0.6934068494
H 1.4735600153 -1.5791323152 1.3173467870
H 1.5402643889 -1.5421309083 -0.4436663457
H 0.8986321087 0.8543286636 -0.4264275401
H 0.9120302978 0.8541333984 1.3375403950
H -0.9107945042 -0.8402109034 1.3452668820
H -0.8981961191 -0.8558103937 -0.4185245337
H -1.4755398909 1.5913815725 1.3048494816
H -1.5425815717 1.5401792366 -0.4557498339
H -3.3073290274 -0.1358207375 1.3842274688
H -3.7788392239 1.4161183040 0.6936437574
H -3.4775272962 0.4688127238 -1.6004270320
H -3.1121435506 -1.1026023623 -0.8865313944
H -5.3579568103 -1.1415537346 0.1914720743
H -5.7313149182 0.4239366576 -0.5294274557
H -5.4903215170 -0.9870723658 -1.5612712517
32
CONF27
C 4.5420918741 -0.2119452069 -1.4672998537
C 4.3753723859 -0.3614786345 0.0408709218
C 3.1524375775 0.3756200829 0.5888075131
C 1.8253449400 -0.2279269233 0.1332244590
C 0.6321384053 0.4662433212 0.7863263112
C -0.6985741224 -0.1315560416 0.3343833129
C -1.8870535827 0.5686723568 0.9904240889
C -3.2339603333 -0.0713925549 0.6519196784
C -3.6386820147 0.0966779295 -0.8114570464
C -5.0344079731 -0.4571441790 -1.0741603682
H 4.5834050258 0.8398622204 -1.7416476383
H 3.7153328032 -0.6751568824 -1.9989538403
H 5.4637513545 -0.6882502311 -1.7932239214
H 5.2673700985 0.0322760415 0.5338189276
H 4.2991078826 -1.4213438023 0.2940831725
H 3.1965588113 1.4232983029 0.2821018109
H 3.1900933477 0.3506325413 1.6808411214
H 1.8072176758 -1.2904995571 0.3876738650
H 1.7335436553 -0.1434676871 -0.9508101620
H 0.6527422755 1.5297748311 0.5364682672
H 0.7154439796 0.3820790940 1.8727315997
H -0.7212200289 -1.1938402889 0.5893721370
H -0.7736445188 -0.0480858729 -0.7510954230
H -1.7514017012 0.5418587105 2.0745659905
H -1.9001851528 1.6181571668 0.6867664147
H -3.1985979104 -1.1357774369 0.8960689776
H -4.0035951798 0.3848530979 1.2796215929
H -3.6147553053 1.1576233231 -1.0707742015
H -2.9238130349 -0.4201254459 -1.4535282816
H -5.0742991820 -1.5168958236 -0.8321481426
H -5.7715557242 0.0604770124 -0.4641683767
H -5.3050993889 -0.3328856417 -2.1198450819
32
CONF29
C 5.1537292788 0.3444981125 -0.8765779903
C 3.7553551987 -0.2615117295 -0.8900202996
C 2.8747071271 0.3128096011 0.2175772000
C 1.4734720189 -0.2940564659 0.2109873955
C 0.5961387956 0.2872970613 1.3180103490
C -0.7830076615 -0.3678241035 1.4064235181
C -1.6826021037 -0.0520369708 0.2128946784
C -3.0779959283 -0.6482487927 0.3887938438
C -3.9853394039 -0.4367564733 -0.8241656291
C -4.3780282837 1.0217364600 -1.0328241067
H 5.6440429258 0.1485985249 0.0744122918
H 5.1028936229 1.4216099340 -1.0193631054
H 5.7624061129 -0.0796864937 -1.6713730579
H 3.8278605832 -1.3444715618 -0.7662915161
H 3.2864402870 -0.0704482813 -1.8579958423
H 2.7990391528 1.3956842538 0.0924901725
H 3.3459325673 0.1251616511 1.1854912417
H 1.5489767547 -1.3761404017 0.3432778792
H 1.0131925771 -0.1094868856 -0.7611630690
H 0.4757014276 1.3612113715 1.1572034958
H 1.1080119351 0.1534485657 2.2743013203
H -1.2774050730 -0.0188465094 2.3165063252
H -0.6621142265 -1.4503550625 1.4926173710
H -1.7546093773 1.0312628529 0.1030844753
H -1.2401323898 -0.4544176846 -0.7000276406
H -2.9777278053 -1.7218408746 0.5675111413
H -3.5504283217 -0.2106453077 1.2714972033
H -3.4813758145 -0.8087243358 -1.7191475492
H -4.8932056488 -1.0288304726 -0.6866793389
H -4.8511489388 1.4186516190 -0.1373162996
H -3.5081585140 1.6311632919 -1.2623335896
H -5.0797943513 1.1083982006 -1.8589894352
32
CONF15
C 5.1753962884 0.4710755007 -0.6158277131
C 3.6821474749 0.1815021290 -0.7162767112
C 3.1632127495 -0.5327836162 0.5303800354
C 1.6947294129 -0.9473240760 0.4295321145
C 0.7280459266 0.2353675779 0.4223578933
C -0.7290114871 -0.2229341847 0.4269100913
C -1.6952664055 0.9598940788 0.4035840109
C -3.1641126596 0.5494036337 0.5147282188
C -3.6796795472 -0.2086866498 -0.7071928901
C -5.1754678694 -0.4847183202 -0.6060662544
H 5.7368795537 -0.4541049092 -0.5052836021
H 5.3828300362 1.1016465600 0.2459067001
H 5.5273055325 0.9821914820 -1.5086462396
H 3.4921729485 -0.4425465300 -1.5925768099
H 3.1454256209 1.1214933864 -0.8532648133
H 3.2956407031 0.1164394081 1.3991309145
H 3.7673909752 -1.4287534326 0.6938895249
H 1.4541456512 -1.5882194701 1.2815142227
H 1.5489307621 -1.5382106967 -0.4778950647
H 0.9020809447 0.8498322552 -0.4625911458
H 0.9140554666 0.8572738368 1.3014243397
H -0.9164026221 -0.8231597813 1.3206317503
H -0.9018372236 -0.8586823970 -0.4430976646
H -1.4546282340 1.6224089069 1.2388566074
H -1.5489586008 1.5271808060 -0.5187183628
H -3.2995309118 -0.0683601028 1.4056491782
H -3.7681536074 1.4509900603 0.6444104561
H -3.4796350143 0.3801109601 -1.6053618281
H -3.1483719815 -1.1566678392 -0.8042887959
H -5.5244336898 -1.0285140128 -1.4805363703
H -5.3931750420 -1.0794317653 0.2783166137
H -5.7316583799 0.4475965820 -0.5361867061
32
CONF16
C 5.1649223788 0.4736168284 -0.6423734725
C 3.6702574546 0.1858421727 -0.7246133137
C 3.1659042986 -0.5298496120 0.5272216552
C 1.6973242100 -0.9474829710 0.4413947594
C 0.7278555828 0.2329638216 0.4399062864
C -0.7278924433 -0.2291775955 0.4503365830
C -1.6977979135 0.9506998424 0.4354176908
C -3.1663225504 0.5331597567 0.5238565879
C -3.6705718693 -0.1873919533 -0.7252482476
C -5.1637944849 -0.4817908718 -0.6391999277
H 5.5061089200 0.9860855560 -1.5385192349
H 5.7269837208 -0.4521717595 -0.5405440682
H 5.3839192759 1.1023673762 0.2177555417
H 3.4687509764 -0.4367140696 -1.5993741779
H 3.1328523961 1.1265735867 -0.8536213563
H 3.3061725517 0.1194117860 1.3946825509
H 3.7734981981 -1.4247028676 0.6840655153
H 1.4659756979 -1.5867108089 1.2971765838
H 1.5443945118 -1.5409154474 -0.4632248076
H 0.8961635240 0.8482866407 -0.4455073930
H 0.9164377210 0.8548111846 1.3183989709
H -0.9095760866 -0.8329008447 1.3428038046
H -0.9028903076 -0.8625980409 -0.4208450794
H -1.4678768199 1.6007148218 1.2833758920
H -1.5438217533 1.5328601803 -0.4762950265
H -3.3061441665 -0.1124291079 1.3941386006
H -3.7741601830 1.4284679489 0.6768875693
H -3.4735898251 0.4340809848 -1.6018680481
H -3.1296005694 -1.1261661559 -0.8533706795
H -5.5048127463 -0.9955551338 -1.5346989417
H -5.3780830289 -1.1115389184 0.2214360974
H -5.7293275576 0.4417190777 -0.5360271305
32
CONF6
C 5.2951347705 -0.5094110209 -0.2820268057
C 3.8102469094 -0.8477635657 -0.3417096511
C 2.9444534823 0.2921209208 0.1904116308
C 1.4553149691 -0.0414403321 0.1341948024
C 0.5952788218 1.1067756748 0.6586055646
C -0.8937434999 0.7652168254 0.7295464042
C -1.5285050293 0.5583888893 -0.6451441018
C -3.0538924455 0.4623116074 -0.5945817427
C -3.5602687681 -0.7887654965 0.1208189749
C -5.0787013982 -0.9015109043 0.0472305017
H 5.5077438866 0.3756599577 -0.8774966902
H 5.8913088202 -1.3337086525 -0.6656814098
H 5.5994971074 -0.3125117944 0.7435134418
H 3.6193355448 -1.7486650845 0.2459007019
H 3.5280712355 -1.0615776700 -1.3751491713
H 3.1342643288 1.1931798660 -0.3978381824
H 3.2283768831 0.5073609918 1.2234531088
H 1.2637391632 -0.9363389956 0.7312731523
H 1.1814279094 -0.2654388208 -0.8981511239
H 0.7354581085 1.9828570349 0.0208453509
H 0.9402302746 1.3715593777 1.6613408506
H -1.4140162397 1.5828899947 1.2346544744
H -1.0211569857 -0.1342479245 1.3343053837
H -1.2542113056 1.4001235679 -1.2859788229
H -1.1324200144 -0.3503297646 -1.1017080026
H -3.4559160732 1.3486371501 -0.0977416385
H -3.4369334327 0.4569067649 -1.6182697503
H -3.1083799768 -1.6716421155 -0.3371980578
H -3.2550480402 -0.7627414964 1.1679595611
H -5.4220967187 -1.7936706751 0.5652481022
H -5.5467163493 -0.0345137395 0.5082530914
H -5.4075925931 -0.9568838390 -0.9882391300
32
CONF78
C 4.3403091487 1.4130360226 -0.4745162276
C 3.3422920940 0.5937395594 0.3357970433
C 2.8472059656 -0.6211538889 -0.4461850169
C 1.9574053966 -1.5567343305 0.3742605458
C 0.6565019218 -0.9333118278 0.8838537961
C -0.2778171130 -0.4740052657 -0.2335135274
C -1.6236367534 -0.0003748509 0.3116176622
C -2.5573513459 0.4614586214 -0.8055107376
C -3.8803018047 1.0339865896 -0.2945917598
C -4.7753596638 -0.0125903266 0.3598555180
H 3.8830878795 1.7651612077 -1.3966880058
H 5.2085804476 0.8106269888 -0.7326334133
H 4.6777391738 2.2766907712 0.0934405363
H 2.4971723433 1.2292495717 0.6047045634
H 3.8151733424 0.2571733152 1.2613977847
H 3.7143431968 -1.1922319458 -0.7882609561
H 2.3102174205 -0.2853683914 -1.3349213112
H 2.5282155717 -1.9153103507 1.2346178456
H 1.7097834994 -2.4252687184 -0.2412222903
H 0.8821308020 -0.0894580774 1.5380017168
H 0.1370670120 -1.6814896548 1.4883802197
H -0.4415457832 -1.3007486388 -0.9291265370
H 0.1849906189 0.3425600628 -0.7904088147
H -2.0880822558 -0.8168022632 0.8671433882
H -1.4597024355 0.8254670467 1.0084049024
H -2.0475789619 1.2307954357 -1.3911209253
H -2.7630473921 -0.3781777128 -1.4737129243
H -3.6737415250 1.8332742418 0.4207793012
H -4.4155686771 1.4761717842 -1.1382145137
H -5.7323381410 0.4270591973 0.6308704405
H -4.9581160343 -0.8373466170 -0.3254739249
H -4.3173224942 -0.4086084447 1.2621555332
32
CONF84
C 4.3176439156 1.4014907364 -0.5371949870
C 3.3178017395 0.6134576873 0.3013941869
C 2.8439298221 -0.6437295274 -0.4249588635
C 1.9625902732 -1.5523109294 0.4340920114
C 0.6610076281 -0.9160975521 0.9259075764
C -0.2692471566 -0.4800067795 -0.2040053459
C -1.6175827333 0.0032167556 0.3261962345
C -2.5365449663 0.4685045789 -0.8016568246
C -3.8682365772 1.0343056075 -0.3060166186
C -4.7803452781 -0.0234664366 0.3053803801
H 5.1974718289 0.7979944642 -0.7496920082
H 4.6351318838 2.2990051815 -0.0117861929
H 3.8701098247 1.6972146209 -1.4836446941
H 2.4632322476 1.2528069424 0.5280918601
H 3.7825625987 0.3284930268 1.2481926215
H 3.7205092498 -1.2181510100 -0.7359054022
H 2.3069782855 -0.3576447870 -1.3309730114
H 2.5384542492 -1.8756644780 1.3049684755
H 1.7171337265 -2.4444319932 -0.1475737391
H 0.8863542901 -0.0579934960 1.5614252790
H 0.1390249253 -1.6497061002 1.5458847826
H -0.4293062043 -1.3200174657 -0.8843628475
H 0.1952613277 0.3262589254 -0.7743434165
H -2.0927348037 -0.8084458613 0.8796620884
H -1.4555188364 0.8301602463 1.0221658011
H -2.0199738878 1.2422417110 -1.3754220083
H -2.7305179455 -0.3678279066 -1.4774369949
H -3.6741059932 1.8165272635 0.4313742676
H -4.3846460213 1.4973054081 -1.1501952432
H -4.3374547912 -0.4498030619 1.2013622795
H -5.7375598502 0.4155619125 0.5766652549
H -4.9600272835 -0.8261215567 -0.4065189749
32
CONF7
C 5.1038089517 0.8551072838 0.0441991035
C 3.5843543541 0.7706498624 0.1323712940
C 3.0456243065 -0.4494561064 -0.6121593276
C 1.5182914213 -0.5158644237 -0.6468244012
C 0.8944620789 -0.7383026313 0.7306376061
C -0.5932414622 -1.0869105308 0.6667633528
C -1.4621561633 0.0555016648 0.1444983126
C -2.9476736666 -0.2953718050 0.1906849198
C -3.8248386845 0.8381315289 -0.3362910002
C -5.3049543308 0.4768257221 -0.2950388654
H 5.5592794098 -0.0332813237 0.4759375399
H 5.4711521994 1.7256808621 0.5820342058
H 5.4219635107 0.9320373712 -0.9932034435
H 3.1452524035 1.6750034458 -0.2950159135
H 3.2902038378 0.7205036731 1.1817710690
H 3.4364115071 -1.3570520495 -0.1456320127
H 3.4166100222 -0.4220672098 -1.6399301221
H 1.2218482712 -1.3395746014 -1.3010638977
H 1.1341183970 0.4088140923 -1.0810089711
H 1.0225195723 0.1559058173 1.3430677888
H 1.4214348940 -1.5586922596 1.2242814274
H -0.9326683120 -1.3529766118 1.6710456191
H -0.7313109895 -1.9642016876 0.0301589259
H -1.2832473855 0.9490416381 0.7474386660
H -1.1851950791 0.2879050176 -0.8851314595
H -3.1237878643 -1.1935363267 -0.4062211810
H -3.2341806525 -0.5229422353 1.2203513392
H -3.6529144453 1.7347223112 0.2635992226
H -3.5361368371 1.0682445414 -1.3643988489
H -5.9100815881 1.2968784772 -0.6737045472
H -5.4985028184 -0.4035565884 -0.9038537102
H -5.6157525804 0.2619598054 0.7249528706
32
CONF80
C 4.7697615771 -0.0095285995 0.3733014482
C 3.8667363982 -1.0462859865 -0.2857908686
C 2.5530117293 -0.4599242118 -0.8046811437
C 1.6214155576 0.0197108958 0.3067758168
C 0.2747361668 0.4851270191 -0.2432649831
C -0.6578084289 0.9610755321 0.8685561050
C -1.9638946814 1.5681777164 0.3524825447
C -2.8486408466 0.6144583448 -0.4525000295
C -3.3277571061 -0.5962091631 0.3458063565
C -4.3178489670 -1.4370062504 -0.4521291274
H 4.3099097499 0.3932204365 1.2716771943
H 4.9671762040 0.8119129100 -0.3119527321
H 5.7194929705 -0.4601621909 0.6517671964
H 3.6470576992 -1.8426215951 0.4290230249
H 4.4017414292 -1.4953082156 -1.1259625113
H 2.0357860954 -1.2262978863 -1.3877100189
H 2.7714375941 0.3732198406 -1.4769487090
H 2.0871696814 0.8441803527 0.8492091177
H 1.4579567734 -0.7954043833 1.0162134176
H -0.1888867384 -0.3401994157 -0.7864037329
H 0.4368249969 1.3009583285 -0.9520026744
H -0.1399494900 1.7228853176 1.4571975176
H -0.8768657851 0.1284550159 1.5391497244
H -2.5353601840 1.9354919745 1.2087168437
H -1.7236369981 2.4291579976 -0.2763780372
H -3.7230435550 1.1730726474 -0.7966574292
H -2.3129015715 0.2737380747 -1.3401367990
H -2.4746485364 -1.2185130554 0.6202955064
H -3.8023744754 -0.2538504381 1.2683903001
H -4.6441582668 -2.2972478260 0.1273569210
H -5.1935222315 -0.8480269763 -0.7161344226
H -3.8582604371 -1.7955238091 -1.3706717413
32
CONF157
C 4.9489982650 0.5755835163 0.6490313292
C 3.7058458867 -0.2984759205 0.5324135419
C 2.5606402202 0.4308483599 -0.1665384627
C 1.3122584122 -0.4400057992 -0.2892798451
C 0.1702289839 0.3009559433 -0.9813338305
C -1.0532407553 -0.5775619162 -1.2477129952
C -1.7293627036 -1.1436697103 0.0031836761
C -2.2115807780 -0.0969158520 1.0100340723
C -3.2170968221 0.9151882067 0.4581956956
C -4.5174852816 0.2747025490 -0.0139231746
H 5.2976353872 0.8744633972 -0.3370317019
H 5.7504093729 0.0369228934 1.1487173309
H 4.7295541668 1.4745192189 1.2208291763
H 3.3823688501 -0.6043384589 1.5300395189
H 3.9500774435 -1.2041129265 -0.0275584959
H 2.8861241452 0.7395996654 -1.1630142866
H 2.3150002341 1.3359135666 0.3944919098
H 1.0001095715 -0.7521602389 0.7088949961
H 1.5551872001 -1.3406379938 -0.8586725343
H 0.5312985055 0.6804133407 -1.9410254095
H -0.1172209977 1.1649738560 -0.3798266568
H -0.7485023614 -1.4182828442 -1.8765885290
H -1.7806417327 0.0041620815 -1.8171932196
H -2.5785374440 -1.7516050482 -0.3149612615
H -1.0334958985 -1.8121978787 0.5140557635
H -2.6731405168 -0.6233737030 1.8497016547
H -1.3505267283 0.4464364486 1.4038841316
H -3.4453371582 1.6324005266 1.2507645011
H -2.7669785748 1.4730240354 -0.3644309964
H -4.3468910146 -0.3675673044 -0.8738229821
H -4.9569752251 -0.3233639378 0.7815395507
H -5.2325427136 1.0420841822 -0.3014513103
32
CONF81
C 4.7712888828 -0.0049333232 0.3944400342
C 3.8798770190 -1.0395873625 -0.2834814503
C 2.5672733534 -0.4550432949 -0.8072971636
C 1.6253763525 0.0112316837 0.3010913326
C 0.2825398566 0.4810707349 -0.2546330222
C -0.6550856366 0.9531739972 0.8545758514
C -1.9589833544 1.5618181890 0.3349450086
C -2.8498940658 0.6051968534 -0.4596496497
C -3.3426573944 -0.5894326524 0.3544975485
C -4.3480819966 -1.4253488236 -0.4292370757
H 4.9673953533 0.8263793912 -0.2791445267
H 5.7222990701 -0.4524658963 0.6734671659
H 4.3029449509 0.3833393629 1.2948112137
H 3.6587296349 -1.8447567188 0.4208583197
H 4.4245944311 -1.4764934689 -1.1238106777
H 2.0580160721 -1.2187787258 -1.4006343179
H 2.7869225022 0.3847378241 -1.4708285616
H 2.0854694842 0.8306512645 0.8558531024
H 1.4574197949 -0.8114773205 1.0006184912
H -0.1792613890 -0.3405184675 -0.8049244607
H 0.4500550926 1.3004015552 -0.9580718639
H -0.1395983352 1.7133849325 1.4473566049
H -0.8767054186 0.1186105776 1.5218594136
H -2.5275849307 1.9393410427 1.1886507279
H -1.7154225918 2.4161337674 -0.3016795583
H -3.7181533327 1.1670360575 -0.8139356550
H -2.3149916576 0.2470747533 -1.3408953003
H -2.4972627725 -1.2204643502 0.6329524170
H -3.8086610211 -0.2297113518 1.2748757725
H -5.2174706338 -0.8275693714 -0.6942859677
H -3.8985698458 -1.7992281977 -1.3466200760
H -4.6823575121 -2.2752185106 0.1609473894
32
CONF46
C 4.2314863740 1.1489964907 -1.2941274050
C 3.7204562362 0.0498741711 -0.3699869005
C 2.1962235403 0.0497146660 -0.2741735485
C 1.6837077680 -1.0482139725 0.6557991144
C 0.1581696738 -1.1505910173 0.6881195110
C -0.5112664930 0.0658219885 1.3256299985
C -2.0040736317 -0.1391266058 1.5911593053
C -2.8518609774 -0.3919374953 0.3430883872
C -2.8402138203 0.7688718536 -0.6494389718
C -3.8098720890 0.5308847600 -1.8013522895
H 3.9212522510 2.1263228952 -0.9310901517
H 3.8354422946 1.0158525948 -2.2984430962
H 5.3172827290 1.1306567397 -1.3474151961
H 4.1429518526 0.1888937429 0.6277869544
H 4.0589777677 -0.9210540529 -0.7392201007
H 1.7739506980 -0.0970307235 -1.2713690258
H 1.8648765512 1.0243951448 0.0880764845
H 2.0560298425 -0.8675756792 1.6671405593
H 2.0909128463 -2.0062073279 0.3221688837
H -0.1195904800 -2.0408070518 1.2581742351
H -0.2067991072 -1.2813617604 -0.3320167600
H -0.3731627899 0.9411227334 0.6908744308
H -0.0223217201 0.2731795372 2.2810557012
H -2.1260046614 -0.9877999975 2.2691363021
H -2.3894443216 0.7473254156 2.1014698860
H -2.5103010520 -1.2995637438 -0.1573843676
H -3.8825804653 -0.5663446714 0.6629331103
H -3.1134561180 1.6898632990 -0.1290814448
H -1.8350915038 0.8992904949 -1.0533906545
H -3.5464726652 -0.3778465950 -2.3382901679
H -4.8264469561 0.4245785299 -1.4289238126
H -3.7853490688 1.3629523141 -2.5009459136
32
CONF49
C 4.2366661753 1.1492233746 -1.2868487004
C 3.7219490313 0.0454925320 -0.3702728169
C 2.1976627250 0.0490439761 -0.2752696276
C 1.6821101594 -1.0506071146 0.6510014250
C 0.1563086152 -1.1486566879 0.6844014172
C -0.5088256762 0.0710855392 1.3201149551
C -2.0009622082 -0.1303185316 1.5919342144
C -2.8535487412 -0.3892408145 0.3484063501
C -2.8396537872 0.7638668737 -0.6530394443
C -3.8187524015 0.5247068418 -1.7967184533
H 5.3223842239 1.1274402946 -1.3401369154
H 3.9298734899 2.1250263256 -0.9168782245
H 3.8402632228 1.0246124617 -2.2921073212
H 4.1442227943 0.1767981919 0.6286633050
H 4.0579553749 -0.9239533065 -0.7456328669
H 1.7752456924 -0.0930989789 -1.2730700047
H 1.8688640911 1.0233180929 0.0903539378
H 2.0556899433 -0.8745519862 1.6627049121
H 2.0860854186 -2.0087400626 0.3138657810
H -0.1233668491 -2.0370265401 1.2564213584
H -0.2099107678 -1.2803792494 -0.3351734096
H -0.3719207440 0.9438510840 0.6816228655
H -0.0160003853 0.2811718356 2.2729511443
H -2.1218540246 -0.9747010089 2.2754076255
H -2.3831624980 0.7597782651 2.0982823699
H -2.5172961935 -1.3021458997 -0.1460247598
H -3.8840555690 -0.5567533419 0.6726009792
H -3.1024360873 1.6908511544 -0.1379736372
H -1.8361897108 0.8834761442 -1.0644487648
H -4.8340407797 0.4319424593 -1.4172213641
H -3.7903791716 1.3498943882 -2.5042598860
H -3.5676668732 -0.3915572426 -2.3266904869
32
CONF50
C 4.2104372975 1.1730630731 -1.2997219705
C 3.7138042686 0.0782609632 -0.3626788339
C 2.1891742291 0.0493217157 -0.2780269406
C 1.6912944999 -1.0502839666 0.6579339035
C 0.1672934053 -1.1745624961 0.6893205818
C -0.5183725437 0.0246810553 1.3417631820
C -2.0133809059 -0.1943799985 1.5823907806
C -2.8458738471 -0.4074245065 0.3166836562
C -2.8296018271 0.7883589353 -0.6334327064
C -3.7918327033 0.5913034774 -1.7992128222
H 3.8301913168 1.0136475554 -2.3062808876
H 5.2969120525 1.1792093151 -1.3395955252
H 3.8732477361 2.1489016246 -0.9574676985
H 4.1258262073 0.2404079159 0.6360077415
H 4.0740572830 -0.8912310873 -0.7147475199
H 1.7771591070 -0.1146246976 -1.2768344307
H 1.8363213086 1.0206625555 0.0727263569
H 2.0598628961 -0.8585663012 1.6686089562
H 2.1129186254 -2.0039942856 0.3300603600
H -0.0982775031 -2.0750616512 1.2489490800
H -0.1961296584 -1.2984289060 -0.3321907560
H -0.3770602830 0.9136360699 0.7270910535
H -0.0435999591 0.2152514785 2.3077923861
H -2.1399119026 -1.0656984606 2.2300987252
H -2.4082189024 0.6730860031 2.1174987434
H -2.4938960232 -1.2947871535 -0.2120691233
H -3.8790554364 -0.5984740470 0.6185323559
H -3.1073649747 1.6896439651 -0.0819227908
H -1.8221435761 0.9343676058 -1.0260808188
H -4.8116444756 0.4775204872 -1.4378536578
H -3.7586906672 1.4452497879 -2.4716093131
H -3.5280553489 -0.3008921461 -2.3630618554
32
CONF40
C 5.1434448183 0.1006783731 0.1264327009
C 4.0357161762 -0.9055438676 0.4186590531
C 2.6569589839 -0.2615790096 0.5772224106
C 2.0998900914 0.2938722053 -0.7323377079
C 0.7262596544 0.9483565469 -0.5747860934
C -0.3906584236 -0.0440361865 -0.2570168705
C -1.7608002970 0.6301817995 -0.2356647148
C -2.8794809385 -0.3550722064 0.0949158746
C -4.2527655026 0.3125950393 0.1050441262
C -5.3628261478 -0.6776298117 0.4371657988
H 5.1774341340 0.8628477467 0.9018631064
H 4.9859562764 0.5899651524 -0.8310132152
H 6.1079809914 -0.4005572340 0.0952946658
H 4.2796219089 -1.4347952228 1.3429037904
H 3.9958709402 -1.6453365350 -0.3841122509
H 2.7189213531 0.5439900814 1.3127381313
H 1.9699600450 -1.0150370663 0.9664481298
H 2.0314855818 -0.5136961147 -1.4652747564
H 2.7906606963 1.0415981583 -1.1257402647
H 0.4778200001 1.4630110519 -1.5064692036
H 0.7746879422 1.7025901572 0.2141456957
H -0.2102539261 -0.5071236356 0.7145345475
H -0.3917945276 -0.8371150910 -1.0086358362
H -1.7561215572 1.4331421256 0.5054350450
H -1.9562256799 1.0835452033 -1.2105927358
H -2.8777120251 -1.1624610708 -0.6413482046
H -2.6892579768 -0.8014672609 1.0739400057
H -4.2546223447 1.1205252792 0.8402670492
H -4.4436932043 0.7570755935 -0.8743913542
H -5.3863264386 -1.4820707170 -0.2946289397
H -5.2011950825 -1.1145069327 1.4201126560
H -6.3307495419 -0.1825209691 0.4355528968
32
CONF56
C 5.0784933278 -0.7470755725 0.1708837308
C 3.5775267032 -1.0097843569 0.1373836737
C 2.7820557255 0.2671049609 -0.1249076114
C 1.2764756740 0.0132509723 -0.1555414854
C 0.4896757967 1.2999243068 -0.3975880729
C -1.0161349561 1.0735211496 -0.5390454836
C -1.6720687076 0.5820938213 0.7506435708
C -3.2003139390 0.6406975701 0.7089680372
C -3.8487820495 -0.2318846017 -0.3674872307
C -3.5708278864 -1.7196298911 -0.1844805437
H 5.6243332289 -1.6680285501 0.3605467681
H 5.3222838969 -0.0345395237 0.9557583748
H 5.4143827992 -0.3371743559 -0.7790094565
H 3.2632574612 -1.4397728486 1.0911601010
H 3.3540744347 -1.7399553515 -0.6438156910
H 3.0961885151 0.6971025262 -1.0791460926
H 3.0076517344 0.9978539091 0.6555843084
H 0.9730260629 -0.4310906945 0.7939386425
H 1.0478191178 -0.7039768881 -0.9477238726
H 0.8596640936 1.7687036284 -1.3130523196
H 0.6745997174 1.9948771755 0.4251410682
H -1.1906126768 0.3539818353 -1.3409343734
H -1.4830001122 2.0176319227 -0.8312922608
H -1.3539834454 -0.4384999516 0.9633248113
H -1.3318767210 1.2108295146 1.5776021139
H -3.5850766701 0.3337839465 1.6849129991
H -3.5070769895 1.6770416033 0.5455807090
H -4.9286380582 -0.0677808186 -0.3307834760
H -3.5053127408 0.0846297686 -1.3534907397
H -4.1379614593 -2.3001884794 -0.9083685272
H -2.5162402553 -1.9401859395 -0.3263022653
H -3.8593367970 -2.0398765279 0.8143287658
32
CONF48
C 3.7998211360 -0.6143239189 -1.7823306605
C 2.8355690512 -0.7982411629 -0.6160460650
C 2.8502861422 0.4084828043 0.3201124099
C 2.0081246349 0.2141549839 1.5823694601
C 0.5142934650 -0.0038678387 1.3335600521
C -0.1596117351 1.1817856843 0.6448596384
C -1.6847771270 1.0720603139 0.6174749914
C -2.1934510589 -0.0591597258 -0.2739291517
C -3.7179667714 -0.0727295663 -0.3635501083
C -4.2247718386 -1.2028795264 -1.2519748561
H 3.7700195811 -1.4769057145 -2.4436882555
H 4.8185583186 -0.4935243228 -1.4204171646
H 3.5353467785 0.2699057740 -2.3582644643
H 3.1121644101 -1.6932404865 -0.0537356047
H 1.8287776575 -0.9486837789 -1.0088324821
H 2.5053672297 1.2909151808 -0.2214578846
H 3.8821705708 0.5990786092 0.6267284122
H 2.1325318277 1.0937168028 2.2192822115
H 2.3963691082 -0.6472224884 2.1319592569
H 0.0300745498 -0.1680972629 2.2997499133
H 0.3741572482 -0.9072625746 0.7399386986
H 0.2045882208 1.2703640736 -0.3800749814
H 0.1151040015 2.0964471201 1.1764123534
H -2.0555688674 0.9246545624 1.6347435955
H -2.0963542628 2.0162692780 0.2515397444
H -1.7759440083 0.0577310888 -1.2770623673
H -1.8541974840 -1.0192914238 0.1185701412
H -4.1356291108 -0.1841318760 0.6397565008
H -4.0646692963 0.8841845137 -0.7607610055
H -5.3110449826 -1.1972872616 -1.2964312594
H -3.8384765291 -1.0944067354 -2.2630371779
H -3.9012479819 -2.1661812999 -0.8639612671
32
CONF107
C 3.3213607591 1.5662654212 1.1860427202
C 3.7714129168 0.3409313093 0.3980088696
C 2.6932721538 -0.7388670533 0.2930486111
C 1.4949209502 -0.3184559489 -0.5558146389
C 0.4853079135 -1.4547873701 -0.7042944839
C -0.6581348550 -1.1320824864 -1.6682384278
C -1.5404196619 0.0480694299 -1.2565535822
C -2.2742438537 -0.1708250472 0.0646714139
C -3.2589210990 0.9583359119 0.3615116080
C -3.9887580659 0.7435003312 1.6822361817
H 2.5152157947 2.0852124322 0.6746621959
H 4.1487722013 2.2616966032 1.3057061605
H 2.9725782187 1.2745049126 2.1742433442
H 4.6472849679 -0.0901765267 0.8887187506
H 4.0730657634 0.6462615502 -0.6065426682
H 2.3500330980 -1.0029430849 1.2962822693
H 3.1385295312 -1.6343895678 -0.1480895548
H 1.8440685677 -0.0150891166 -1.5460041622
H 1.0083535460 0.5398350199 -0.0930276347
H 0.0812110937 -1.7114233098 0.2763923536
H 1.0056709303 -2.3393853356 -1.0811771530
H -1.2876518307 -2.0200542215 -1.7667952729
H -0.2341057721 -0.9188082922 -2.6527335048
H -0.9380207672 0.9557182315 -1.1913230834
H -2.2809387326 0.2079248952 -2.0447872339
H -2.8158737773 -1.1190916564 0.0232920258
H -1.5542547834 -0.2340246355 0.8823989916
H -2.7185387215 1.9072821200 0.3954767083
H -3.9884886826 1.0234111665 -0.4491668892
H -4.6839831546 1.5576431548 1.8725767290
H -4.5486972188 -0.1889114724 1.6597655188
H -3.2799884467 0.6966635670 2.5061356216
32
CONF95
C 3.9634008007 -0.8252937906 1.6611058297
C 3.2514790937 -0.9721958399 0.3213856695
C 2.2643271056 0.1665476390 0.0733721411
C 1.5433524664 0.0126417306 -1.2639828245
C 0.6610648675 1.2096412874 -1.6239183033
C -0.4839743101 1.4885967802 -0.6482793638
C -1.4900690054 0.3440477297 -0.5471538820
C -2.6863511916 0.7235579950 0.3236357454
C -3.7609733481 -0.3630783622 0.3855034830
C -3.3072022880 -1.6172925420 1.1244346346
H 4.6614772519 -1.6444182689 1.8157677152
H 3.2440684663 -0.8277698005 2.4770536467
H 4.5173540923 0.1101784192 1.6966589337
H 2.7158304405 -1.9241107855 0.2974150730
H 3.9913275865 -0.9900447820 -0.4823219696
H 2.8016934474 1.1179896571 0.0858256037
H 1.5365707060 0.1843457980 0.8863898916
H 0.9431140017 -0.8986752380 -1.2499052961
H 2.2913418433 -0.1055613160 -2.0524960844
H 0.2390271795 1.0405171641 -2.6178056621
H 1.2901460604 2.1015152440 -1.6813253615
H -1.0068929422 2.3864819781 -0.9884249676
H -0.0809796023 1.7056483385 0.3423722938
H -1.8418895215 0.0840042400 -1.5486585462
H -0.9997763268 -0.5327198296 -0.1246241745
H -2.3399879846 0.9446789756 1.3361393888
H -3.1356934069 1.6362023429 -0.0764268691
H -4.6383313919 0.0452246857 0.8927705489
H -4.0615061568 -0.6292167290 -0.6304500435
H -2.4951813436 -2.1096527319 0.5962373105
H -2.9652595902 -1.3646665719 2.1257274888
H -4.1308400338 -2.3221230544 1.2107223221
32
CONF52
C 3.9633313044 1.4283069957 1.2700614099
C 3.4380098245 0.0858528319 0.7749704157
C 2.2463998564 0.2515165508 -0.1660030996
C 1.7255667536 -1.0947598288 -0.6643900224
C 0.6339433671 -0.9709287460 -1.7288644063
C -0.6557299141 -0.2975945253 -1.2554374228
C -1.3546146046 -1.0622975776 -0.1318027313
C -2.7876335438 -0.5892985462 0.1155001729
C -2.8731580799 0.8375303207 0.6539950316
C -4.3105708239 1.2289162995 0.9773608501
H 4.2840918156 2.0432981277 0.4321235315
H 4.8108526948 1.2856854158 1.9360682867
H 3.1873000655 1.9653706660 1.8109006619
H 3.1389597420 -0.5250588766 1.6299155535
H 4.2375742681 -0.4458304954 0.2537161635
H 2.5464265626 0.8610197308 -1.0220012710
H 1.4525885650 0.7844232156 0.3603051448
H 1.3526591025 -1.6755844676 0.1808175621
H 2.5602467766 -1.6521124327 -1.0978876004
H 0.3912339293 -1.9727178814 -2.0925257776
H 1.0324066092 -0.4024553529 -2.5730453122
H -1.3352393646 -0.2322326724 -2.1091806472
H -0.4369930975 0.7203448607 -0.9325129716
H -1.3803581413 -2.1229910842 -0.3943511076
H -0.7849789625 -0.9625582205 0.7938814719
H -3.3556164766 -0.6564283856 -0.8156798199
H -3.2580288450 -1.2627701261 0.8366177367
H -2.2634947706 0.9180418065 1.5570115774
H -2.4711912585 1.5335214677 -0.0838797587
H -4.7271408827 0.5636479271 1.7306017036
H -4.3548911357 2.2473181655 1.3556405954
H -4.9308130503 1.1659483838 0.0859271544
32
CONF110
C 3.4074395446 -1.7316152701 -0.5655172392
C 3.2401905744 -0.3234696331 -1.1252757531
C 3.2132489670 0.7584303193 -0.0437477018
C 2.0664398542 0.6403261302 0.9619373335
C 0.6826846835 0.7599463996 0.3264282150
C -0.4177827714 0.7961291472 1.3852532038
C -1.8203023051 0.9684054467 0.8000154705
C -2.3108900941 -0.2538747972 0.0263093312
C -3.7574144689 -0.0918485136 -0.4362192640
C -4.2475030115 -1.3122455206 -1.2068780861
H 3.5291751124 -2.4465040653 -1.3760071170
H 2.5385071992 -2.0260550898 0.0168251880
H 4.2858948374 -1.7843295994 0.0739871954
H 2.3264274998 -0.2735695312 -1.7194235008
H 4.0757089152 -0.1089278255 -1.7962210170
H 3.1507305648 1.7341572968 -0.5322632656
H 4.1577511373 0.7254443387 0.5052713396
H 2.1824492028 1.4364161683 1.7022898640
H 2.1386948868 -0.3090477874 1.4950806070
H 0.5149564768 -0.0857551452 -0.3403104333
H 0.6374727401 1.6739953518 -0.2708264444
H -0.2195715888 1.6272858710 2.0668859597
H -0.3840798199 -0.1248346360 1.9723876484
H -2.5174834881 1.1636543565 1.6188322990
H -1.8324220580 1.8414443850 0.1431902609
H -1.6775897476 -0.4188743479 -0.8470867865
H -2.2351635624 -1.1374870612 0.6647828886
H -4.3981697720 0.0688207318 0.4340432097
H -3.8349879939 0.7938548228 -1.0710232212
H -4.1885644789 -2.2029894912 -0.5855204274
H -5.2802294924 -1.1785199666 -1.5190542299
H -3.6381729993 -1.4729079370 -2.0933372678
32
CONF98
C 3.3675525200 1.5827959386 1.1348898282
C 3.7942043661 0.3177055979 0.3983840909
C 2.6912245864 -0.7392352342 0.3236925520
C 1.5095231249 -0.3235769427 -0.5506206166
C 0.4839194295 -1.4481004523 -0.6777726191
C -0.6548631282 -1.1291025028 -1.6483616780
C -1.5392703016 0.0526158377 -1.2458003488
C -2.2878919722 -0.1660740896 0.0672521471
C -3.2847165290 0.9567398098 0.3474745968
C -4.0338095252 0.7380575166 1.6568005380
H 2.5773030374 2.0998889561 0.5973670033
H 4.2102932983 2.2629248941 1.2339319289
H 3.0053131862 1.3377974821 2.1309207967
H 4.6548316114 -0.1155373336 0.9136131991
H 4.1122467290 0.5771963157 -0.6139522512
H 2.3338079171 -0.9578426472 1.3328677994
H 3.1186693659 -1.6607241905 -0.0801132546
H 1.8743962422 -0.0550169001 -1.5451780740
H 1.0320698267 0.5557457694 -0.1187755419
H 0.0761914351 -1.6801423230 0.3074769372
H 0.9927311098 -2.3466171204 -1.0371039282
H -1.2846226060 -2.0170777793 -1.7454320772
H -0.2263176591 -0.9209799200 -2.6320008702
H -0.9366088432 0.9595518263 -1.1738869035
H -2.2712609969 0.2134103883 -2.0417537236
H -2.8221860941 -1.1183519477 0.0229526062
H -1.5776628500 -0.2208363244 0.8940334648
H -2.7515529363 1.9094377768 0.3888425555
H -4.0019549713 1.0158297522 -0.4745840054
H -3.3379928501 0.6974574309 2.4918991874
H -4.7378953325 1.5472326424 1.8349141472
H -4.5864554763 -0.1984036272 1.6265642297
32
CONF96
C 3.2556209348 1.5256362401 1.2765972591
C 3.7303684369 0.3576036101 0.4190720181
C 2.6768778280 -0.7393139930 0.2565569883
C 1.4741135400 -0.3042612158 -0.5784965846
C 0.4842063599 -1.4500792915 -0.7772577786
C -0.6656902947 -1.1053260732 -1.7259234624
C -1.5462936124 0.0634091482 -1.2793073249
C -2.2445288872 -0.1748814107 0.0576302519
C -3.2189358736 0.9506400154 0.3986887791
C -3.9017280345 0.7225861117 1.7422128033
H 2.9289871835 1.1718730322 2.2519739627
H 2.4278483018 2.0467695027 0.8034528764
H 4.0640278478 2.2380578217 1.4230929658
H 4.6181990991 -0.0795618060 0.8820247859
H 4.0203107016 0.7259942494 -0.5675630337
H 2.3344459804 -1.0579410418 1.2440959151
H 3.1433185100 -1.6032468164 -0.2238875067
H 1.8206186503 0.0461638850 -1.5539290248
H 0.9717717170 0.5255520667 -0.0819099768
H 0.0849738035 -1.7560333481 0.1912555814
H 1.0189600656 -2.3087130441 -1.1921016553
H -1.2941294733 -1.9919258494 -1.8420586323
H -0.2489253411 -0.8668166577 -2.7077208382
H -0.9484337640 0.9744571513 -1.2188802665
H -2.3070369089 0.2270398639 -2.0472036690
H -2.7876746030 -1.1222333457 0.0173021946
H -1.5023521534 -0.2500413022 0.8541113311
H -2.6777694810 1.8994513942 0.4231886834
H -3.9760971054 1.0233214275 -0.3855336794
H -4.4604349486 -0.2106627321 1.7312375999
H -3.1640903150 0.6699419471 2.5399558161
H -4.5909833687 1.5335929502 1.9643422355
32
CONF82
C 4.3143797090 1.2093396182 -0.9777531411
C 3.4515155898 -0.0446511848 -0.8993752101
C 2.3997437114 0.0555010553 0.2035566645
C 1.5296233992 -1.1974987769 0.2740009128
C 0.5591359146 -1.2011581178 1.4566239363
C -0.4904593419 -0.0882104829 1.4365850002
C -1.4324793555 -0.1626485121 0.2365443724
C -2.5643057869 0.8572057387 0.3481842918
C -3.4727655653 0.8925158049 -0.8817346310
C -4.2952842634 -0.3792882405 -1.0572803873
H 4.8339167437 1.3728314046 -0.0361697907
H 3.6996354698 2.0825213435 -1.1849582571
H 5.0555506157 1.1153872049 -1.7676969371
H 4.0888843970 -0.9121607028 -0.7125911651
H 2.9526870293 -0.2025765170 -1.8584799119
H 1.7749483210 0.9303772150 0.0158216441
H 2.8987390428 0.2022993446 1.1646327706
H 2.1815415969 -2.0700852257 0.3677338493
H 0.9753560603 -1.3073507682 -0.6596013914
H 1.1358316518 -1.1164010917 2.3811224867
H 0.0441853428 -2.1649657525 1.4776777436
H 0.0019361080 0.8855691724 1.4537343933
H -1.0841328587 -0.1665804088 2.3511874205
H -0.8764051808 0.0283992200 -0.6829507591
H -1.8476502684 -1.1700920781 0.1761101616
H -3.1660438006 0.6347622790 1.2326969237
H -2.1276778380 1.8493786032 0.4888080750
H -4.1540351019 1.7413596526 -0.7860457739
H -2.8643270876 1.0569845362 -1.7740094356
H -3.6541628324 -1.2349001755 -1.2513778399
H -4.8779872209 -0.5806399699 -0.1610485727
H -4.9801128173 -0.2722966690 -1.8952311854
32
CONF159
C 4.9785572827 0.5357062990 -0.6248151210
C 3.7210993127 -0.3189183889 -0.5175335844
C 2.5741514055 0.4365116637 0.1502213625
C 1.3166598664 -0.4205647363 0.2771480630
C 0.1739730257 0.3426726817 0.9437320119
C -1.0471403242 -0.5288506853 1.2419385081
C -1.7291466536 -1.1314365344 0.0116679163
C -2.2375347527 -0.1137140005 -1.0119853474
C -3.2506549053 0.8964103092 -0.4702220992
C -4.5319410052 0.2479417985 0.0416364397
H 5.7804510357 -0.0214286234 -1.1029902494
H 5.3146239529 0.8432179462 0.3629797254
H 4.7822251354 1.4296639455 -1.2125391021
H 3.9427289020 -1.2191495549 0.0603658362
H 3.4109679284 -0.6356684402 -1.5160090006
H 2.3440444255 1.3314480024 -0.4331248922
H 2.8902701773 0.7635919527 1.1438687088
H 1.5466306818 -1.3115199261 0.8668861266
H 1.0116008225 -0.7503357459 -0.7176021515
H -0.1155695556 1.1850834676 0.3133743789
H 0.5353810988 0.7551325529 1.8895324513
H -1.7723034162 0.0676834184 1.7987241426
H -0.7372380427 -1.3506923051 1.8929107448
H -1.0297258505 -1.8013092957 -0.4925584785
H -2.5663313431 -1.7437037938 0.3525123987
H -1.3889291009 0.4327101282 -1.4280812588
H -2.7016660738 -0.6649567099 -1.8341089288
H -2.7961594014 1.4839603942 0.3290187894
H -3.5040473462 1.5878006583 -1.2779032510
H -4.3367552103 -0.3645172934 0.9178500325
H -5.2562512509 1.0110804266 0.3171933413
H -4.9728852417 -0.3817019032 -0.7282827580
32
CONF51
C 4.3048366231 1.2188854160 1.1517517134
C 3.7545538298 0.0497321181 0.3434105316
C 2.2288482528 0.0705538695 0.2755698416
C 1.6814026722 -1.0948059112 -0.5459570990
C 0.1538973113 -1.1678014053 -0.5554853709
C -0.4985119432 0.0129032183 -1.2736283738
C -1.9826622628 -0.2099921982 -1.5713390397
C -2.8648817534 -0.4114468847 -0.3380832173
C -2.8970355461 0.7976779019 0.5944356341
C -3.9063459946 0.6088001467 1.7211677594
H 4.0072572516 2.1645556504 0.7041726741
H 5.3908981972 1.1819806782 1.1873390715
H 3.9259702890 1.1886314814 2.1709355066
H 4.0827944388 -0.8896021434 0.7945806566
H 4.1591770081 0.0875173875 -0.6706686355
H 1.9071747287 1.0155063508 -0.1655324887
H 1.8230114305 0.0196769593 1.2888933139
H 2.0728972278 -2.0279449537 -0.1325735098
H 2.0451262835 -1.0129859105 -1.5731922248
H -0.2035484091 -1.2178261716 0.4745004040
H -0.1456633628 -2.0913062785 -1.0575060210
H 0.0164091441 0.1717905794 -2.2246762585
H -0.3792580774 0.9202438271 -0.6812895114
H -2.3565044349 0.6507388933 -2.1318214862
H -2.0819412495 -1.0887411151 -2.2137737501
H -3.8833682238 -0.6148964311 -0.6793261665
H -2.5278183074 -1.2883076017 0.2172598392
H -1.9078752756 0.9573777434 1.0264091419
H -3.1582289166 1.6889292745 0.0189980188
H -3.9113226560 1.4735381398 2.3803581030
H -4.9083029060 0.4780670100 1.3180616681
H -3.6582517594 -0.2714525683 2.3102676490
32
CONF53
C 4.3266802489 1.2028098554 1.1428540481
C 3.7639423211 0.0342252660 0.3423343746
C 2.2385018655 0.0705537417 0.2745402828
C 1.6793575659 -1.0926060483 -0.5421617320
C 0.1513127672 -1.1527166130 -0.5486746794
C -0.4930849536 0.0391683162 -1.2557982261
C -1.9740575733 -0.1787161204 -1.5725434778
C -2.8682095219 -0.4051566033 -0.3523400336
C -2.9162267748 0.7877363706 0.6001385383
C -3.9337814921 0.5729592240 1.7147710547
H 3.9476987519 1.1833595418 2.1622430487
H 4.0390601030 2.1485694859 0.6890188006
H 5.4122987480 1.1546300985 1.1785577026
H 4.0824251554 -0.9055452595 0.7995524219
H 4.1687659090 0.0611434741 -0.6720194443
H 1.9264219154 1.0167152470 -0.1708594112
H 1.8321151602 0.0283135535 1.2880379483
H 2.0636165138 -2.0279624999 -0.1269646608
H 2.0416599396 -1.0168296316 -1.5703806390
H -0.2044489458 -1.2082053816 0.4816436948
H -0.1564589302 -2.0697937626 -1.0574424280
H 0.0316503422 0.2122921528 -2.1989498270
H -0.3796882268 0.9373050113 -0.6484198611
H -2.3431709497 0.6924047969 -2.1199494680
H -2.0659720890 -1.0448985397 -2.2328862915
H -3.8820893709 -0.6076567995 -0.7075845347
H -2.5324444883 -1.2896276567 0.1915791656
H -1.9317960465 0.9466185802 1.0430744835
H -3.1785544048 1.6868981180 0.0376743224
H -4.9311385510 0.4411512055 1.3007514434
H -3.6840305141 -0.3148643936 2.2916755989
H -3.9512590558 1.4267719258 2.3878369260
32
CONF55
C 3.3183341360 1.0363775784 -1.6259700649
C 3.6535405306 -0.1669532715 -0.7515480410
C 2.4382838977 -0.7277894817 -0.0114608767
C 1.8854729141 0.2298807969 1.0427410535
C 0.8369574624 -0.4148532260 1.9513386731
C -0.4171209847 -0.9171506884 1.2332170346
C -1.1989015893 0.1882230873 0.5265761740
C -2.5159512653 -0.3278603560 -0.0487160159
C -3.2982744899 0.7675475323 -0.7699481817
C -4.6119124712 0.2460876977 -1.3404143596
H 2.5277608641 0.7851969363 -2.3298570227
H 4.1938382299 1.3478943018 -2.1908626429
H 2.9884420148 1.8769677055 -1.0214824352
H 4.4199839488 0.1147259419 -0.0257610607
H 4.0708209140 -0.9554235680 -1.3825716425
H 2.7278203330 -1.6601524010 0.4800834030
H 1.6612746218 -0.9632477243 -0.7407460378
H 1.4544980370 1.1063313383 0.5589043411
H 2.7118505213 0.5744883369 1.6700480896
H 0.5377572451 0.3162280290 2.7067298806
H 1.2962437067 -1.2581042976 2.4735840159
H -1.0683096376 -1.3858860999 1.9757179359
H -0.1444841299 -1.6875215879 0.5100063742
H -1.4057045782 0.9937640647 1.2354974130
H -0.5996337439 0.6047855571 -0.2848034955
H -2.3094215728 -1.1421799587 -0.7476116821
H -3.1290440174 -0.7352141998 0.7589536957
H -3.5037165540 1.5819138861 -0.0713868366
H -2.6870012607 1.1732390430 -1.5793862576
H -5.2439292808 -0.1432844846 -0.5453653037
H -5.1506174419 1.0412124147 -1.8500063129
H -4.4260474233 -0.5550403394 -2.0523570195
32
CONF88
C 4.3696379427 1.4410355476 0.3310576020
C 3.3645114354 0.5566862448 -0.3979857672
C 2.8518163378 -0.5683029215 0.4988586076
C 1.9553530985 -1.5714228606 -0.2294626026
C 0.6537608019 -0.9928049627 -0.7876052306
C -0.2902645771 -0.4637800541 0.2901480088
C -1.6297978079 -0.0239074614 -0.2971192212
C -2.5795258971 0.4966898145 0.7801075868
C -3.8901915173 1.0499420885 0.2188000165
C -4.7779546861 -0.0215203503 -0.4045678496
H 5.2294361656 0.8571473873 0.6523497811
H 3.9135657379 1.8893427414 1.2111093061
H 4.7197865069 2.2392115058 -0.3189733392
H 3.8368780915 0.1237727028 -1.2829477098
H 2.5283164066 1.1720614429 -0.7333957721
H 2.3152242723 -0.1395743725 1.3469784677
H 3.7111301032 -1.1118614851 0.9004646816
H 1.7079841893 -2.3802653990 0.4626849311
H 2.5217226841 -2.0078251012 -1.0562460066
H 0.1418811926 -1.7841768128 -1.3414629417
H 0.8777907375 -0.1947305752 -1.4973006161
H 0.1683258995 0.3851788011 0.8001377012
H -0.4620635414 -1.2457258280 1.0339619756
H -1.4579773951 0.7626431783 -1.0361984267
H -2.0855793343 -0.8708165703 -0.8128702258
H -2.8015038405 -0.3083024013 1.4847616317
H -2.0755101964 1.2912760161 1.3362710316
H -4.4391290404 1.5322331332 1.0310368960
H -3.6663652344 1.8150167915 -0.5280595742
H -5.7267098415 0.4096634684 -0.7153782661
H -4.3037950157 -0.4611418705 -1.2778570288
H -4.9792765566 -0.8126046603 0.3143452005
32
CONF100
C 4.2328052855 0.9739401285 0.5352629586
C 3.4340828316 -0.1875275414 1.1160500722
C 2.9275323912 -1.1639112062 0.0525198483
C 1.9353681048 -0.5698187890 -0.9490686097
C 0.6257264025 -0.1126485835 -0.3095376321
C -0.3851215294 0.3357823318 -1.3635068702
C -1.6689703961 0.9150766587 -0.7677529718
C -2.5235689830 -0.1214922384 -0.0409514425
C -3.8478766600 0.4688743330 0.4390310926
C -4.6985518453 -0.5632772315 1.1699686218
H 5.0524946537 0.6027473934 -0.0760552096
H 4.6488507369 1.5818491501 1.3352593506
H 3.6042453869 1.6111336896 -0.0809266134
H 2.5923521835 0.2005982969 1.6915186005
H 4.0724775603 -0.7423968576 1.8079923209
H 2.4510305916 -2.0089866952 0.5560055393
H 3.7868824709 -1.5523572577 -0.4999747856
H 1.7093619730 -1.3342117185 -1.6970970144
H 2.3963033192 0.2687351884 -1.4734932354
H 0.8161457695 0.7191397651 0.3708480042
H 0.2109171646 -0.9364938640 0.2738889490
H -0.6369933269 -0.5105161369 -2.0071030081
H 0.0821668139 1.0984554948 -1.9917705973
H -1.4138289240 1.7216766194 -0.0762515962
H -2.2623233243 1.3507525878 -1.5757279843
H -2.7258772387 -0.9573749418 -0.7149548106
H -1.9785229127 -0.5121960287 0.8199098016
H -3.6455792267 1.3104342816 1.1056839938
H -4.4032386704 0.8540775504 -0.4194183028
H -4.1705352665 -0.9432055680 2.0418851598
H -5.6356811590 -0.1220231699 1.5006433340
H -4.9251429725 -1.4018908804 0.5151476558
32
CONF101
C 4.2301173701 0.9637461163 -0.5371134193
C 3.4395482920 -0.2065597490 -1.1113282827
C 2.9232969799 -1.1700804122 -0.0408028420
C 1.9316631370 -0.5611049414 0.9522781847
C 0.6289168771 -0.0953985698 0.3048089927
C -0.3829133889 0.3636079520 1.3532605851
C -1.6691890570 0.9315002053 0.7516843545
C -2.5211464126 -0.1179069259 0.0404698645
C -3.8509713362 0.4585274556 -0.4410892662
C -4.6977815163 -0.5883616638 -1.1554224593
H 4.6638376736 1.5552625199 -1.3400518879
H 5.0364163295 0.6021863692 0.0974626191
H 3.5912463696 1.6142196154 0.0541097121
H 4.0860675340 -0.7696570809 -1.7889556948
H 2.6034540025 0.1725629076 -1.7008886437
H 3.7783150931 -1.5584608592 0.5184369510
H 2.4436459072 -2.0168530261 -0.5383836458
H 2.3980006254 0.2757614345 1.4746809371
H 1.6949838063 -1.3196262291 1.7030735635
H 0.2103644032 -0.9178302642 -0.2779222944
H 0.8289424997 0.7327397475 -0.3773095506
H 0.0826873809 1.1350252458 1.9720313893
H -0.6321009546 -0.4755609909 2.0072270908
H -2.2626779162 1.3757521770 1.5548847477
H -1.4178482268 1.7296805652 0.0491330635
H -1.9775397481 -0.5157297670 -0.8181131968
H -2.7158394247 -0.9470368602 0.7250584806
H -4.4051639014 0.8509269762 0.4148087782
H -3.6566920204 1.2928827027 -1.1190313563
H -4.1712700075 -0.9749771031 -2.0252676418
H -4.9149582775 -1.4206716279 -0.4894943272
H -5.6397400753 -0.1580617464 -1.4867310297
32
CONF79
C 4.7701946734 0.0200165851 -0.3872724643
C 3.8779049730 -1.0547325561 0.2238968757
C 2.5634773532 -0.5042224274 0.7790347675
C 1.6248206671 0.0300686196 -0.3010382707
C 0.2791743755 0.4617157712 0.2783574408
C -0.6552605671 1.0020860026 -0.8020294671
C -1.9592448227 1.5804929069 -0.2490930984
C -2.8494031848 0.5810596829 0.4918217917
C -3.3389931213 -0.5689918811 -0.3858930494
C -4.3414557347 -1.4492466960 0.3517489999
H 4.9630734909 0.8092437105 0.3360223379
H 4.3042303150 0.4615698583 -1.2640191157
H 5.7226699247 -0.4087590226 -0.6897539073
H 4.4207766260 -1.5418688775 1.0373798198
H 3.6592190186 -1.8154714358 -0.5289230080
H 2.7807673857 0.2926380499 1.4942604195
H 2.0526172252 -1.3035107960 1.3220472981
H 1.4608687921 -0.7467424864 -1.0520770572
H 2.0855491810 0.8837904154 -0.8007828919
H 0.4427863209 1.2347925312 1.0331465575
H -0.1832023868 -0.3939421800 0.7734188201
H -0.8769228119 0.2099898388 -1.5191868564
H -0.1373501680 1.7959614544 -1.3465877452
H -1.7157722497 2.3983018182 0.4338106735
H -2.5281621216 2.0045391855 -1.0804539187
H -2.3146696523 0.1770154799 1.3530921551
H -3.7190180727 1.1215163051 0.8748898851
H -3.8065584707 -0.1612494074 -1.2852119072
H -2.4918072884 -1.1813533020 -0.6985044600
H -5.2141097060 -0.8703075089 0.6460959827
H -4.6706657966 -2.2689279445 -0.2822594430
H -3.8912882033 -1.8680092925 1.2491552673
32
CONF94
C 4.2042889957 0.9703656510 -0.5754813601
C 3.4239994043 -0.2225137292 -1.1161322303
C 2.9277175048 -1.1667655303 -0.0193655116
C 1.9379465786 -0.5465256343 0.9686125066
C 0.6296194033 -0.0981929575 0.3201186075
C -0.3849431605 0.3584226138 1.3670980385
C -1.6695238801 0.9275440288 0.7631656215
C -2.5143734951 -0.1184424173 0.0385492638
C -3.8417432980 0.4585638532 -0.4488618635
C -4.6808887356 -0.5851496683 -1.1767274451
H 5.0205086553 0.6336620365 0.0599987655
H 3.5620056649 1.6258916197 0.0063766453
H 4.6235633318 1.5487560847 -1.3954535628
H 4.0722567374 -0.7934356175 -1.7855260324
H 2.5787396852 0.1325056558 -1.7076339609
H 3.7916052549 -1.5332054249 0.5409873326
H 2.4531791514 -2.0296686151 -0.4935127045
H 2.4025473831 0.3012483852 1.4747419616
H 1.7092403171 -1.2938683400 1.7329856061
H 0.2179445739 -0.9288675567 -0.2557888583
H 0.8205389104 0.7268616665 -0.3683297360
H 0.0787183128 1.1285831054 1.9888336613
H -0.6356946069 -0.4822595936 2.0184844174
H -2.2686166918 1.3638997323 1.5665710441
H -1.4164648833 1.7319518530 0.0683301946
H -1.9636370296 -0.5089619784 -0.8188605719
H -2.7123239328 -0.9527616714 0.7158549859
H -4.4032431100 0.8440220427 0.4053243231
H -3.6440510295 1.2977487154 -1.1196824812
H -5.6204502212 -0.1542847377 -1.5138536508
H -4.1461487137 -0.9659634298 -2.0439421924
H -4.9027407290 -1.4214152837 -0.5175544174
32
CONF99
C 4.2164765208 1.2005549537 -0.4675538759
C 3.7781512371 0.4404921690 0.7791895833
C 3.2442311994 -0.9609672023 0.4763149216
C 1.9916940508 -1.0002055999 -0.4011750231
C 0.7790466109 -0.3252364163 0.2361921134
C -0.4815060271 -0.5138556786 -0.6051393036
C -1.6956802821 0.1722606615 0.0170929608
C -2.9540686709 -0.0272291419 -0.8252995532
C -4.1700353224 0.7306664226 -0.2904382485
C -4.6772256108 0.1900231058 1.0419224808
H 3.3674615350 1.4217845506 -1.1087136877
H 4.9353758994 0.6147802596 -1.0363332006
H 4.6840711916 2.1421455822 -0.1892073089
H 3.0194146682 1.0174893154 1.3100228549
H 4.6355808668 0.3376051733 1.4488512824
H 3.0229624885 -1.4594701028 1.4234516874
H 4.0317333656 -1.5331754777 -0.0206343855
H 1.7461676743 -2.0476884481 -0.5947899392
H 2.2008118151 -0.5340860770 -1.3653190620
H 0.9681316748 0.7433009836 0.3524007892
H 0.6148842250 -0.7446032722 1.2318697033
H -0.6877149804 -1.5814891354 -0.7137318449
H -0.3105709016 -0.1089370894 -1.6057581041
H -1.8536966376 -0.2302354299 1.0189772188
H -1.4946011055 1.2418903585 0.1154116712
H -2.7499204767 0.3141074558 -1.8433498514
H -3.1886551286 -1.0930713976 -0.8766862637
H -3.9148344712 1.7870149565 -0.1798369696
H -4.9738988888 0.6606851683 -1.0270474147
H -4.8999977598 -0.8715478972 0.9601477077
H -3.9376141869 0.3280775841 1.8259126739
H -5.5855109403 0.7096100417 1.3378560103
32
CONF54
C 5.0658685592 -0.7519398973 -0.2254742355
C 3.5637756795 -1.0094030584 -0.2009288819
C 2.7752934857 0.2567834996 0.1262643205
C 1.2685750119 0.0093240969 0.1492287601
C 0.4903520794 1.2802607942 0.4844337255
C -1.0155906334 1.0514834135 0.6207069615
C -1.6865460329 0.6742230145 -0.6990801043
C -3.2145073511 0.6999197342 -0.6264474720
C -3.8283014554 -0.2925255063 0.3631593113
C -3.5251018105 -1.7474511409 0.0234786684
H 5.6074393252 -1.6658820383 -0.4567676092
H 5.4048870089 -0.3861296642 0.7412214877
H 5.3116055828 -0.0061914590 -0.9782803676
H 3.3389906616 -1.7757865975 0.5444576160
H 3.2449976017 -1.3910221342 -1.1736285477
H 3.0025310209 1.0244987194 -0.6173639719
H 3.0941366392 0.6369663947 1.0999271724
H 1.0410616250 -0.7588854769 0.8924773987
H 0.9567594703 -0.3682031766 -0.8260840420
H 0.6738761692 2.0299582445 -0.2889886770
H 0.8689010131 1.6819211822 1.4278534926
H -1.4745774676 1.9698086713 0.9959048019
H -1.1867170722 0.2678371526 1.3608069571
H -1.3717477160 1.3856665613 -1.4669800138
H -1.3553547881 -0.3150836215 -1.0144654227
H -3.5357831433 1.7076180887 -0.3504916282
H -3.6117603063 0.4892705692 -1.6226907006
H -3.4751956195 -0.0725011190 1.3717586539
H -4.9115262412 -0.1479923176 0.3589653325
H -2.4638334722 -1.9587567150 0.1233599684
H -4.0663482089 -2.4110242108 0.6938978241
H -3.8269808189 -1.9699959952 -0.9977068656
32
CONF102
C 4.6619356479 -0.2056872117 1.0526754865
C 4.1666142196 -0.7296836692 -0.2906967154
C 2.9536755413 0.0329039819 -0.8256588546
C 1.6933001887 -0.1665383216 0.0137600215
C 0.4793023388 0.5165205297 -0.6121681279
C -0.7805003699 0.3315538622 0.2310435868
C -1.9940029560 1.0042973056 -0.4068277456
C -3.2459413994 0.9643631461 0.4714864840
C -3.7720877386 -0.4379499893 0.7841620839
C -4.1938733683 -1.2140826944 -0.4583077598
H 5.5718637874 -0.7236353845 1.3464392548
H 3.9184915223 -0.3606846696 1.8297486121
H 4.8779576319 0.8583552618 0.9884065789
H 3.9124213255 -1.7877915090 -0.1957472604
H 4.9760655534 -0.6488227165 -1.0200284484
H 2.7511285023 -0.3045936485 -1.8453220254
H 3.1907454973 1.0984035525 -0.8728719217
H 1.8484215238 0.2384812852 1.0151184008
H 1.4934409648 -1.2362901096 0.1139716128
H 0.3081674944 0.1064808658 -1.6106346332
H 0.6853150377 1.5836080992 -0.7261721665
H -0.6150094543 0.7543964402 1.2250104418
H -0.9696757866 -0.7364878445 0.3512782750
H -1.7500688377 2.0518395095 -0.6019706291
H -2.2030793427 0.5366114067 -1.3702020552
H -3.0271245778 1.4703662677 1.4152565689
H -4.0366561998 1.5290114573 -0.0290622272
H -3.0137324200 -1.0037389901 1.3274609004
H -4.6359049226 -0.3344554455 1.4454854877
H -3.3374400995 -1.4364228044 -1.0890827383
H -4.6577304279 -2.1557793529 -0.1742247511
H -4.9112875067 -0.6392583966 -1.0398487100
32
CONF83
C 4.1928453041 0.1922667353 -1.5298402561
C 4.0631500802 -0.4206304988 -0.1396910786
C 2.6336959323 -0.8441758902 0.2013083493
C 1.6727366044 0.3325620241 0.3588626192
C 0.2782303564 -0.1265433493 0.7797889607
C -0.6868187163 1.0487319505 0.9197302179
C -2.0624361805 0.6491283680 1.4571153512
C -2.8463145484 -0.3228015042 0.5731465209
C -3.1744128028 0.2367242515 -0.8095934801
C -4.0776006179 -0.7067421347 -1.5956965641
H 5.2364281983 0.4001923591 -1.7538180121
H 3.6399123405 1.1251729235 -1.5981464187
H 3.8097501089 -0.4924187432 -2.2833010537
H 4.4137050090 0.2955373248 0.6069160170
H 4.7085792577 -1.3002922223 -0.0819624866
H 2.6502984350 -1.4086334439 1.1371341210
H 2.2615989614 -1.5121615269 -0.5791962608
H 1.5950079532 0.8750485767 -0.5848363789
H 2.0686420832 1.0227870048 1.1079497389
H 0.3429729229 -0.6556832780 1.7337983229
H -0.0997758981 -0.8288114427 0.0349525146
H -0.7975222515 1.5442321406 -0.0462710222
H -0.2521657144 1.7772892433 1.6091662613
H -1.9332299789 0.1926644183 2.4417013754
H -2.6571695322 1.5563661450 1.5906475551
H -2.2892217535 -1.2547950222 0.4636399762
H -3.7829641012 -0.5636040475 1.0827749652
H -3.6691605206 1.2044265133 -0.6980564676
H -2.2529989185 0.3957477639 -1.3718311378
H -5.0189587048 -0.8590464040 -1.0721984564
H -4.2938288156 -0.2984871097 -2.5800134929
H -3.5973797497 -1.6745679282 -1.7227307006
32
CONF108
C 4.2673437633 1.1421099755 -0.5283721951
C 3.7898036564 0.4689918603 0.7535116280
C 3.2340008278 -0.9381890415 0.5258380250
C 1.9839846423 -1.0050461471 -0.3535918284
C 0.7715785512 -0.3052746668 0.2568756202
C -0.4841051908 -0.5052884440 -0.5890660734
C -1.7026388232 0.1856588086 0.0191031155
C -2.9530601429 -0.0119986219 -0.8353818124
C -4.1793569270 0.7274622613 -0.2982038350
C -4.6984493377 0.1547615600 1.0160735596
H 4.9885282689 0.5106779912 -1.0428412413
H 4.7444023316 2.0921716610 -0.2993284803
H 3.4362975905 1.3353472006 -1.2013491468
H 3.0328762822 1.0919660530 1.2323993050
H 4.6321751516 0.3915926545 1.4453581506
H 3.0008100625 -1.3806416478 1.4976241893
H 4.0142692275 -1.5490467311 0.0648233407
H 1.7356213493 -2.0578900531 -0.5109534492
H 2.1967739236 -0.5736227354 -1.3328982618
H 0.9676927577 0.7643644991 0.3485767173
H 0.5967210411 -0.6988746306 1.2612369972
H -0.6883053454 -1.5744282179 -0.6863470271
H -0.3084186600 -0.1117563498 -1.5933897751
H -1.8717812318 -0.2144860855 1.0201044165
H -1.4998347063 1.2549549102 0.1175339805
H -2.7442350751 0.3456218510 -1.8468438748
H -3.1783589192 -1.0788806058 -0.9038338458
H -3.9316156514 1.7825234177 -0.1617777140
H -4.9745921473 0.6689854367 -1.0450707741
H -3.9692677851 0.2806173131 1.8118226633
H -5.6138010215 0.6616002335 1.3123152655
H -4.9127501250 -0.9062645615 0.9086426159
32
CONF119
C 4.6637850608 -0.1104835298 0.7422248442
C 3.3380471093 -0.8306843439 0.9634704310
C 2.3293006748 -0.6055556808 -0.1646932463
C 1.7808147722 0.8194483529 -0.2027040304
C 0.8331243391 1.0724591015 -1.3771126692
C -0.4471421665 0.2347328260 -1.3756720502
C -1.3389113896 0.4853379689 -0.1614246784
C -2.6733993920 -0.2478462671 -0.2779182780
C -3.5682916479 -0.0133350833 0.9370995379
C -4.9002889519 -0.7433864964 0.8109512048
H 5.3671908416 -0.3664741480 1.5311161979
H 4.5298850285 0.9680168027 0.7462401608
H 5.0979015911 -0.4003208529 -0.2122749024
H 2.8993885714 -0.5019044840 1.9084702948
H 3.5330387271 -1.9027035579 1.0457994980
H 1.5016957682 -1.3037645862 -0.0275457242
H 2.8035064025 -0.8355197527 -1.1218858974
H 2.6122762450 1.5210970311 -0.2915623215
H 1.2703715266 1.0355450441 0.7374527269
H 1.3719775903 0.8767803820 -2.3076474204
H 0.5559633250 2.1297286474 -1.3740116344
H -0.1968282124 -0.8261269794 -1.4288771980
H -1.0114889886 0.4791291841 -2.2794711417
H -0.8316865713 0.1520193352 0.7456202820
H -1.5238205807 1.5580798995 -0.0648627540
H -3.1938743825 0.0888598138 -1.1778817540
H -2.4876607845 -1.3192452601 -0.3866542042
H -3.0510693784 -0.3549590293 1.8366655236
H -3.7506500559 1.0580784933 1.0478132403
H -5.5202916186 -0.5631133478 1.6857090797
H -5.4395376835 -0.4012600107 -0.0695979653
H -4.7393316325 -1.8151391026 0.7179383325
32
CONF74
C 4.6499523749 1.1833615911 -0.4622646845
C 3.4553470738 0.4910286582 0.1837615212
C 2.6812473077 -0.3545989987 -0.8258824920
C 1.5450148335 -1.1634337395 -0.1986622308
C 0.3952731076 -0.2999315428 0.3173203174
C -0.7509195113 -1.1569642635 0.8511114535
C -1.8595265624 -0.3435990609 1.5219108015
C -2.5981094513 0.6286505036 0.6002964395
C -3.3502421157 -0.0601293013 -0.5367044739
C -4.1995305593 0.9286822705 -1.3271871439
H 5.3390198074 0.4497038704 -0.8749314882
H 5.1851521896 1.7845568216 0.2687008270
H 4.3212210787 1.8347753958 -1.2689806803
H 2.7964470819 1.2463712207 0.6146847780
H 3.8040616004 -0.1506748544 0.9962155127
H 3.3778682060 -1.0469437375 -1.3054097504
H 2.2752355898 0.2953671936 -1.6046509506
H 1.9429025812 -1.7641281508 0.6229200933
H 1.1519676165 -1.8537189249 -0.9495051141
H 0.0372266870 0.3327174894 -0.4966586553
H 0.7519305549 0.3507267178 1.1176831115
H -0.3483615191 -1.8546320028 1.5902174732
H -1.1693271462 -1.7532251994 0.0384977911
H -2.5869419449 -1.0380463655 1.9499899474
H -1.4234472525 0.2253565163 2.3469425154
H -3.3172839484 1.1878108200 1.2046205920
H -1.8943767222 1.3512980556 0.1838140894
H -2.6400473593 -0.5382033668 -1.2131293165
H -3.9931401930 -0.8399719014 -0.1216895978
H -4.9397787687 1.3971092334 -0.6821315681
H -3.5749394256 1.7105999362 -1.7536850773
H -4.7200851535 0.4241412838 -2.1376238573
32
CONF72
C 4.5879746995 1.3271151665 -0.0702973414
C 3.4214636783 0.3943103257 -0.3753330143
C 2.6563274811 0.0182636923 0.8921362714
C 1.5408692689 -0.9999289219 0.6523933844
C 0.3839425955 -0.4495540446 -0.1798091850
C -0.7635454841 -1.4532200571 -0.2741083267
C -1.8845913366 -1.0124689277 -1.2174307595
C -2.5888904694 0.2872218441 -0.8234353941
C -3.2908105303 0.2150380895 0.5311007909
C -4.0967918438 1.4778599583 0.8129701714
H 4.2300080698 2.2443253884 0.3922928863
H 5.1193301009 1.5868493933 -0.9826432507
H 5.2887315183 0.8513468922 0.6124200140
H 3.7982597182 -0.5147268382 -0.8499084017
H 2.7485257953 0.8845776289 -1.0804905601
H 2.2309462781 0.9210368538 1.3370959546
H 3.3625882133 -0.4019795765 1.6126898604
H 1.1498952427 -1.3222980215 1.6209244911
H 1.9570053252 -1.8804431560 0.1569140099
H 0.7314292713 -0.2138145312 -1.1871819690
H 0.0295992649 0.4747899186 0.2794677882
H -1.1697723182 -1.6354446266 0.7223358502
H -0.3665617040 -2.4037219019 -0.6401884387
H -1.4686881381 -0.8892831058 -2.2206239261
H -2.6285385110 -1.8117959819 -1.2658989576
H -1.8710401916 1.1091809417 -0.8158826928
H -3.3337726152 0.5149207055 -1.5904757853
H -3.9561518454 -0.6514444176 0.5455415306
H -2.5520286505 0.0817366738 1.3228457218
H -4.5830809121 1.4128995730 1.7833948018
H -3.4482535395 2.3512862893 0.8112967768
H -4.8626382681 1.6201133085 0.0535271987
32
CONF105
C 3.2842405339 1.3484101899 -1.4533506219
C 3.7483096699 0.2917337531 -0.4567820160
C 2.6861007395 -0.7689679316 -0.1634347234
C 1.4850494444 -0.2260276428 0.6084944362
C 0.4857112679 -1.3316075817 0.9425639456
C -0.6609887192 -0.8653999878 1.8417423222
C -1.5428321731 0.2356636819 1.2494814295
C -2.2597564944 -0.1805840971 -0.0328874592
C -3.2321502067 0.8938450129 -0.5151421556
C -3.9482707399 0.4783881419 -1.7949685694
H 4.0988082244 2.0303810529 -1.6856404097
H 2.4605070180 1.9310737922 -1.0499864731
H 2.9553380124 0.8790425512 -2.3779304680
H 4.0389460022 0.7769674199 0.4777487833
H 4.6337629681 -0.2057233812 -0.8595430526
H 3.1450419047 -1.5707563086 0.4207791007
H 2.3430235240 -1.2040179602 -1.1052906290
H 0.9903277205 0.5409656212 0.0130812680
H 1.8323993599 0.2379282589 1.5349773715
H 1.0135048057 -2.1382431472 1.4582218784
H 0.0841972275 -1.7485925296 0.0174930570
H -0.2405290497 -0.5014387375 2.7826506372
H -1.2895648257 -1.7286196057 2.0746643112
H -2.2931239007 0.5073723900 1.9968202577
H -0.9426361446 1.1266018230 1.0568809383
H -1.5287189723 -0.3716786159 -0.8202774789
H -2.8079496921 -1.1089020507 0.1456819573
H -3.9702885831 1.0901027840 0.2660670514
H -2.6837158704 1.8222770622 -0.6910563274
H -3.2299364730 0.2949209184 -2.5909690564
H -4.5186130921 -0.4335421690 -1.6324780833
H -4.6319642221 1.2580831779 -2.1217268973
32
CONF90
C 4.7190962482 0.6104299779 0.8691391338
C 3.5239767328 -0.3356608139 0.8695023158
C 2.5029241649 0.0391553053 -0.2026543070
C 1.3078039751 -0.9118946631 -0.2124074616
C 0.3555921926 -0.6765963749 -1.3863562716
C -0.3542992073 0.6792986937 -1.3818937528
C -1.3046126162 0.9077220584 -0.2050887982
C -2.5057591714 -0.0357211879 -0.2055504537
C -3.5201385011 0.3287267728 0.8764648622
C -4.7242386159 -0.6058265275 0.8622684023
H 5.4350115611 0.3240860814 1.6356865273
H 4.3971609036 1.6311535098 1.0629456290
H 5.2209195800 0.5878896785 -0.0956729740
H 3.0425420096 -0.3128370080 1.8498564571
H 3.8708890335 -1.3570181560 0.6959230204
H 2.9875450165 0.0166239713 -1.1819265311
H 2.1626468342 1.0604745861 -0.0231851317
H 0.7661091082 -0.8246454388 0.7308566369
H 1.6799750595 -1.9377731349 -0.2778236028
H -0.3922043927 -1.4714978280 -1.3960627369
H 0.9261165130 -0.7574797281 -2.3152117258
H -0.9262062821 0.7657942703 -2.3093905381
H 0.3937526136 1.4739653423 -1.3881422183
H -0.7631462432 0.8065081333 0.7368951216
H -1.6704708347 1.9365353824 -0.2588642538
H -2.9940220287 0.0055258427 -1.1824313152
H -2.1714765481 -1.0619883695 -0.0437838074
H -3.0360592933 0.2832248645 1.8547547679
H -3.8578387621 1.3563811096 0.7228876812
H -5.4344604255 -0.3277926246 1.6371346646
H -5.2295203986 -0.5595431218 -0.0999441403
H -4.4113767435 -1.6332167455 1.0347219142
32
CONF75
C 4.2368642046 -0.9037479601 -1.3128378620
C 3.3716889058 0.0726114217 -0.5241252956
C 2.6069646434 -0.6312122273 0.5951796290
C 1.8531711112 0.3288053031 1.5173741318
C 0.7458573911 1.1402920811 0.8422095908
C -0.4001978616 0.2821517135 0.3100495304
C -1.5395481934 1.1449068909 -0.2296317460
C -2.6842497942 0.3331063359 -0.8373956098
C -3.4794984139 -0.4636975051 0.1953051492
C -4.6800979308 -1.1598278131 -0.4353031637
H 4.9694855211 -1.3762799661 -0.6621252462
H 4.7672114581 -0.3878889653 -2.1096940956
H 3.6220993803 -1.6833700817 -1.7573902221
H 2.6688990119 0.5543699612 -1.2056208721
H 4.0049566055 0.8510804602 -0.0920906969
H 3.3201462422 -1.1944042799 1.2028235688
H 1.9114761003 -1.3517294945 0.1615690287
H 2.5722954505 1.0243448739 1.9574969293
H 1.4129134711 -0.2490358362 2.3339468705
H 1.1657047549 1.7332469551 0.0279721389
H 0.3423463155 1.8409483867 1.5779503721
H -0.7681822070 -0.3545568771 1.1164737871
H -0.0384509019 -0.3647156276 -0.4910012142
H -1.9317741583 1.7709488639 0.5755915738
H -1.1375127790 1.8112590414 -0.9971266621
H -3.3661182926 1.0194192764 -1.3459237007
H -2.2834816909 -0.3500841457 -1.5899970632
H -2.8361848365 -1.2132700904 0.6586907031
H -3.8242481147 0.2122210899 0.9813073085
H -5.2329409175 -1.7223745164 0.3131378754
H -5.3519455939 -0.4308234734 -0.8831951176
H -4.3555699486 -1.8480426876 -1.2126417956
32
CONF120
C 4.8819381451 0.6941099743 -0.8784907328
C 3.5523678361 -0.0482331146 -0.9427240979
C 2.6667391873 0.2644360493 0.2614293411
C 1.3333468904 -0.4776013175 0.2037006740
C 0.4469219232 -0.1451988721 1.4020321984
C -0.8351835352 -0.9779140994 1.4632750202
C -1.7811656369 -0.8087653264 0.2724356887
C -2.3174173572 0.6134721529 0.1226924706
C -3.3152505438 0.7604829361 -1.0278488354
C -4.6490885434 0.0705026848 -0.7639574386
H 4.7167125103 1.7690164729 -0.8570893890
H 5.4949228884 0.4573373271 -1.7446764918
H 5.4305795715 0.4148387933 0.0182466813
H 3.7386349443 -1.1239290622 -0.9823025695
H 3.0257464908 0.2296109834 -1.8586387413
H 2.4789440763 1.3402823875 0.3002311151
H 3.1950076853 -0.0106270974 1.1776106324
H 1.5198493717 -1.5541152021 0.1804217745
H 0.8207659676 -0.2084685717 -0.7214287405
H 0.1988216015 0.9173853292 1.3854505231
H 1.0139775500 -0.3300345150 2.3181711861
H -1.3740636658 -0.7142650422 2.3768585072
H -0.5605107342 -2.0332951948 1.5367064496
H -1.2727008467 -1.1018917317 -0.6477526499
H -2.6184731858 -1.4943892876 0.4151853337
H -2.7966447535 0.9190509116 1.0559185988
H -1.4829256766 1.2926399424 -0.0603744598
H -3.4997951582 1.8246499513 -1.1934226001
H -2.8720339322 0.3568487667 -1.9411565856
H -5.0915281579 0.4410836353 0.1581147772
H -5.3413801286 0.2657137766 -1.5795816101
H -4.5238029165 -1.0054840545 -0.6776659119
32
CONF154
C 4.5980869730 0.8440565143 0.0181417743
C 3.4732646306 -0.1833701719 0.0735508295
C 2.2591711086 0.2688982829 -0.7351529816
C 1.1576465666 -0.7882975439 -0.8263409304
C 0.5335425041 -1.1907036494 0.5118943908
C -0.0958232569 -0.0430879519 1.3050683422
C -1.2030415005 0.7180363126 0.5739865939
C -2.4108973689 -0.1496933645 0.2275260842
C -3.5490187159 0.6730895602 -0.3726953549
C -4.7518409082 -0.1939744970 -0.7257112561
H 4.2608360115 1.7988455186 0.4158117365
H 4.9245141058 0.9980181331 -1.0081454913
H 5.4513000624 0.5100617268 0.6036727434
H 3.1861867344 -0.3399415640 1.1145616407
H 3.8328922133 -1.1368772855 -0.3205119767
H 2.5865933380 0.5066876307 -1.7508698408
H 1.8579502646 1.1865050129 -0.3014958930
H 1.5745282160 -1.6871669714 -1.2884380024
H 0.3743869183 -0.4178632506 -1.4904402153
H 1.2975879456 -1.6573944632 1.1368563583
H -0.2263348881 -1.9504095942 0.3182322077
H 0.6836706225 0.6660304757 1.5901250178
H -0.5088319423 -0.4573990676 2.2285767384
H -1.5348831283 1.5367988903 1.2182169063
H -0.8055486293 1.1657895181 -0.3384402243
H -2.1195707110 -0.9214506491 -0.4870834598
H -2.7665659369 -0.6500381475 1.1316627748
H -3.8535640471 1.4425085097 0.3406971177
H -3.1908329491 1.1802558723 -1.2716767630
H -5.1333539896 -0.6942578473 0.1616522403
H -5.5496168179 0.4115174085 -1.1489222555
H -4.4735017227 -0.9534070634 -1.4530718651
32
CONF85
C 4.9656909152 -0.1757689768 0.9594093021
C 3.4797780883 -0.4215848736 0.7241774051
C 3.0612594697 -0.0248065939 -0.6903444412
C 1.6029659688 -0.3549025226 -1.0108801674
C 0.6009637055 0.4850874516 -0.2210950188
C -0.8374424008 0.2045883713 -0.6514672609
C -1.8407761936 1.0296740438 0.1516335029
C -3.2811784551 0.8922243521 -0.3450851794
C -3.8672094550 -0.5176623360 -0.2468232225
C -3.9538719709 -1.0353677227 1.1844673548
H 5.2035251139 0.8763520279 0.8190073831
H 5.5638431878 -0.7572428707 0.2612004401
H 5.2453813396 -0.4594458103 1.9711064021
H 2.9045381681 0.1511964800 1.4531364797
H 3.2580967019 -1.4798602714 0.8804227461
H 3.7018078102 -0.5512217824 -1.4024511697
H 3.2269557475 1.0463416921 -0.8281549943
H 1.4218209477 -1.4141116687 -0.8129021980
H 1.4338623769 -0.1861931496 -2.0774219048
H 0.8230118758 1.5445930672 -0.3704368336
H 0.6988790020 0.2720402199 0.8448286181
H -1.0426423409 -0.8591415860 -0.5195366375
H -0.9489442212 0.4357872720 -1.7137810440
H -1.7838698132 0.7462521356 1.2037913304
H -1.5585883758 2.0836624794 0.0846565330
H -3.9121188942 1.5724121565 0.2327010001
H -3.3224146680 1.2121871855 -1.3893249354
H -4.8722820623 -0.4959829950 -0.6753260389
H -3.2728636982 -1.2069290292 -0.8485893431
H -2.9637226327 -1.1769829457 1.6091869151
H -4.5007949564 -0.3331725291 1.8099648504
H -4.4714417562 -1.9915397915 1.2078755604
32
CONF71
C 4.6150432539 1.2330178815 -0.4220221126
C 3.4368276939 0.4937700331 0.2017580856
C 2.6641190214 -0.3129969107 -0.8401468566
C 1.5407687056 -1.1619324186 -0.2435415581
C 0.3872065464 -0.3346475548 0.3210412944
C -0.7581611645 -1.2254628436 0.7981471575
C -1.8739239915 -0.4568120468 1.5087806361
C -2.5931239234 0.5838134589 0.6484534467
C -3.3153371023 -0.0137511976 -0.5573527948
C -4.1367525312 1.0369116867 -1.2957875994
H 5.3082974899 0.5298594552 -0.8785177356
H 5.1513064959 1.8040803740 0.3319767632
H 4.2686862046 1.9194010493 -1.1915532598
H 2.7720743943 1.2181689893 0.6747789138
H 3.8025718733 -0.1812237075 0.9789852458
H 3.3643365596 -0.9747867044 -1.3562161033
H 2.2453816207 0.3678362900 -1.5851373288
H 1.9502742070 -1.7978872546 0.5450786682
H 1.1481882926 -1.8187118955 -1.0241152935
H 0.0292376204 0.3445307720 -0.4545524999
H 0.7396616491 0.2677842022 1.1600937835
H -0.3572712969 -1.9641361517 1.4972256110
H -1.1699760511 -1.7743655071 -0.0504791644
H -2.6106386430 -1.1768962561 1.8739524363
H -1.4491154077 0.0490260077 2.3795203189
H -3.3279536733 1.0936080135 1.2771127154
H -1.8813272752 1.3373563109 0.3071997833
H -2.5880640405 -0.4446225460 -1.2471682493
H -3.9732571236 -0.8181418128 -0.2201015778
H -4.6375470045 0.5972901982 -2.1550168344
H -4.8917561804 1.4628296430 -0.6385177762
H -3.4958792638 1.8429353759 -1.6465833526
32
CONF86
C 3.9377307089 0.9994378792 1.2300859047
C 3.8615746676 0.5352093858 -0.2200498738
C 3.2836277560 -0.8729985978 -0.3750904750
C 1.8418299045 -1.0371276229 0.1092439488
C 0.8365999948 -0.1929417053 -0.6712471867
C -0.6007572058 -0.4887192186 -0.2476251730
C -1.6054870361 0.3725091770 -1.0105283857
C -3.0625094336 0.0398686023 -0.6864847648
C -3.4689495013 0.4067844549 0.7395965072
C -4.9536005759 0.1598526983 0.9811466824
H 2.9445798092 1.1185650761 1.6546553966
H 4.4487326349 1.9574277730 1.2921305200
H 4.4862414054 0.2777692572 1.8315725730
H 4.8691112806 0.5349511936 -0.6432201869
H 3.2669347921 1.2436287470 -0.7987908056
H 3.9156788892 -1.5711359498 0.1795712336
H 3.3316198147 -1.1528178585 -1.4305339443
H 1.7777231447 -0.7887674250 1.1698135266
H 1.5673600947 -2.0902737389 0.0063598158
H 0.9484636599 -0.3947550063 -1.7394886620
H 1.0392271709 0.8672947976 -0.5103471409
H -0.6972760365 -0.3071950323 0.8242354675
H -0.8212881002 -1.5437715797 -0.4275722519
H -1.4192568066 1.4262483459 -0.7893811413
H -1.4448737860 0.2280642537 -2.0819275819
H -3.7066069549 0.5838929537 -1.3819485631
H -3.2328203546 -1.0274336660 -0.8464017676
H -2.8897648820 -0.1831966946 1.4515183594
H -3.2431519246 1.4608061973 0.9170674325
H -5.1956730533 -0.8881650870 0.8187130945
H -5.2239976743 0.4210461164 2.0013770137
H -5.5558495210 0.7588211366 0.3014807081
32
CONF97
C 3.9653408778 0.8811535922 -1.3182369856
C 3.8601315767 0.5683115687 0.1701682060
C 3.2845353348 -0.8201007562 0.4566791460
C 1.8463119161 -1.0344324782 -0.0187219550
C 0.8308131160 -0.1416068505 0.6912169390
C -0.6023836213 -0.4745703062 0.2811248625
C -1.6166150494 0.4214669958 0.9894192301
C -3.0701378680 0.0648735587 0.6752311942
C -3.4728367488 0.3635774816 -0.7677370937
C -4.9568335303 0.1048420640 -1.0012426855
H 2.9811703327 0.9481031343 -1.7740245601
H 4.5309552599 0.1055998271 -1.8301696436
H 4.4722575002 1.8315756374 -1.4680557936
H 3.2509373558 1.3290898459 0.6605225090
H 4.8586350360 0.6174763429 0.6114876340
H 3.3256429629 -0.9969714011 1.5344392400
H 3.9224891689 -1.5661825352 -0.0238475435
H 1.5803655160 -2.0787171795 0.1648625067
H 1.7842696959 -0.8696812752 -1.0955192547
H 1.0293181033 0.9054620833 0.4560889983
H 0.9360277815 -0.2654549307 1.7719692120
H -0.8146182549 -1.5189296515 0.5228447581
H -0.6969650997 -0.3578917786 -0.7998792110
H -1.4620000071 0.3361356263 2.0680150210
H -1.4340353951 1.4626142857 0.7126164091
H -3.2349290550 -0.9948477730 0.8838365735
H -3.7203492765 0.6366295343 1.3421967046
H -3.2472538839 1.4082966465 -0.9939340283
H -2.8912408703 -0.2586560086 -1.4496434518
H -5.1981384723 -0.9358954883 -0.7964681911
H -5.5605961961 0.7305131326 -0.3473876603
H -5.2261734048 0.3240257029 -2.0316321469
32
CONF76
C 4.2449906090 -1.1312280848 1.1169905388
C 3.3762564025 -0.0250248722 0.5292041011
C 2.6118946849 -0.5050719742 -0.7030516851
C 1.8547711726 0.6108758036 -1.4253731531
C 0.7449834081 1.2750631159 -0.6082052161
C -0.4016610741 0.3297589048 -0.2551234498
C -1.5361967368 1.0692133633 0.4518389814
C -2.6829073427 0.1555490756 0.8865932944
C -3.4888882681 -0.4071451690 -0.2828333911
C -4.6920860534 -1.2096096040 0.1989524965
H 4.7760468142 -0.7745286887 1.9962438707
H 4.9771254326 -1.4701570522 0.3872237878
H 3.6327035918 -1.9823818873 1.4068005056
H 4.0069503405 0.8232360678 0.2528019352
H 2.6731323447 0.3161984112 1.2905559589
H 1.9187110892 -1.2967584225 -0.4139033642
H 3.3257558519 -0.9405695262 -1.4071850041
H 1.4164674702 0.1983582483 -2.3376305572
H 2.5716976652 1.3799739927 -1.7239328792
H 0.3423956012 2.1051359935 -1.1946723020
H 1.1625547037 1.6987349169 0.3066736896
H -0.0390739169 -0.4657478147 0.3980790505
H -0.7744203136 -0.1311048458 -1.1715383226
H -1.1292339777 1.5647370128 1.3370163305
H -1.9277691293 1.8469097485 -0.2084641547
H -2.2826584533 -0.6701067523 1.4797617891
H -3.3577057918 0.7259318891 1.5299294613
H -3.8320082035 0.4179394834 -0.9113320508
H -2.8535264596 -1.0499121076 -0.8940814204
H -5.3565197690 -0.5830188132 0.7900273074
H -5.2523121152 -1.6037681143 -0.6454432589
H -4.3696039223 -2.0441676140 0.8175927728
32
CONF214
C 2.9950296126 -1.0809719953 -1.6150486819
C 3.0356038356 -1.1358178878 -0.0920719268
C 3.0594382462 0.2466481033 0.5632394277
C 1.8356650262 1.1195693919 0.2784768842
C 0.5292739895 0.5268465937 0.8025569870
C -0.6391934471 1.4920496760 0.6139120515
C -1.9482248313 0.9932007683 1.2292136790
C -2.4914084384 -0.3073064827 0.6339865707
C -2.8325503266 -0.2047057883 -0.8512162286
C -3.5091202306 -1.4725387740 -1.3599161830
H 2.0589395583 -0.6548164175 -1.9658031897
H 3.0871169196 -2.0819005467 -2.0303125039
H 3.8142124996 -0.4744538640 -1.9952255527
H 3.9365296864 -1.6713364745 0.2175060858
H 2.1793096376 -1.7036025887 0.2751737106
H 3.9501114744 0.7789607877 0.2197537729
H 3.1511521015 0.1155253105 1.6444662720
H 1.7486725264 1.2952700822 -0.7950692518
H 1.9954940954 2.0915425860 0.7528493835
H 0.6381767582 0.2953790535 1.8651094149
H 0.3177514873 -0.4034933205 0.2757406955
H -0.7815350557 1.6853922397 -0.4507792475
H -0.3859612198 2.4459395340 1.0843320902
H -1.7952737521 0.8447887448 2.3011926756
H -2.7043987370 1.7733876252 1.1099766288
H -1.7712166837 -1.1132147797 0.7852117178
H -3.3981623756 -0.5771842267 1.1817619393
H -3.4951375556 0.6494192872 -1.0097812524
H -1.9226590513 -0.0325147711 -1.4282443620
H -3.7382408174 -1.3857672213 -2.4193228737
H -2.8593301396 -2.3334285018 -1.2180852527
H -4.4368430307 -1.6528616524 -0.8211527708
32
CONF124
C 4.8378023099 0.3003122251 -0.9801606060
C 3.6624008273 -0.1141474046 -0.1023818717
C 2.4313132762 0.7506142984 -0.3675444747
C 1.2539471338 0.4440901680 0.5599273412
C 0.6009106834 -0.9070306973 0.2752807359
C -0.5336663100 -1.2475295736 1.2440887390
C -1.7288232064 -0.2927926534 1.2116408035
C -2.4353527978 -0.2459597887 -0.1413758667
C -3.7096631546 0.5942215385 -0.0885435406
C -4.4087527790 0.6513908043 -1.4417969939
H 5.7037257768 -0.3266088270 -0.7816551884
H 5.1113181412 1.3355649487 -0.7879242469
H 4.5783324660 0.2053420923 -2.0322923919
H 3.9450826335 -0.0228567416 0.9489487080
H 3.4278398798 -1.1623655306 -0.2942512084
H 2.1156777127 0.6201721296 -1.4055115978
H 2.7122876935 1.7990383208 -0.2386641130
H 0.5095951534 1.2328095047 0.4377038345
H 1.5965184627 0.4682595062 1.5973116133
H 1.3536410730 -1.6933633899 0.3575242207
H 0.2273311669 -0.9189568433 -0.7500215430
H -0.1313796803 -1.2622389919 2.2602007310
H -0.8888173947 -2.2558787703 1.0167250414
H -2.4452639956 -0.6225700308 1.9687265270
H -1.4080852778 0.7129840673 1.4882994007
H -1.7669039723 0.1766482345 -0.8934169931
H -2.6871792963 -1.2629034601 -0.4521305526
H -4.3905371210 0.1712792763 0.6538321820
H -3.4588868449 1.6075998539 0.2336615931
H -4.6821263533 -0.3486585199 -1.7710082593
H -5.3126562670 1.2525523846 -1.3809175054
H -3.7533904019 1.0905672386 -2.1906890843
32
CONF137
C 3.1800453713 0.3011670195 -2.0931594101
C 2.3903174582 -0.4058767602 -0.9976608623
C 2.5487832773 0.2947991206 0.3502389848
C 1.8943108131 -0.4557465897 1.5117659824
C 0.3793169515 -0.6321594820 1.3918500592
C -0.3791202781 0.6932889732 1.3627658177
C -1.8940851381 0.5220121258 1.4905468302
C -2.5485119014 -0.2790615797 0.3632446220
C -2.3930366753 0.3631938772 -1.0137662475
C -3.1781800229 -0.3950807774 -2.0778356970
H 3.0496069616 -0.2046737960 -3.0468348449
H 4.2408198521 0.3127186529 -1.8522499636
H 2.8434524901 1.3300875127 -2.2007291366
H 2.7357274542 -1.4386186377 -0.9093664176
H 1.3366801030 -0.4303955618 -1.2805001770
H 2.1379639341 1.3037339677 0.2843015068
H 3.6155859758 0.3930009590 0.5679555228
H 2.1128735469 0.0825457531 2.4376207039
H 2.3525576078 -1.4450186285 1.5906408315
H 0.0350845604 -1.2138276012 2.2511014159
H 0.1541180428 -1.2092011361 0.4950052563
H -0.1539981492 1.2303743328 0.4414169501
H -0.0348489043 1.3121970779 2.1955768268
H -2.1122805948 0.0248220828 2.4391944009
H -2.3526470442 1.5136372179 1.5259993287
H -2.1357035887 -1.2890672098 0.3402840148
H -3.6148650235 -0.3699576398 0.5862700091
H -2.7440788999 1.3969007332 -0.9705058353
H -1.3393886075 0.3811590969 -1.2970337352
H -4.2388649494 -0.4031816443 -1.8364008791
H -3.0509558100 0.0703402965 -3.0523026190
H -2.8349305398 -1.4254635376 -2.1413797046
32
CONF139
C 3.0907863892 0.2874773169 -2.1275072359
C 2.3508669277 -0.4179162209 -0.9967985895
C 2.5267367487 0.3136749460 0.3323874225
C 1.9068845783 -0.4204270910 1.5233162646
C 0.3933574892 -0.6258368543 1.4351438765
C -0.3894012852 0.6851204217 1.4046097788
C -1.9029533565 0.4845055310 1.5024147280
C -2.5239592963 -0.3006572758 0.3451649618
C -2.3511743088 0.3739719433 -1.0142724834
C -3.1004156262 -0.3740380304 -2.1109602146
H 4.1564417851 0.3364838856 -1.9147611321
H 2.7200596923 1.3030482319 -2.2487836155
H 2.9515283691 -0.2435291090 -3.0661331700
H 2.7258872272 -1.4392907107 -0.8978846891
H 1.2911305325 -0.4756686598 -1.2503530978
H 2.1004082139 1.3152155488 0.2531589406
H 3.5962090437 0.4317848168 0.5257145427
H 2.1328131562 0.1431269423 2.4322172456
H 2.3838604890 -1.3995442009 1.6163214018
H 0.0752075375 -1.2034520261 2.3070911616
H 0.1623568377 -1.2175863960 0.5495879079
H -0.1585044953 1.2348814656 0.4923680227
H -0.0709505835 1.3025913709 2.2486898485
H -2.1288077848 -0.0382340623 2.4353802313
H -2.3793318252 1.4670556103 1.5523273679
H -2.0966353767 -1.3042016136 0.3079674051
H -3.5929573777 -0.4115114840 0.5452862838
H -2.7208391104 1.4004358459 -0.9562750904
H -1.2924424495 0.4158504958 -1.2751523033
H -4.1656282212 -0.4058961340 -1.8925734703
H -2.9609234603 0.1150711544 -3.0720637092
H -2.7375607704 -1.3966387703 -2.1897097914
32
CONF87
C 3.9894177346 0.9385922176 -1.2487170704
C 3.8702513042 0.5339563078 0.2162396865
C 3.2770977477 -0.8627753719 0.4107999091
C 1.8397599635 -1.0299577503 -0.0858179405
C 0.8338576852 -0.1522765686 0.6561013439
C -0.6040751385 -0.4643656951 0.2462598970
C -1.6064792963 0.4259143538 0.9784339647
C -3.0648667159 0.0704986440 0.6867832564
C -3.4905754383 0.3692893258 -0.7494998046
C -4.9762974155 0.1013112124 -0.9607339070
H 3.0092901214 1.0397314768 -1.7069270014
H 4.5549274080 0.1932191431 -1.8038439850
H 4.5027402873 1.8934958571 -1.3345484895
H 3.2653567880 1.2686721523 0.7497067829
H 4.8659380539 0.5441423150 0.6664879913
H 3.3086324126 -1.1072426278 1.4755863345
H 3.9098503002 -1.5848215159 -0.1114318932
H 1.5547806103 -2.0767669302 0.0482156085
H 1.7899629301 -0.8158077294 -1.1545720805
H 1.0374893350 0.8999554996 0.4502234494
H 0.9447368928 -0.3083308365 1.7321153098
H -0.8239603443 -1.5115647692 0.4679998996
H -0.7032335204 -0.3249773427 -0.8316562479
H -1.4338659869 0.3323076270 2.0536285084
H -1.4288739354 1.4692303205 0.7067280043
H -3.2265343560 -0.9893744427 0.8974832148
H -3.7041427041 0.6421634729 1.3643753237
H -3.2744847527 1.4155987408 -0.9775494574
H -2.9154773855 -0.2486224339 -1.4407141433
H -5.2618546809 0.3153331693 -1.9877779792
H -5.2086000635 -0.9400887526 -0.7489694676
H -5.5741013254 0.7257030008 -0.3002927556
32
CONF149
C 2.3967973350 -0.0531764825 -2.0483026359
C 3.0469306679 -0.6128509121 -0.7879370082
C 2.9834958085 0.3468125639 0.4022207805
C 1.5695891567 0.6926938898 0.8731938605
C 0.7935826862 -0.5193651001 1.3846307212
C -0.5195354226 -0.1453034459 2.0750148016
C -1.5352809262 0.5697847868 1.1816580142
C -1.9950466371 -0.2672394887 -0.0100694264
C -3.1079569047 0.4237190467 -0.7952454742
C -3.5543459574 -0.4036405269 -1.9950745629
H 2.5580706392 -0.7274527519 -2.8862565995
H 2.8245869792 0.9151847987 -2.2989359462
H 1.3250535540 0.0684897908 -1.9150785001
H 4.0987060695 -0.8224721273 -0.9980212279
H 2.5739695519 -1.5598458500 -0.5232793458
H 3.4942510816 1.2739073593 0.1293463463
H 3.5328154459 -0.0982981675 1.2358439624
H 1.0238433191 1.1659956171 0.0571702096
H 1.6490328528 1.4239375175 1.6819808200
H 1.4166127835 -1.0555470331 2.1054677187
H 0.5853886496 -1.2025414257 0.5612236633
H -0.2962888483 0.4998306652 2.9286434912
H -0.9782906577 -1.0580493854 2.4637526319
H -2.4080730754 0.8183309310 1.7913067153
H -1.1135735911 1.5103600553 0.8231645822
H -1.1541218896 -0.4503747918 -0.6813563906
H -2.3530946054 -1.2363295956 0.3460693752
H -3.9615980402 0.5963220257 -0.1356378953
H -2.7540112234 1.3988746839 -1.1381816387
H -3.9300548427 -1.3716380008 -1.6709496569
H -4.3444800518 0.1072022330 -2.5399388188
H -2.7209975035 -0.5704849718 -2.6741148486
32
CONF150
C 3.6064809989 0.2893126004 -1.9950885408
C 3.1291937036 -0.4757188632 -0.7661372626
C 2.0173297976 0.2673916299 -0.0284540203
C 1.5317458350 -0.5064625948 1.1953590339
C 0.5200427891 0.2656142502 2.0446872714
C -0.7916928878 0.6038107049 1.3336254773
C -1.5834845384 -0.6336034082 0.9151845356
C -2.9998432815 -0.3085555688 0.4370252034
C -3.0695520603 0.5676081243 -0.8154759678
C -2.4393230285 -0.0833534269 -2.0415716206
H 3.9914045983 1.2657755084 -1.7093650694
H 2.7867650313 0.4364760462 -2.6948793689
H 4.3976262957 -0.2571603458 -2.5026544919
H 3.9705464831 -0.6318968387 -0.0868904282
H 2.7640317567 -1.4596325195 -1.0701125541
H 1.1871782987 0.4314185244 -0.7178174538
H 2.3858300213 1.2466806360 0.2867838378
H 2.3946519920 -0.7405064457 1.8244139131
H 1.0980660714 -1.4556079937 0.8761130924
H 0.9838740467 1.1973227550 2.3785874256
H 0.2933879143 -0.3263863468 2.9351464038
H -0.5799132095 1.2229997522 0.4619421878
H -1.4054048477 1.1977372594 2.0161443051
H -1.0509837788 -1.1669860244 0.1279687987
H -1.6598296684 -1.3066894353 1.7732593059
H -3.5211329852 -1.2476954762 0.2343952497
H -3.5357022492 0.1974727923 1.2442322073
H -4.1219132763 0.7720526069 -1.0274962160
H -2.5854226550 1.5260028605 -0.6219204790
H -1.3675081784 -0.2072681099 -1.9116016801
H -2.8796223186 -1.0617441232 -2.2211116659
H -2.6032741201 0.5339531518 -2.9217768768
32
CONF138
C 3.1836495838 0.2813776924 -2.1004835200
C 2.3994976056 -0.4141551954 -0.9936949668
C 2.5435028984 0.3150805843 0.3406763964
C 1.9013683307 -0.4254764224 1.5154489819
C 0.3887519237 -0.6245175608 1.4014566258
C -0.3890864782 0.6896016696 1.3714985283
C -1.9016595887 0.4955547349 1.4948448563
C -2.5436360639 -0.2984982855 0.3554606671
C -2.4051267906 0.3713941810 -1.0101867655
C -3.1777419575 -0.3832161441 -2.0859553845
H 2.8337521816 1.3032839538 -2.2299308140
H 3.0635351068 -0.2453132829 -3.0441752569
H 4.2432717062 0.3119541715 -1.8562168746
H 2.7587823869 -1.4400566076 -0.8836323558
H 1.3473506156 -0.4588451318 -1.2795804810
H 2.1147262423 1.3150185639 0.2551456601
H 3.6080976980 0.4365774034 0.5574332674
H 2.1140735808 0.1301405456 2.4323985439
H 2.3734688796 -1.4069424242 1.6088098836
H 0.0558947946 -1.2083883068 2.2637023610
H 0.1688424012 -1.2075659919 0.5072301570
H -0.1692241043 1.2312740601 0.4516060188
H -0.0562154811 1.3122881076 2.2061240417
H -2.1137297860 -0.0177202631 2.4362976903
H -2.3743077064 1.4799889833 1.5434247137
H -2.1112901178 -1.2996749170 0.3133356556
H -3.6073340541 -0.4141859908 0.5796867029
H -2.7771412986 1.3967543979 -0.9472991113
H -1.3528772666 0.4160839506 -1.2957263893
H -4.2371418803 -0.4186785067 -1.8412731814
H -3.0640648435 0.1034402831 -3.0516875007
H -2.8127425682 -1.4045819681 -2.1704239440
32
CONF151
C 2.3907463162 0.0375107551 -2.0501427004
C 3.0214110332 -0.6105660852 -0.8225783224
C 2.9947781312 0.2877135219 0.4159972256
C 1.5950250734 0.6559575913 0.9114319209
C 0.7892543481 -0.5513291139 1.3866329702
C -0.5232036661 -0.1655339109 2.0717302429
C -1.5247670883 0.5674375424 1.1766997961
C -2.0017239664 -0.2645736642 -0.0118059542
C -3.0939480468 0.4491336842 -0.8055613468
C -3.5678013278 -0.3819023221 -1.9922690591
H 1.3243521942 0.1914567013 -1.9075503216
H 2.5260498790 -0.5974006418 -2.9227448076
H 2.8537773244 1.0012045089 -2.2511358839
H 4.0644408352 -0.8474530935 -1.0466749265
H 2.5143160175 -1.5521449664 -0.6063064869
H 3.5351769641 1.2099827378 0.1877132566
H 3.5319918362 -0.2172961126 1.2228983689
H 1.0568873888 1.1728166703 0.1171986701
H 1.7005273921 1.3555831163 1.7448275362
H 1.3938964863 -1.1164436620 2.1009796171
H 0.5759018360 -1.2112728615 0.5458782467
H -0.2967238220 0.4710879096 2.9308573845
H -0.9959480099 -1.0748113492 2.4517406152
H -2.3924037779 0.8348612835 1.7856885041
H -1.0851388848 1.4985680807 0.8151173288
H -1.1635973270 -0.4737789674 -0.6789629985
H -2.3858322678 -1.2217876077 0.3493651073
H -3.9407745333 0.6578912921 -0.1475642751
H -2.7106152190 1.4077162416 -1.1633387722
H -3.9715360061 -1.3332452086 -1.6528442524
H -4.3437400615 0.1441618828 -2.5429663311
H -2.7416255267 -0.5838891407 -2.6705015612
32
CONF116
C 4.3980408027 -0.6952542835 -1.4350250463
C 3.7107786911 -0.5907004226 -0.0785697640
C 2.4307292685 0.2392004915 -0.1514519401
C 1.7329193835 0.3278779372 1.2040305218
C 0.5365920195 1.2816938244 1.2143490677
C -0.6027793423 0.9112473436 0.2623377268
C -1.2634067217 -0.4237729110 0.6001901477
C -2.4313369645 -0.7688188147 -0.3256250570
C -3.6562102112 0.1222373574 -0.1272340428
C -4.8256357229 -0.3316400625 -0.9933913601
H 3.7391800953 -1.1676703570 -2.1602151183
H 5.3068099799 -1.2873365111 -1.3593729340
H 4.6611348037 0.2931282647 -1.8052190675
H 4.3955800445 -0.1356702690 0.6408283838
H 3.4693691225 -1.5925293864 0.2842526533
H 1.7601233265 -0.2132106626 -0.8839281409
H 2.6739236822 1.2463904707 -0.4986395602
H 2.4536993837 0.6826241366 1.9454960425
H 1.4159636717 -0.6691846953 1.5145062592
H 0.8894584148 2.2830613541 0.9548305535
H 0.1397874095 1.3266271932 2.2317254564
H -0.2319948422 0.8817082704 -0.7635591041
H -1.3506482789 1.7045760575 0.3165777886
H -0.5205803969 -1.2195103974 0.5221036937
H -1.6173758369 -0.3999917012 1.6337504147
H -2.0999575324 -0.6997413117 -1.3645877335
H -2.7257107855 -1.8054795700 -0.1427709108
H -3.9521203764 0.0966064698 0.9240778200
H -3.4080693408 1.1546378176 -0.3783484382
H -5.6862409321 0.3160627601 -0.8446523531
H -4.5520629541 -0.3038616833 -2.0458929087
H -5.1140944689 -1.3500895999 -0.7421839054
32
CONF113
C 4.4002110160 -0.4123485948 -1.4576813692
C 4.2694262747 -0.2182921670 0.0489846421
C 3.0121634902 0.5546065372 0.4504215262
C 1.7188309794 -0.2177499474 0.1982320278
C 0.4934393953 0.5506935004 0.6883248457
C -0.8015789347 -0.2240605573 0.4536207410
C -2.0254678672 0.5612172613 0.9207921113
C -3.3220211584 -0.2500804124 0.8832766333
C -3.7397579753 -0.7389434387 -0.5049263568
C -4.0300367915 0.3954919139 -1.4810054756
H 5.3441899545 -0.8975871921 -1.6943069936
H 4.3704919460 0.5481721647 -1.9674240913
H 3.5951855960 -1.0324140519 -1.8426948365
H 5.1433001796 0.3293698924 0.4095914557
H 4.2645752291 -1.1932589132 0.5415560813
H 2.9810190389 1.4996453613 -0.0969589975
H 3.0735315358 0.7931082449 1.5152903084
H 1.7692067641 -1.1809242783 0.7120670261
H 1.6084236129 -0.4154211752 -0.8692508796
H 0.4389948097 1.5109161282 0.1695094743
H 0.6008236171 0.7596415714 1.7556448879
H -0.7552680993 -1.1737194058 0.9922822649
H -0.8902788827 -0.4491238706 -0.6105519392
H -1.8595939857 0.8857524710 1.9513981825
H -2.1333027828 1.4605910949 0.3124548583
H -3.2084170144 -1.1191836021 1.5362175545
H -4.1267500480 0.3659358315 1.2925118024
H -2.9631058880 -1.3849975935 -0.9169959464
H -4.6414400067 -1.3459955000 -0.3919716917
H -4.4169314453 -0.0026786464 -2.4161691569
H -4.7705100246 1.0748635084 -1.0643498968
H -3.1287064969 0.9609432240 -1.7016894732
32
CONF112
C 4.0771751275 -1.6157698638 -0.0011236260
C 3.7498155710 -0.4646093767 -0.9457765576
C 2.9410725199 0.6500881204 -0.2806125587
C 1.5264430781 0.2244131908 0.1088656692
C 0.7184309144 1.4015364318 0.6523288254
C -0.6584375692 1.0024639126 1.1850537676
C -1.6127778671 0.5118179469 0.0978621929
C -3.0092446017 0.2446189731 0.6565091807
C -4.0199480521 -0.1784489405 -0.4106689344
C -3.7361429703 -1.5580803162 -0.9946202448
H 4.5979878710 -1.2469078472 0.8797238659
H 4.7160260272 -2.3414536908 -0.4989594693
H 3.1729364061 -2.1252374881 0.3205302602
H 3.1950788623 -0.8474215516 -1.8054399686
H 4.6844168077 -0.0393932758 -1.3192067374
H 2.8730956892 1.4928933225 -0.9732735037
H 3.4720911615 0.9975938521 0.6088646157
H 1.5718018449 -0.5545280237 0.8717456833
H 1.0288964222 -0.1915466821 -0.7689683338
H 0.5970601339 2.1508416924 -0.1336969296
H 1.2836054968 1.8660796333 1.4644043195
H -1.1050903949 1.8703041935 1.6772146882
H -0.5405078965 0.2216090689 1.9401631569
H -1.6791586832 1.2662103594 -0.6899890785
H -1.2179966206 -0.4026596787 -0.3443784111
H -2.9486285548 -0.5324798156 1.4221850902
H -3.3725127358 1.1550602846 1.1401857005
H -5.0160186876 -0.1855776669 0.0382523152
H -4.0255041083 0.5618260411 -1.2139296020
H -3.6874956053 -2.3021356379 -0.2026001195
H -4.5252633789 -1.8439295724 -1.6860660705
H -2.7934171946 -1.5673807456 -1.5349354643
32
CONF115
C 3.7415125442 1.5362752828 -1.0135045875
C 4.0336704094 0.1819524064 -0.3767939949
C 3.0049577057 -0.2234400057 0.6799514983
C 1.6208993236 -0.5096683847 0.1003971693
C 0.6549169354 -1.0086066387 1.1733813045
C -0.7156175731 -1.4034404730 0.6212497692
C -1.5278915081 -0.2176187269 0.1036583869
C -2.9305900067 -0.6445549074 -0.3250892864
C -3.7476224385 0.4891062755 -0.9467603276
C -4.1087401392 1.5854983862 0.0493196269
H 4.5445636926 1.8144184085 -1.6920061026
H 3.6569139659 2.3046741587 -0.2481805890
H 2.8145199219 1.5095579504 -1.5798183517
H 5.0183431878 0.2206578568 0.0950737697
H 4.0706148443 -0.5841507927 -1.1546348603
H 2.9258210955 0.5692346031 1.4277464314
H 3.3639037208 -1.1214512781 1.1894550186
H 1.7086934127 -1.2658553037 -0.6836147969
H 1.2224208751 0.3985211744 -0.3512562144
H 0.5279602876 -0.2336875403 1.9331238755
H 1.0967068073 -1.8799143523 1.6637519304
H -1.2835157627 -1.8925837843 1.4168030662
H -0.5836071066 -2.1312123321 -0.1831301450
H -1.5953279696 0.5341978798 0.8917208101
H -1.0203781289 0.2339454845 -0.7505658919
H -2.8407604402 -1.4518477383 -1.0564774404
H -3.4676540422 -1.0424004555 0.5393403401
H -3.1865167584 0.9237357163 -1.7771384719
H -4.6693291481 0.0684655724 -1.3557819148
H -4.6323531083 1.1634706233 0.9042310845
H -3.2187543484 2.0958847142 0.4072538827
H -4.7560882747 2.3224669175 -0.4201385188
32
CONF111
C 3.7481211218 1.5363037195 -1.0082407957
C 4.0380782691 0.1841459609 -0.3660732317
C 3.0029973825 -0.2201940319 0.6848039298
C 1.6227532378 -0.5088920841 0.0972451676
C 0.6540493870 -1.0179288582 1.1630306960
C -0.7148303239 -1.4081203672 0.6034991455
C -1.5281898318 -0.2169538431 0.1002416413
C -2.9289820488 -0.6400761630 -0.3384522513
C -3.7463024539 0.5021242614 -0.9438567591
C -4.1218562879 1.5757185897 0.0717137820
H 3.6610567776 2.3074147456 -0.2459381466
H 2.8230606141 1.5076539066 -1.5776214229
H 4.5536486920 1.8118752979 -1.6849032351
H 5.0196046088 0.2255154429 0.1121054091
H 4.0811758299 -0.5839571275 -1.1416214484
H 2.9185560640 0.5736236159 1.4308056477
H 3.3597570914 -1.1170087505 1.1979316649
H 1.7171814465 -1.2604479527 -0.6904508367
H 1.2226019609 0.4001258793 -0.3513073779
H 0.5246164011 -0.2500438146 1.9294420954
H 1.0950323251 -1.8934254637 1.6466206847
H -1.2831370807 -1.9087894524 1.3915008357
H -0.5801593722 -2.1249285497 -0.2101749850
H -1.5991173581 0.5236618329 0.8985332348
H -1.0191677722 0.2475697315 -0.7461009297
H -2.8357884409 -1.4356299226 -1.0821313745
H -3.4675796257 -1.0523606457 0.5182003316
H -3.1796417921 0.9567259409 -1.7597146832
H -4.6621118513 0.0859079386 -1.3702616315
H -4.6534879763 1.1335022323 0.9114673364
H -3.2375978254 2.0809445948 0.4506990475
H -4.7664158481 2.3207622488 -0.3887023201
32
CONF66
C 4.0042897702 0.4914551940 -1.5785947472
C 4.0333421381 -0.5120384069 -0.4310278360
C 3.0621383988 -0.1657515372 0.6986726979
C 1.5940537296 -0.2826249435 0.2931848929
C 0.6619759233 -0.0324204613 1.4772515319
C -0.8161620204 -0.2252685645 1.1348325432
C -1.3516480014 0.8313964764 0.1692397444
C -2.8722707850 0.7879608013 0.0129902017
C -3.3756485809 -0.4767359965 -0.6803363863
C -4.8794439654 -0.4226356118 -0.9239776645
H 3.0393843827 0.4852905602 -2.0782298714
H 4.7673119764 0.2452058274 -2.3132778418
H 4.1953257848 1.4963791123 -1.2086399454
H 5.0450433788 -0.5467699057 -0.0199814732
H 3.7984390451 -1.5077989870 -0.8138365596
H 3.2607418503 0.8514557169 1.0445811983
H 3.2489629425 -0.8407881947 1.5378972238
H 1.4092288999 -1.2837438846 -0.1041329563
H 1.3771599746 0.4376739398 -0.4953183499
H 0.8171346846 0.9829896140 1.8500776280
H 0.9263618037 -0.7220589616 2.2831536883
H -1.3964556272 -0.1778227428 2.0597022248
H -0.9526764146 -1.2200167115 0.7072192528
H -1.0684387399 1.8191241812 0.5415958241
H -0.8927354677 0.7019059979 -0.8124824107
H -3.3396535803 0.8694159217 0.9973475631
H -3.1872275288 1.6549447854 -0.5733972286
H -2.8577515675 -0.5927717996 -1.6352275240
H -3.1447963448 -1.3491600482 -0.0672243767
H -5.2211317645 -1.3314527058 -1.4135705910
H -5.4134674245 -0.3177604026 0.0179519098
H -5.1332388583 0.4251613005 -1.5567069585
32
CONF42
C 5.1514639795 -0.3132945115 -0.2772448278
C 3.6373965397 -0.4896385743 -0.2631282419
C 2.9156172607 0.8509316691 -0.1384063249
C 1.3946239350 0.7335479085 -0.2448915828
C 0.7627477760 0.0035733569 0.9394758212
C -0.7656510448 0.0615908498 0.9304381782
C -1.3850898533 -0.7181310896 -0.2287287460
C -2.9038884883 -0.8573334005 -0.1181530032
C -3.6479202788 0.4672814974 -0.2768932240
C -5.1588301021 0.2651452280 -0.2821812554
H 5.4866969332 0.1670235800 0.6393480230
H 5.4556321422 0.3059866996 -1.1183323159
H 5.6483795371 -1.2766603342 -0.3622383828
H 3.3613782674 -1.1356269426 0.5717019671
H 3.3213468677 -0.9824235094 -1.1855217189
H 3.2705587104 1.5118980818 -0.9332773076
H 3.1775188975 1.3141330409 0.8159927778
H 1.1450271034 0.2157557771 -1.1725774783
H 0.9702032589 1.7391774037 -0.3003456836
H 1.1241710079 0.4604946694 1.8642294879
H 1.0773717812 -1.0415243114 0.9399910425
H -1.0807131623 1.1055417510 0.8841137249
H -1.1359928632 -0.3566667998 1.8698283869
H -1.1435318475 -0.2280767225 -1.1734779470
H -0.9445846598 -1.7181351278 -0.2502239195
H -3.2481289965 -1.5447449353 -0.8951137460
H -3.1576807515 -1.2996687400 0.8482637149
H -3.3807017693 1.1396935421 0.5397170091
H -3.3421688556 0.9403685429 -1.2129393405
H -5.6722732083 1.2172732761 -0.3916932665
H -5.4543533423 -0.3816679089 -1.1054345182
H -5.4837526799 -0.1959208580 0.6478975414
32
CONF106
C 4.4030530322 0.8280437334 0.9525771749
C 3.8473835948 -0.5881797485 0.8508087826
C 2.9070246903 -0.7820112635 -0.3397565179
C 1.5864762298 -0.0267222615 -0.2003775718
C 0.6505225647 -0.3157924728 -1.3725401080
C -0.6511043967 0.4858479406 -1.3244250941
C -1.5883319291 0.0570477160 -0.1968146143
C -2.9135058394 0.8149499829 -0.2528139946
C -3.8553076083 0.4815397551 0.9052035312
C -4.3871920669 -0.9465675341 0.8550451162
H 5.1186930485 0.8940562685 1.7686944423
H 3.6094775212 1.5464597432 1.1393213010
H 4.9084238868 1.1040026019 0.0296741381
H 3.3168413853 -0.8372849060 1.7726129801
H 4.6819239856 -1.2863376032 0.7514959509
H 2.6888002056 -1.8480000659 -0.4430068174
H 3.4132856570 -0.4602450399 -1.2530474477
H 1.7772466758 1.0469125836 -0.1586088667
H 1.1087925597 -0.3202843876 0.7360030877
H 0.4157843070 -1.3827484917 -1.3943761000
H 1.1737646512 -0.0757090377 -2.3016031133
H -1.1734398642 0.3595046368 -2.2761432783
H -0.4167062614 1.5476754472 -1.2171354442
H -1.7723067915 -1.0152685455 -0.2807508174
H -1.1153589339 0.2428865391 0.7690519291
H -2.7023861398 1.8871922626 -0.2339292947
H -3.4157088619 0.5954239705 -1.1980921790
H -3.3332943530 0.6415582412 1.8513035866
H -4.7009976075 1.1726023858 0.8740958519
H -3.5836884092 -1.6671008839 0.9811284079
H -5.1129160441 -1.1063131295 1.6489815805
H -4.8745314981 -1.1361746571 -0.0987847127
32
CONF109
C 4.0965774267 -1.6000936638 0.0249107311
C 3.7459717212 -0.4793378485 -0.9474451577
C 2.9359370444 0.6465265352 -0.3028702731
C 1.5282547903 0.2208257947 0.1106082024
C 0.7175949824 1.4036784704 0.6372991492
C -0.6572978009 1.0079854256 1.1777336031
C -1.6153862625 0.5107353085 0.0968082120
C -3.0079154725 0.2394697951 0.6632532248
C -4.0252826512 -0.1790540205 -0.3993312359
C -3.7428093207 -1.5540098210 -0.9947629390
H 4.6230873906 -1.2012520076 0.8890932046
H 4.7378366864 -2.3324751785 -0.4598544542
H 3.2018010361 -2.1100619176 0.3711416077
H 3.1829600729 -0.8913564808 -1.7879245795
H 4.6714590571 -0.0571072617 -1.3458281018
H 2.8553417494 1.4710241104 -1.0158852332
H 3.4729346697 1.0201195837 0.5723100674
H 1.5865771245 -0.5414463472 0.8892617128
H 1.0246183318 -0.2170220341 -0.7529469475
H 0.5925660547 2.1406218931 -0.1597615567
H 1.2826364764 1.8821982482 1.4412689815
H -1.1025402703 1.8787406529 1.6659817586
H -0.5365081987 0.2318786818 1.9372415483
H -1.6886993851 1.2631055360 -0.6923286531
H -1.2194287996 -0.4031838752 -0.3454924216
H -2.9416259853 -0.5412724295 1.4246742748
H -3.3690101113 1.1471456509 1.1536642015
H -5.0180371293 -0.1913665365 0.0567687227
H -4.0382870299 0.5664962766 -1.1976223204
H -2.8028223699 -1.5581224504 -1.5398675940
H -3.6894543420 -2.3038710754 -0.2085309785
H -4.5351635129 -1.8354854637 -1.6843010718
32
CONF117
C 4.4341424098 -0.8198446671 1.3402655273
C 3.7175033352 -0.6047935167 0.0123317497
C 2.4475700470 0.2272992090 0.1786596709
C 1.7302298823 0.4411086420 -1.1524721680
C 0.5360494653 1.3928165046 -1.0567266926
C -0.6039775847 0.9214739906 -0.1512060216
C -1.2746423577 -0.3604035783 -0.6412991938
C -2.4482676648 -0.7991763850 0.2364542068
C -3.6704561381 0.1106687596 0.1272711786
C -4.8400707421 -0.4221414085 0.9470721197
H 5.3345570010 -1.4124717622 1.1979674540
H 3.7870693852 -1.3406933756 2.0425852090
H 4.7164048486 0.1347057904 1.7788941940
H 3.4583005186 -1.5734289142 -0.4214578073
H 4.3904804295 -0.1006379744 -0.6852024242
H 2.7069424833 1.1980390358 0.6082755106
H 1.7836084021 -0.2809469448 0.8799438719
H 1.4066509532 -0.5226666674 -1.5491357587
H 2.4413623858 0.8622112125 -1.8681112778
H 0.1385486209 1.5507191013 -2.0624853346
H 0.8914967979 2.3586084153 -0.6886006866
H -1.3464589740 1.7206752493 -0.1100702078
H -0.2315651450 0.7693983536 0.8632019146
H -1.6252727612 -0.2152899690 -1.6660573708
H -0.5385848421 -1.1661283612 -0.6533880743
H -2.7437221286 -1.8098842930 -0.0567282507
H -2.1223360067 -0.8413425496 1.2785621836
H -3.4190699295 1.1132373750 0.4768403202
H -3.9676066253 0.1879249563 -0.9211686463
H -4.5663784040 -0.4931265876 1.9974747631
H -5.7005277259 0.2367494710 0.8596852187
H -5.1285323970 -1.4125080815 0.6014968997
32
CONF213
C 3.4947388309 1.3905199868 -1.4513702033
C 2.8202484567 0.1541581077 -0.8679373822
C 2.4945903323 0.3383039195 0.6128460978
C 1.9526434883 -0.9257281660 1.2831010162
C 0.6384818398 -1.4546275611 0.7050369829
C -0.5248134806 -0.4744267949 0.8407590805
C -1.8373250875 -1.0933938705 0.3646205966
C -3.0533197713 -0.1923466934 0.5884829199
C -3.0253217186 1.1343735469 -0.1733508195
C -2.9934991692 0.9599483251 -1.6875855057
H 3.7130571161 1.2456492800 -2.5066902479
H 4.4281989905 1.5971910404 -0.9323654208
H 2.8484349517 2.2597358381 -1.3501750218
H 3.4788737856 -0.7094394060 -0.9866730650
H 1.9039844049 -0.0460907265 -1.4254583059
H 1.7788387062 1.1541847312 0.7274119245
H 3.4078083407 0.6336618640 1.1361856439
H 1.8070189868 -0.7172049569 2.3460404163
H 2.7062013890 -1.7133772164 1.2028478372
H 0.3835678611 -2.3775653584 1.2327912538
H 0.7747936385 -1.7118983707 -0.3468429783
H -0.3135046268 0.4197806088 0.2546381726
H -0.6249618571 -0.1756687990 1.8872622548
H -1.7552742803 -1.3468849338 -0.6936292173
H -2.0028092280 -2.0272602344 0.9085061806
H -3.9498937283 -0.7435108576 0.2934806535
H -3.1365310832 0.0235305213 1.6567307462
H -3.9214777216 1.6979183370 0.0979569513
H -2.1638649197 1.7241501330 0.1437249576
H -2.0594325268 0.5073359287 -2.0092566467
H -3.8147533906 0.3257093241 -2.0141383040
H -3.0881510966 1.9251130897 -2.1797384281
32
CONF127
C 5.0723240346 0.2940823710 0.4380355635
C 3.8950086310 -0.6564828698 0.2552585070
C 2.6151778596 0.0877965489 -0.1198967093
C 1.4330036949 -0.8644702966 -0.2886631855
C 0.1516693201 -0.1747210221 -0.7608478096
C -0.4691530094 0.7306421521 0.3011065450
C -1.7291334493 1.4536364874 -0.1802217357
C -2.9032542699 0.5448584595 -0.5493935303
C -3.4150605610 -0.2978012745 0.6170989892
C -4.6771252701 -1.0660684827 0.2418803579
H 4.8631386923 1.0114155939 1.2285257449
H 5.2634247969 0.8439971474 -0.4807697054
H 5.9715801034 -0.2567525528 0.7026761263
H 3.7292805884 -1.2112055197 1.1816681977
H 4.1325677725 -1.3823217906 -0.5259448934
H 2.7757441753 0.6313529195 -1.0541116115
H 2.3935676205 0.8209860028 0.6574986251
H 1.2398830695 -1.3717819733 0.6597056619
H 1.7066129573 -1.6292557332 -1.0201346591
H -0.5682515154 -0.9472021748 -1.0365464318
H 0.3672531799 0.4136237298 -1.6559962169
H 0.2577543111 1.4908876780 0.5930693368
H -0.6988060757 0.1402659478 1.1897526580
H -2.0546092833 2.1378524389 0.6076116933
H -1.4719148731 2.0575121513 -1.0541247538
H -3.7200790157 1.1773147485 -0.9070032175
H -2.6197846693 -0.1122266869 -1.3733661632
H -2.6461071962 -1.0081609415 0.9245461135
H -3.6264652609 0.3551955718 1.4671131604
H -4.4830902320 -1.7279543679 -0.5993735181
H -5.0228093168 -1.6671761755 1.0794384663
H -5.4725804658 -0.3797513422 -0.0403134241
32
CONF118
C 4.6933581505 1.0514621993 0.2438970084
C 3.4298853658 0.2856977310 0.6194589654
C 2.9019538089 -0.5365092724 -0.5544363963
C 1.7257476334 -1.4432758882 -0.1871536815
C 0.4694924389 -0.7187049164 0.3014486057
C -0.1565927937 0.1866711618 -0.7574385096
C -1.4402206596 0.8699877074 -0.2820400948
C -2.6184384745 -0.0878201229 -0.1166557794
C -3.9026494778 0.6496918266 0.2568778211
C -5.0767258860 -0.3065565900 0.4309383085
H 4.4954243271 1.7285340898 -0.5842661577
H 5.4809470479 0.3643289317 -0.0578270408
H 5.0519303196 1.6361321162 1.0876634794
H 2.6683829304 0.9960900782 0.9448462872
H 3.6451113617 -0.3812272528 1.4576233636
H 3.7115165528 -1.1686245038 -0.9287415417
H 2.6149464434 0.1342464819 -1.3660195028
H 2.0513102282 -2.1330773209 0.5957647886
H 1.4637013880 -2.0413070219 -1.0636389586
H 0.7047652970 -0.1281746002 1.1884978692
H -0.2565847367 -1.4780342943 0.5977753569
H -0.3713849172 -0.4006931226 -1.6534408294
H 0.5598669461 0.9624972326 -1.0328293169
H -1.2487487217 1.3745935454 0.6680769788
H -1.7171347980 1.6363002712 -1.0106655352
H -2.7746985121 -0.6308076881 -1.0519391840
H -2.3950226701 -0.8211258920 0.6601192030
H -3.7428073495 1.2011851070 1.1862544497
H -4.1402589000 1.3778132410 -0.5222046075
H -5.9794242709 0.2392749159 0.6941896438
H -5.2617071958 -0.8533982238 -0.4909782296
H -4.8677061049 -1.0263557523 1.2192344445
32
CONF264
C 4.6219643955 0.6342111296 0.1139473893
C 3.3710326727 -0.1784622199 0.4281003029
C 2.3702088484 -0.1368526745 -0.7247957849
C 1.1585401187 -1.0465828226 -0.5156840883
C 0.2898562936 -0.7001745916 0.6957989619
C -0.2922567950 0.7147800747 0.6918562970
C -1.1637861520 1.0533609962 -0.5198829069
C -2.3703087602 0.1361851563 -0.7259642089
C -3.3693955082 0.1719931982 0.4286363098
C -4.6162306866 -0.6474750284 0.1159702001
H 5.3188196562 0.6025367594 0.9479691129
H 4.3620807527 1.6730355348 -0.0774552741
H 5.1226459095 0.2397966006 -0.7676160321
H 2.9082842350 0.2178337726 1.3333653127
H 3.6518328558 -1.2161822923 0.6234141397
H 2.8788831784 -0.4540680556 -1.6391485549
H 2.0399702434 0.8918843230 -0.8789873219
H 1.5113445129 -2.0745019365 -0.3957781702
H 0.5439654575 -1.0187861975 -1.4175588345
H 0.8799887278 -0.8236019769 1.6062070231
H -0.5263384437 -1.4235823263 0.7465281431
H 0.5239371251 1.4386569064 0.7359717653
H -0.8803478622 0.8440056928 1.6028174215
H -1.5222747222 2.0795503054 -0.4021441033
H -0.5497950027 1.0269391651 -1.4222306004
H -2.8826010689 0.4496571484 -1.6395947147
H -2.0340865888 -0.8906140432 -0.8801483445
H -2.9030454921 -0.2221163141 1.3329854374
H -3.6555428688 1.2080417470 0.6248679813
H -4.3507845562 -1.6847749557 -0.0765644440
H -5.3121996929 -0.6202613662 0.9509874274
H -5.1202607053 -0.2551653589 -0.7646762092
32
CONF200
C 4.3006272536 1.3485482522 0.1078824136
C 3.3243961290 0.2694486586 -0.3464635858
C 2.5354449402 -0.3047844356 0.8285055377
C 1.6533484645 -1.4957454423 0.4492012961
C 0.5511255497 -1.1884646844 -0.5663384863
C -0.4779690940 -0.1781864670 -0.0629421703
C -1.6301442058 -0.0168689831 -1.0526783823
C -2.6233070992 1.0790419106 -0.6614969140
C -3.3766840374 0.8314351862 0.6469991430
C -4.2596038217 -0.4107745250 0.6076565272
H 3.7675697513 2.1648030813 0.5906856830
H 4.8490731155 1.7505215625 -0.7406582794
H 5.0167622209 0.9411474722 0.8183226698
H 3.8760270698 -0.5359675443 -0.8370970561
H 2.6378124247 0.6977269306 -1.0783315782
H 1.9240005950 0.4821499258 1.2732574263
H 3.2424108001 -0.6370740926 1.5932727820
H 1.1905563251 -1.8866368287 1.3589463232
H 2.2900148043 -2.2841855079 0.0396419466
H 0.0355285024 -2.1238156371 -0.8000305702
H 0.9949553950 -0.8243460191 -1.4944934636
H -0.0025731468 0.7929381992 0.0860332073
H -0.8613168193 -0.5165775811 0.9013265963
H -1.2148904004 0.2353654544 -2.0320863605
H -2.1534378903 -0.9684410141 -1.1597558819
H -2.0839677651 2.0259712692 -0.5772745818
H -3.3535541401 1.1872361530 -1.4675153450
H -2.6671118752 0.7481153596 1.4716002778
H -4.0046170307 1.7035565015 0.8455323427
H -4.8472809756 -0.4837710349 1.5197881107
H -4.9422349496 -0.3648356363 -0.2381137379
H -3.6607649235 -1.3131912471 0.5189148364
32
CONF215
C 3.4974099495 1.3915408574 -1.4514705308
C 2.8183898125 0.1555602007 -0.8725466612
C 2.5069487563 0.3298436528 0.6124612196
C 1.9635230181 -0.9363509447 1.2772640680
C 0.6433339411 -1.4553601190 0.7038508191
C -0.5124064876 -0.4667747847 0.8435047445
C -1.8330444126 -1.0795508040 0.3818549485
C -3.0402148583 -0.1669782508 0.6068622742
C -3.0210315245 1.1399231362 -0.1886760158
C -3.0525573585 0.9271503550 -1.6979802795
H 4.4364825673 1.5870723820 -0.9382969165
H 2.8584545246 2.2646740461 -1.3381273323
H 3.7062288919 1.2535557136 -2.5096157291
H 3.4693205544 -0.7119931338 -1.0041570985
H 1.8958083604 -0.0330277592 -1.4237007932
H 1.7968857617 1.1487735981 0.7398821523
H 3.4263574456 0.6157520083 1.1301931319
H 1.8257118273 -0.7344874498 2.3425316904
H 2.7128112966 -1.7269815850 1.1867743494
H 0.3837027542 -2.3762384656 1.2329048535
H 0.7740264095 -1.7140168940 -0.3483993698
H -0.3000004869 0.4229084544 0.2509567773
H -0.6021788143 -0.1617602468 1.8891234241
H -1.7604665479 -1.3431643838 -0.6745779897
H -2.0014737417 -2.0071498843 0.9354043523
H -3.9455356377 -0.7200024203 0.3438593403
H -3.1004301231 0.0756463116 1.6708663917
H -3.8967145034 1.7251740916 0.1026318553
H -2.1384466470 1.7228397212 0.0789660011
H -2.1433531045 0.4426578903 -2.0436850830
H -3.9015111796 0.3063995360 -1.9763163538
H -3.1423547644 1.8819431048 -2.2108265534
32
CONF152
C 4.2660737147 0.0385136063 -1.4452913536
C 3.1552227165 -0.7588708165 -0.7718889421
C 2.2741485552 0.1245506668 0.1089896704
C 1.1640023701 -0.6747311968 0.7877272920
C 0.3451736231 0.1463610723 1.7852640154
C -0.4250842781 1.3223067808 1.1792229193
C -1.4277335535 0.9421748606 0.0883705041
C -2.5342875907 0.0145824709 0.5875864970
C -3.6640628256 -0.1717734048 -0.4263299073
C -3.2256391225 -0.9222347142 -1.6791444922
H 3.8463251844 0.8211035353 -2.0734207491
H 4.8799423489 -0.6089414755 -2.0666840515
H 4.9049014171 0.5054033468 -0.6988765485
H 3.5962846400 -1.5509438829 -0.1621829200
H 2.5368660634 -1.2363883250 -1.5355597634
H 1.8390896660 0.9137189849 -0.5066550767
H 2.8929960474 0.6013883407 0.8731655319
H 1.6161811089 -1.5113708020 1.3271434393
H 0.5062403354 -1.0992810160 0.0274929595
H 1.0208412656 0.5419807077 2.5480921969
H -0.3581754673 -0.5187671400 2.2897945323
H 0.2851067281 2.0409475576 0.7656542170
H -0.9616689882 1.8262958349 1.9874876014
H -1.8849960448 1.8612594920 -0.2878831436
H -0.8998925228 0.4757545776 -0.7433892414
H -2.1152194419 -0.9634964149 0.8303041132
H -2.9544927132 0.4339768670 1.5054215047
H -4.4727905916 -0.7289343858 0.0528096300
H -4.0602559752 0.8062100875 -0.7095161820
H -2.4877923179 -0.3516156129 -2.2366758785
H -2.7907955527 -1.8832566437 -1.4127759264
H -4.0784603025 -1.1005338373 -2.3299859560
32
CONF177
C 4.0518654473 1.4144866348 -0.6766419094
C 3.3150941751 0.2751359037 0.0183405264
C 2.1163749775 -0.2008728719 -0.7996409219
C 1.4266709163 -1.4328165791 -0.2113638915
C 0.8246963454 -1.2359133389 1.1823785337
C -0.2276895828 -0.1304514359 1.2844585016
C -1.4650324470 -0.3892116706 0.4274486164
C -2.5369553521 0.6757396251 0.6518430134
C -3.8380696084 0.3949709651 -0.1014799206
C -3.6912337250 0.4960517161 -1.6158148800
H 3.3868639760 2.2623778291 -0.8260633908
H 4.4204898331 1.0943701582 -1.6488330632
H 4.8988495662 1.7434230226 -0.0793112531
H 2.9808403373 0.6146984516 0.9999408917
H 4.0012635334 -0.5614575006 0.1702383320
H 2.4595777286 -0.4525739515 -1.8066993163
H 1.3985733351 0.6152612090 -0.8977801307
H 2.1557940579 -2.2451861298 -0.1518440347
H 0.6414272762 -1.7538797292 -0.8984211208
H 1.6268229918 -1.0195740890 1.8905630869
H 0.3683013756 -2.1805802073 1.4894358252
H 0.2124536593 0.8282422881 1.0050680688
H -0.5359103957 -0.0513479616 2.3305448015
H -1.1812655989 -0.4002950839 -0.6247652896
H -1.8756607888 -1.3710282288 0.6763443022
H -2.7583724991 0.7310525468 1.7209019994
H -2.1476152086 1.6499478668 0.3462849573
H -4.1973785574 -0.6024204529 0.1622368436
H -4.5915774295 1.1146053284 0.2275153742
H -3.0242477757 -0.2731948219 -1.9954984938
H -4.6586924928 0.3725127655 -2.0967844200
H -3.2912093015 1.4685711589 -1.8941423518
32
CONF68
C 4.1528649684 -1.4928170602 -0.3738638128
C 3.8490267014 -0.0917513618 -0.8929880071
C 2.3964906622 0.3305551966 -0.6668516254
C 2.0467604555 0.5055708152 0.8103831112
C 0.6763580015 1.1471472198 1.0327709233
C -0.4869883758 0.2542118816 0.6050506235
C -1.8350655445 0.8946351673 0.9311465571
C -3.0291037626 -0.0122944648 0.6305555545
C -3.2394611634 -0.2726206070 -0.8598934509
C -4.5045752581 -1.0844187747 -1.1136640757
H 5.1695616348 -1.7786764578 -0.6329168821
H 3.4700911717 -2.2164195705 -0.8137711966
H 4.0534239907 -1.5374411726 0.7072516468
H 4.0569069486 -0.0606647935 -1.9652511336
H 4.5132822119 0.6269697517 -0.4074219063
H 1.7388846169 -0.4151151467 -1.1169879210
H 2.2252523120 1.2796581346 -1.1811233320
H 2.8065229948 1.1390949157 1.2752541133
H 2.0683487782 -0.4630010188 1.3125838838
H 0.6258644801 2.0917676772 0.4857151353
H 0.5680393860 1.3772831305 2.0959130770
H -0.4111333159 -0.7061439553 1.1207962346
H -0.4240613622 0.0665614383 -0.4667012117
H -1.8523055697 1.1508493122 1.9936325559
H -1.9379512486 1.8249268118 0.3673669154
H -2.8962857827 -0.9657161723 1.1474492770
H -3.9313705468 0.4563766404 1.0315907435
H -3.3100456840 0.6828746735 -1.3847672759
H -2.3826038563 -0.8132441100 -1.2647163163
H -4.6386335556 -1.2625380089 -2.1778478069
H -4.4465626726 -2.0460815896 -0.6085647342
H -5.3787179253 -0.5551190254 -0.7406991416
32
CONF174
C 3.6615369081 -1.1172006268 -1.3064191200
C 3.8291181239 -0.4004204979 0.0288851318
C 2.5427955163 -0.3529696879 0.8550430168
C 1.4580336819 0.5279276691 0.2379633092
C 0.2293270855 0.6208608055 1.1402545353
C -0.8267871005 1.6032115797 0.6308916385
C -1.4323164701 1.2572792521 -0.7319591319
C -2.1099884598 -0.1115353633 -0.8118543076
C -3.2990485345 -0.2591687922 0.1351823238
C -4.0280552440 -1.5803766306 -0.0814303291
H 4.6185703551 -1.1887696149 -1.8178986965
H 2.9717904538 -0.5818296638 -1.9531344425
H 3.2791855061 -2.1237195647 -1.1512303551
H 4.1799386916 0.6189384085 -0.1480384038
H 4.5963196228 -0.9169079624 0.6107417114
H 2.7817779139 0.0309566074 1.8502454897
H 2.1571077303 -1.3678466110 0.9784423414
H 1.1667737424 0.1192501606 -0.7294758311
H 1.8599707911 1.5307878549 0.0730764665
H 0.5472833191 0.9501210861 2.1332531700
H -0.2110160908 -0.3709482441 1.2555101175
H -0.3726562424 2.5947465288 0.5561179352
H -1.6265659044 1.6692898253 1.3710192466
H -2.1695854195 2.0260812794 -0.9778798501
H -0.6510652756 1.3041928689 -1.4930046441
H -2.4607957055 -0.2570621816 -1.8370756733
H -1.3829099910 -0.8985084393 -0.6045949119
H -2.9556153144 -0.2082518481 1.1696295237
H -3.9929506669 0.5689981707 -0.0273633742
H -3.3545344455 -2.4183061268 0.0853262883
H -4.8667271659 -1.6720155138 0.6046343730
H -4.4076353731 -1.6448912129 -1.0989572217
32
CONF131
C 4.6837734541 0.8771916140 1.0927102668
C 3.3470750686 0.1831891183 0.8574935745
C 3.1218581032 -0.1143072278 -0.6238149961
C 1.8427788290 -0.9051243238 -0.9015332856
C 0.5666761402 -0.1189852003 -0.6061283796
C -0.6812811590 -0.8934179062 -1.0265763545
C -1.9819525405 -0.1167918288 -0.8117685386
C -2.3584201418 0.0294388659 0.6616512660
C -3.6350364612 0.8437660971 0.8792478283
C -4.8930936123 0.1437983967 0.3769776861
H 4.7246744874 1.8174864900 0.5473134025
H 5.5049505364 0.2495357406 0.7531623617
H 4.8255205295 1.0867230324 2.1501938799
H 2.5448678255 0.8208682325 1.2318125291
H 3.3200558170 -0.7528955487 1.4198838389
H 3.9739442016 -0.6885066908 -0.9963663354
H 3.0910899021 0.8262297124 -1.1790576112
H 1.8481989376 -1.8211154894 -0.3059413735
H 1.8372262290 -1.1979212738 -1.9546555482
H 0.5971936308 0.8312070455 -1.1450144812
H 0.5164725716 0.1016415529 0.4601337202
H -0.7273507224 -1.8337807640 -0.4721959878
H -0.5943240465 -1.1416281368 -2.0875275450
H -1.8863147850 0.8751911424 -1.2599008764
H -2.7841988981 -0.6411404008 -1.3337047545
H -2.4858990258 -0.9631569641 1.1002002066
H -1.5432681438 0.5242577378 1.1926673424
H -3.7449383832 1.0356175210 1.9493000259
H -3.5336460823 1.8100287960 0.3798692868
H -4.9896479312 -0.8379329135 0.8353587480
H -5.7745780243 0.7286253511 0.6291728495
H -4.8675316684 0.0196512471 -0.7022715483
32
CONF41
C 5.1734034234 -0.2755108634 0.2115685100
C 3.6634948827 -0.4848081439 0.2238984555
C 2.9111844153 0.8437715663 0.1760881102
C 1.3946719063 0.6889449626 0.2977412946
C 0.7640910721 -0.0160238908 -0.9026393416
C -0.7636658053 0.0552250446 -0.9030557831
C -1.3979029917 -0.7134688231 0.2554426545
C -2.9153860610 -0.8519452789 0.1263613445
C -3.6594137872 0.4765145403 0.2494797249
C -5.1706513831 0.2771054960 0.2333826620
H 5.6927756074 -1.2302952962 0.2410852474
H 5.4843223548 0.3120690495 1.0726870357
H 5.4761092417 0.2529718467 -0.6897294773
H 3.3796769701 -1.0256337515 1.1296864463
H 3.3815355503 -1.0980966239 -0.6332698563
H 3.1484387081 1.3583239902 -0.7583036323
H 3.2642667281 1.4732050441 0.9969680522
H 0.9502492175 1.6830615242 0.3912317148
H 1.1675441445 0.1358858772 1.2107871514
H 1.0701724164 -1.0635891449 -0.9184858023
H 1.1344054230 0.4530065226 -1.8177647064
H -1.1314151556 -0.3632791778 -1.8433687129
H -1.0695017298 1.1021932650 -0.8628273965
H -0.9592577429 -1.7138798990 0.2917194319
H -1.1671483700 -0.2147375952 1.1983979623
H -3.1563383647 -1.3117021755 -0.8352532668
H -3.2718319808 -1.5243336298 0.9109010219
H -3.3680555965 0.9658320794 1.1817791966
H -3.3776840919 1.1336603669 -0.5746335552
H -5.6839465066 1.2319734971 0.3169568095
H -5.4809890477 -0.2001587561 -0.6935285437
H -5.4812503272 -0.3541485760 1.0631149726
32
CONF62
C 4.8703994454 -0.1375645336 1.0879576459
C 3.3617068799 -0.1722911730 0.8724802116
C 2.9576778815 0.5778577959 -0.3953629620
C 1.4439240406 0.6688790577 -0.5923391319
C 0.7898327531 -0.6869680168 -0.8561930079
C -0.6656092424 -0.5728487734 -1.3117137665
C -1.5968618678 -0.0244966004 -0.2320898975
C -3.0550748902 -0.0453101501 -0.6870394598
C -4.0134596648 0.6001299374 0.3149113932
C -4.1431490030 -0.1862123041 1.6147735274
H 5.3850124240 -0.5919186714 0.2442871224
H 5.1414169630 -0.6815724600 1.9894094079
H 5.2183068321 0.8882603400 1.1876945878
H 2.8620525653 0.2803047540 1.7320669752
H 3.0348859384 -1.2109819834 0.8051334021
H 3.4062026965 0.0867250870 -1.2623336044
H 3.3639696430 1.5912923860 -0.3447634331
H 1.2433777613 1.3244074591 -1.4435945843
H 0.9991749822 1.1274250698 0.2926526811
H 0.8308190996 -1.2987966703 0.0466279563
H 1.3578277385 -1.2030675384 -1.6343309052
H -1.0178576281 -1.5651307273 -1.6051193356
H -0.7184837043 0.0686900528 -2.1948369825
H -1.4828004880 -0.6264865790 0.6709254737
H -1.3164311963 1.0022367367 0.0094725186
H -3.1311821733 0.4894398465 -1.6373004929
H -3.3638741274 -1.0781541963 -0.8654285086
H -3.6723498334 1.6139021468 0.5365877091
H -4.9996564602 0.6779246473 -0.1488625350
H -4.8922786472 0.2697385339 2.2578295335
H -4.4447007777 -1.2109804715 1.4093668283
H -3.2002757770 -0.2056000609 2.1545520414
32
CONF44
C 4.8823369515 1.0963442821 -0.2194524909
C 4.0581948737 -0.1805738400 -0.1035246714
C 2.5585681759 0.1032893211 -0.1583306875
C 1.7317723614 -1.1749127958 -0.0341078476
C 0.2298301302 -0.9440134303 -0.2063547708
C -0.3872400782 -0.1268639281 0.9278708039
C -1.9148913997 -0.0819907043 0.8696614848
C -2.4440069140 0.6844451994 -0.3418484909
C -3.9530814814 0.9267489092 -0.2875976652
C -4.7696663095 -0.3557627363 -0.4015953633
H 5.9452369461 0.8712073718 -0.1784637407
H 4.6434818343 1.7785138777 0.5934421287
H 4.6732172482 1.5997455868 -1.1607811845
H 4.2948884216 -0.6814462199 0.8380082401
H 4.3265788930 -0.8604276309 -0.9155210755
H 2.3202660504 0.5952614189 -1.1044798599
H 2.2992788240 0.7903811276 0.6488917419
H 1.9184274828 -1.6324272736 0.9405278813
H 2.0656264995 -1.8817708212 -0.7981095239
H -0.2690615885 -1.9155546398 -0.2471375525
H 0.0570962780 -0.4410369254 -1.1592844777
H -0.0015734881 0.8937718311 0.9000348102
H -0.0873381286 -0.5702824287 1.8808058423
H -2.2988480707 -1.1035013526 0.8572592933
H -2.2843122861 0.4018764053 1.7775305720
H -1.9372309308 1.6515553321 -0.3915986503
H -2.2075996268 0.1374383657 -1.2560846182
H -4.2037086990 1.4342742051 0.6467973163
H -4.2275825320 1.5931780757 -1.1088195688
H -5.8314302539 -0.1243428593 -0.4426659698
H -4.5009084972 -0.8969106160 -1.3061217548
H -4.5969805121 -1.0044568301 0.4528447258
32
CONF153
C 3.2813597550 0.9325824571 1.6555181102
C 3.6909341515 0.1588921198 0.4071501407
C 2.5451877487 -0.0221743616 -0.5896486943
C 1.4304908832 -0.9254901749 -0.0642977500
C 0.4214398609 -1.3221838903 -1.1432653513
C -0.3481315714 -0.1551585171 -1.7668294047
C -1.1775754464 0.6726954953 -0.7836838341
C -2.2854418124 -0.1266440307 -0.1011085625
C -3.1910530948 0.7630636902 0.7479551880
C -4.2967481783 -0.0367990909 1.4269204995
H 2.8611563755 1.8981698000 1.3823710516
H 4.1450995789 1.1029278286 2.2939908032
H 2.5398183758 0.3824839569 2.2285070277
H 4.0745624773 -0.8218510893 0.6980687847
H 4.5024665361 0.6960931589 -0.0896873304
H 2.9471905599 -0.4606295208 -1.5067364685
H 2.1386786359 0.9591665832 -0.8406087013
H 0.9100041047 -0.4332843942 0.7572015037
H 1.8794585606 -1.8397730228 0.3330255795
H -0.2891748333 -2.0310629561 -0.7140332566
H 0.9532103361 -1.8422871087 -1.9444877587
H -1.0171026814 -0.5608550323 -2.5302922678
H 0.3565264769 0.5072632355 -2.2730204086
H -0.5269075941 1.1116854035 -0.0255189871
H -1.6329551533 1.4990232622 -1.3361371811
H -2.8873863247 -0.6294235121 -0.8621909405
H -1.8475257770 -0.8953416330 0.5379972844
H -2.5899583438 1.2687807911 1.5072503458
H -3.6376559938 1.5329174521 0.1142533789
H -4.9290026490 0.6146493894 2.0252796354
H -4.9183725599 -0.5319901263 0.6841855404
H -3.8718192021 -0.7971565457 2.0784909755
32
CONF173
C 4.7705556392 0.9832592584 -0.1381465982
C 3.4953324979 0.1882240603 -0.3940022606
C 2.6951572339 -0.0195041736 0.8905268959
C 1.4622037056 -0.9047457234 0.7044487416
C 0.3747374385 -0.2602343254 -0.1534206313
C -0.8801046351 -1.1290888608 -0.2115004474
C -1.9436487235 -0.5997246997 -1.1750463243
C -2.4978547425 0.7852522562 -0.8316673998
C -3.1466696345 0.8980585570 0.5489586052
C -4.3587577071 -0.0106126591 0.7198515044
H 5.3254419778 1.1248467974 -1.0624089771
H 5.4100154271 0.4613683131 0.5704683385
H 4.5321889137 1.9616138952 0.2732597593
H 3.7535581733 -0.7853007506 -0.8171382131
H 2.8856318783 0.7193015656 -1.1265483626
H 2.3857825127 0.9520451049 1.2833205887
H 3.3475525654 -0.4827357401 1.6351216934
H 1.0422370485 -1.1282253605 1.6885879393
H 1.7646590011 -1.8531331146 0.2536496254
H 0.7461318677 -0.1076352345 -1.1683350842
H 0.1286596443 0.7171029826 0.2654590798
H -1.3016197803 -1.2250626224 0.7906248544
H -0.5948113963 -2.1323966844 -0.5391121088
H -1.5121069277 -0.5511450583 -2.1782286721
H -2.7669749909 -1.3154609758 -1.2119765077
H -1.6935952477 1.5202257213 -0.9005854575
H -3.2420242882 1.0477709135 -1.5881806804
H -2.4112471523 0.6730184979 1.3228601550
H -3.4605799633 1.9351949796 0.6915115938
H -5.0826711577 0.1691913665 -0.0721074416
H -4.0689214163 -1.0575918170 0.6907329137
H -4.8411347793 0.1806563916 1.6756743835
32
CONF201
C 4.2837357679 0.4377811202 0.5628028027
C 3.4051704009 -0.8050849275 0.6504112291
C 2.6329664950 -1.0915085022 -0.6391290164
C 1.6287648142 -0.0107697603 -1.0441409169
C 0.4850983539 0.1627052974 -0.0467647545
C -0.5463102538 1.1707607426 -0.5496659879
C -1.6479207202 1.4750702807 0.4674844247
C -2.5435395962 0.2879112850 0.8264123699
C -3.3533738035 -0.2439491460 -0.3543761101
C -4.3407127517 -1.3203458358 0.0819525070
H 4.9540994545 0.3695018710 -0.2913058397
H 4.8844171341 0.5382757720 1.4638465473
H 3.6809766468 1.3358090001 0.4572596169
H 2.7079340603 -0.7003010838 1.4830271815
H 4.0385922816 -1.6696058254 0.8640405935
H 2.0993731906 -2.0380913370 -0.5211030755
H 3.3515084899 -1.2183792903 -1.4528773905
H 1.2061011964 -0.2858095068 -2.0141761721
H 2.1444392699 0.9418569109 -1.1756360611
H 0.8771148752 0.5090913187 0.9111572688
H 0.0092307995 -0.8060772928 0.1152608194
H -0.9901629669 0.8060473782 -1.4775380850
H -0.0324415525 2.1070196942 -0.7834503487
H -1.1829517411 1.8477550184 1.3837288970
H -2.2757578612 2.2758708965 0.0684531257
H -1.9395683643 -0.5192007074 1.2443533899
H -3.2375588399 0.6107964170 1.6068953414
H -3.8982890041 0.5821265926 -0.8174392345
H -2.6812142371 -0.6625041050 -1.1050437453
H -4.9045298706 -1.6910468633 -0.7707078126
H -3.8148675655 -2.1571360666 0.5365170435
H -5.0426673874 -0.9216431268 0.8111568081
32
CONF219
C 3.7148559415 -0.2223341126 -1.6712570474
C 3.6757405978 0.5731649749 -0.3713149050
C 3.1928115123 -0.2482419818 0.8257401324
C 1.7605575458 -0.7739831988 0.7135543483
C 0.7097019469 0.3317295845 0.6383153901
C -0.7095546550 -0.2308783353 0.6847014512
C -1.7599351958 0.8736201697 0.5882102373
C -3.1926295343 0.3726973841 0.7800383152
C -3.6766603725 -0.6223318084 -0.2765982222
C -3.7148976218 -0.0359751261 -1.6833422703
H 4.1615948991 0.3735469231 -2.4637604293
H 2.7141968673 -0.5063894893 -1.9856457965
H 4.3069213936 -1.1262964037 -1.5456190369
H 3.0379409088 1.4491691773 -0.4987977207
H 4.6828871037 0.9342396574 -0.1488146667
H 3.2680958491 0.3706198879 1.7234795674
H 3.8644188406 -1.1005639360 0.9563763636
H 1.5560560956 -1.3901393111 1.5931076020
H 1.6712574021 -1.4200573540 -0.1612488181
H 0.8337049235 0.8986284044 -0.2860954673
H 0.8527404270 1.0221072952 1.4734024130
H -0.8503767005 -0.7814644868 1.6182311538
H -0.8360913362 -0.9358464996 -0.1388746000
H -1.5549621425 1.6181084470 1.3620404584
H -1.6701754121 1.3767726307 -0.3758742883
H -3.2683987349 -0.1007244684 1.7622375961
H -3.8633344877 1.2356790513 0.7781005581
H -3.0399813506 -1.5083220602 -0.2679115116
H -4.6842227889 -0.9436714919 -0.0013271290
H -4.3057043804 0.8773691398 -1.6981252523
H -2.7138954811 0.1950106613 -2.0375793602
H -4.1625546911 -0.7459340706 -2.3749102029
32
CONF193
C 4.1613336756 0.6250019150 0.8338117706
C 2.9041428778 -0.1575016989 1.1964013699
C 2.4480913168 -1.1123289404 0.0917000013
C 2.0690668604 -0.4390095670 -1.2296601242
C 0.9262671087 0.5737038257 -1.1383352794
C -0.4050556331 -0.0480380572 -0.7212298546
C -1.5401712419 0.9735358927 -0.7664120928
C -2.9179318124 0.3652800871 -0.5013782259
C -3.0990122661 -0.1416382145 0.9281500619
C -4.5206180259 -0.6358752485 1.1704773637
H 4.5019121459 1.2071889158 1.6869754145
H 3.9715418591 1.3096580841 0.0114711661
H 4.9595198170 -0.0536743815 0.5407129798
H 2.0997674013 0.5383639967 1.4397536898
H 3.1035844570 -0.7490221766 2.0934924203
H 1.5968721071 -1.6893494490 0.4580754160
H 3.2560313926 -1.8204013265 -0.1105605954
H 1.7845431857 -1.2212623474 -1.9382371285
H 2.9476357610 0.0631287790 -1.6387567867
H 0.8034307912 1.0352994925 -2.1218921143
H 1.1890216160 1.3695545795 -0.4394680394
H -0.3186540679 -0.4489872080 0.2887065404
H -0.6402253461 -0.8767433690 -1.3937902971
H -1.3465654158 1.7614963731 -0.0344949541
H -1.5518038487 1.4395789701 -1.7551502338
H -3.6777357610 1.1257479362 -0.6990474909
H -3.0877077322 -0.4581463044 -1.1992953425
H -2.4006799844 -0.9573009216 1.1217153773
H -2.8716090368 0.6663213129 1.6273937948
H -5.2365251450 0.1671877537 1.0092029051
H -4.7610976268 -1.4493394928 0.4894872597
H -4.6324397813 -0.9965989063 2.1900591683
32
CONF122
C 3.5803146108 0.1381849007 -1.9363741811
C 3.9104555476 -0.3770382081 -0.5397642230
C 3.0106973997 0.2100305963 0.5488892844
C 1.5586383221 -0.2541711929 0.4513626505
C 0.7182127745 0.2847553457 1.6075682898
C -0.7175378445 -0.2422683145 1.6144467360
C -1.5587611899 0.2681824170 0.4459956326
C -3.0099487076 -0.1963786136 0.5541914578
C -3.9102830573 0.3622951091 -0.5488522655
C -3.5817097690 -0.1899937134 -1.9315711265
H 3.6165914404 1.2251483797 -1.9579190252
H 2.5885647167 -0.1802301449 -2.2458699517
H 4.2986561928 -0.2436698118 -2.6579964576
H 4.9471636441 -0.1221339288 -0.3074142112
H 3.8274808518 -1.4661651459 -0.5257484104
H 3.0449131091 1.3007461963 0.4941000069
H 3.4072107528 -0.0827331093 1.5245617518
H 1.5288028658 -1.3464811050 0.4636627125
H 1.1335130579 0.0835243159 -0.4935462695
H 0.7010063173 1.3763321356 1.5628558132
H 1.1966386882 0.0021669369 2.5488911450
H -1.1954321906 0.0630875286 2.5489177936
H -0.7002464881 -1.3346121784 1.5962893583
H -1.5309646543 1.3605453855 0.4329576710
H -1.1328722538 -0.0904994355 -0.4908052668
H -3.0419895444 -1.2881602545 0.5258986574
H -3.4073444083 0.1192098200 1.5223426846
H -4.9469865408 0.1143713894 -0.3090823026
H -3.8265621118 1.4513444240 -0.5637490786
H -4.2985444507 0.1755537344 -2.6630679953
H -2.5887627124 0.1167976652 -2.2488956351
H -3.6217668249 -1.2770235382 -1.9249829254
32
CONF156
C 3.4691700513 -0.8019169015 -1.5347071900
C 2.7477247431 -1.1865940632 -0.2479598054
C 2.8213304095 -0.1051748625 0.8315070239
C 2.1692642838 1.2282522865 0.4568996070
C 0.6829420980 1.1431117852 0.1054048808
C -0.1825837707 0.6644726859 1.2695588047
C -1.6817598507 0.7628161982 0.9833060239
C -2.1584458803 -0.2223163120 -0.0822841726
C -3.6742955466 -0.1785346064 -0.2628524906
C -4.1483748910 -1.1663332436 -1.3224881170
H 3.4730702181 -1.6389272861 -2.2291786733
H 4.5001933164 -0.5260124320 -1.3237933873
H 2.9801513394 0.0383171087 -2.0204141349
H 3.2024472149 -2.0960621070 0.1527523661
H 1.7047032130 -1.4172665552 -0.4702980862
H 3.8729073028 0.0858642749 1.0611089665
H 2.3560492030 -0.4882724053 1.7417197083
H 2.7036706787 1.6618150997 -0.3904674000
H 2.2910321614 1.9126684217 1.3006343724
H 0.5493626572 0.4831340648 -0.7516481339
H 0.3461736679 2.1393754039 -0.1933474937
H 0.0467430898 1.2736486726 2.1476612875
H 0.0616608214 -0.3714592811 1.5109374959
H -2.2278299543 0.5650161741 1.9093294710
H -1.9251942684 1.7808797657 0.6696813679
H -1.6825572598 0.0069957822 -1.0372892369
H -1.8605099576 -1.2338933685 0.2046744942
H -4.1578272208 -0.4085146693 0.6895030396
H -3.9731256615 0.8325764502 -0.5488498219
H -3.6915075615 -0.9418631893 -2.2837625719
H -3.8769053617 -2.1821398881 -1.0438218475
H -5.2286283109 -1.1178199239 -1.4354185236
32
CONF67
C 4.1832810386 -1.5064364428 0.1151327400
C 3.8396801406 -0.2366755083 0.8860492170
C 2.3814525841 0.1926309061 0.7172434250
C 2.0479210372 0.6335343516 -0.7074800902
C 0.6757126937 1.2982579739 -0.8261602633
C -0.4856812723 0.3417105226 -0.5620844452
C -1.8348001617 1.0193752698 -0.7951315212
C -3.0265860870 0.0746000409 -0.6347652410
C -3.2467030922 -0.3918712225 0.8031288566
C -4.5097786252 -1.2356643848 0.9316092077
H 3.5138810504 -2.3154211475 0.3992304576
H 5.2039305070 -1.8137667358 0.3306519762
H 4.0964323777 -1.3465953384 -0.9561263652
H 4.4944884937 0.5743258730 0.5588742667
H 4.0309325166 -0.4067512131 1.9483028118
H 2.1827008806 1.0255545318 1.3964134584
H 1.7342618794 -0.6363709348 1.0086842373
H 2.0823619332 -0.2266748092 -1.3780761767
H 2.8081330137 1.3454143841 -1.0391247331
H 0.5720075649 1.7050477877 -1.8354780307
H 0.6180829240 2.1361872483 -0.1271009273
H -0.4322603971 -0.0164003581 0.4658798387
H -0.3980271861 -0.5222045178 -1.2253852826
H -1.9424863922 1.8561497185 -0.1007448932
H -1.8494605665 1.4294114310 -1.8082670173
H -3.9281564373 0.5911775443 -0.9736813660
H -2.8850135526 -0.7966220960 -1.2787376488
H -2.3902799434 -0.9803703080 1.1356460694
H -3.3256762393 0.4809386885 1.4553440203
H -4.6494586216 -1.5618953101 1.9593502279
H -5.3839656449 -0.6622926274 0.6309130276
H -4.4443703675 -2.1166274569 0.2969050259
32
CONF179
C 4.8008242073 0.9424200188 0.1008099706
C 3.5136554632 0.1758458205 0.3823708944
C 2.6977034391 -0.0402226526 -0.8908756763
C 1.4538302448 -0.9039836127 -0.6781992554
C 0.3765584449 -0.2238636175 0.1648151935
C -0.8745140153 -1.0926248633 0.2781565618
C -1.9383787210 -0.5119399421 1.2112442006
C -2.5141664104 0.8385438257 0.7777025980
C -3.1743747990 0.8471663654 -0.6021685416
C -4.3713965571 -0.0916345074 -0.7023478544
H 4.5770211204 1.9165071910 -0.3284304555
H 5.4249673197 0.3947849598 -0.6019639114
H 5.3656343423 1.0922322222 1.0177272360
H 2.9208497744 0.7307944027 1.1110890811
H 3.7581596788 -0.7946201117 0.8204363347
H 3.3358852620 -0.5257066461 -1.6336090324
H 2.3992648689 0.9292246756 -1.2970008683
H 1.7458566421 -1.8436930264 -0.2029953641
H 1.0278677458 -1.1485685102 -1.6546903510
H 0.1224432340 0.7333900580 -0.2936897648
H 0.7608658968 -0.0254272896 1.1668880914
H -0.5835018143 -2.0733537624 0.6640194428
H -1.2979889835 -1.2500319832 -0.7153181415
H -2.7517761446 -1.2340490360 1.3031820909
H -1.5010095173 -0.3891650602 2.2055196905
H -3.2566867342 1.1422833949 1.5203317774
H -1.7200741027 1.5876404148 0.7894175243
H -3.5073528302 1.8668824006 -0.8114277973
H -2.4402623895 0.5834284700 -1.3650415612
H -4.8641797494 0.0276271366 -1.6645204057
H -4.0628673673 -1.1292494279 -0.6067176928
H -5.0925276159 0.1275745460 0.0821480960
32
CONF123
C 3.5862917307 0.1418295585 1.9351631442
C 3.9114824768 -0.3781668547 0.5391875487
C 3.0108076413 0.2087783886 -0.5487794270
C 1.5590252716 -0.2563117214 -0.4510378176
C 0.7178589212 0.2847529464 -1.6057043284
C -0.7178558519 -0.2423401067 -1.6133677621
C -1.5590852446 0.2661274491 -0.4440505254
C -3.0111255789 -0.1951765145 -0.5548667384
C -3.9117830244 0.3639783454 0.5476523707
C -3.5856869380 -0.1902238253 1.9301902749
H 4.3040376224 -0.2418245775 2.6564268864
H 2.5935117619 -0.1709521637 2.2471105575
H 3.6279333875 1.2286527012 1.9540951040
H 3.8251935349 -1.4670624793 0.5282388844
H 4.9484096402 -0.1270000267 0.3037761984
H 3.4069380134 -0.0832601354 -1.5248050570
H 3.0443768909 1.2994797031 -0.4935138503
H 1.1343158669 0.0791142103 0.4948833154
H 1.5296748951 -1.3486057102 -0.4656532052
H 1.1960527635 0.0042547936 -2.5477732318
H 0.7004847230 1.3762287192 -1.5586893245
H -0.7006484316 -1.3347055880 -1.5972528831
H -1.1957283878 0.0647774047 -2.5472641062
H -1.1346230527 -0.0961552677 0.4920202979
H -1.5291967260 1.3583861221 -0.4277688459
H -3.4065418304 0.1226876489 -1.5230827780
H -3.0456166219 -1.2869219467 -0.5282176818
H -3.8261760202 1.4528698077 0.5636935988
H -4.9486410221 0.1181060460 0.3064334407
H -2.5930153816 0.1155102013 2.2493808203
H -4.3034020127 0.1749298966 2.6610174662
H -3.6264983299 -1.2772113234 1.9222195894
32
CONF217
C 3.0236638760 -1.3274160039 1.4144382257
C 3.0280230442 -1.1460695274 -0.0992640582
C 3.0504984120 0.3211771790 -0.5327792502
C 1.8379303171 1.1447610546 -0.0945369617
C 0.5212052488 0.6576039561 -0.6958373075
C -0.6385921134 1.5800945416 -0.3263074417
C -1.9538284870 1.2136432459 -1.0168570145
C -2.4999145737 -0.1749365844 -0.6789892534
C -2.8291404031 -0.3597007917 0.8009015032
C -3.5075027746 -1.6999083942 1.0608611426
H 2.1002539696 -0.9552662952 1.8500147010
H 3.8573700086 -0.7919008392 1.8634757911
H 3.1158642351 -2.3810726005 1.6675312924
H 2.1578158137 -1.6448834288 -0.5286686783
H 3.9161436376 -1.6327586812 -0.5099464571
H 3.1229916436 0.3592412157 -1.6227046429
H 3.9507206918 0.7895300037 -0.1267120106
H 2.0025268965 2.1805486522 -0.4033351371
H 1.7624389335 1.1410690491 0.9941093548
H 0.3101867347 -0.3494097234 -0.3363305414
H 0.6154873221 0.6142994282 -1.7838170954
H -0.3792785793 2.6025927942 -0.6136948752
H -0.7756038972 1.5744596420 0.7564790486
H -2.7052141263 1.9594832378 -0.7451007189
H -1.8079377942 1.2730481485 -2.0984094426
H -3.4122792340 -0.3303761762 -1.2608338060
H -1.7852668395 -0.9392545281 -0.9890462813
H -1.9140657808 -0.3047487360 1.3925916661
H -3.4866411874 0.4496876844 1.1268424156
H -3.7275943236 -1.8190787283 2.1190257593
H -4.4403986948 -1.7697583035 0.5056337850
H -2.8629409260 -2.5190383239 0.7493420105
32
CONF155
C 4.1756578211 1.1344246706 -1.3186006558
C 3.6850299703 0.1854732362 -0.2313783136
C 2.1653801300 0.2251189132 -0.0846077379
C 1.6724340443 -0.7325784331 0.9983982532
C 0.1672015974 -0.6375350614 1.2516334360
C -0.6713013228 -1.1182390646 0.0685004896
C -2.1580452479 -1.2552689068 0.4012352838
C -2.8466404445 0.0441610275 0.8263250623
C -2.7769402568 1.1778494890 -0.1982854093
C -3.4604442883 0.8391295105 -1.5181763338
H 3.8912209312 2.1583605284 -1.0865077507
H 3.7417775320 0.8686136760 -2.2799965103
H 5.2584657100 1.0896672933 -1.4058803649
H 4.1467727120 0.4553478354 0.7212918449
H 3.9960654786 -0.8338404410 -0.4716538770
H 1.7116197322 -0.0356505142 -1.0422671662
H 1.8550682071 1.2425808607 0.1660025511
H 2.1980006376 -0.5062840332 1.9297843914
H 1.9283613868 -1.7572111150 0.7176668217
H -0.0855370715 0.3976285022 1.4877821452
H -0.0785480977 -1.2475453430 2.1247001969
H -0.3020658892 -2.0977560103 -0.2468157385
H -0.5486991933 -0.4367225883 -0.7732981529
H -2.6734822713 -1.6657070981 -0.4691460967
H -2.2701045606 -1.9777742912 1.2139951146
H -3.8977136598 -0.1802793911 1.0261480379
H -2.4063634896 0.3925036669 1.7626059906
H -3.2626991002 2.0557069336 0.2352219343
H -1.7354112090 1.4436192187 -0.3856507746
H -3.4681447228 1.7080885389 -2.1722134412
H -2.9412917269 0.0340286200 -2.0312980563
H -4.4892386363 0.5307713330 -1.3447834129
32
CONF126
C 4.6906028058 0.8410599900 1.1147461526
C 3.3538904602 0.1532242595 0.8619547965
C 3.1196014671 -0.0881589405 -0.6281367210
C 1.8428570733 -0.8750794699 -0.9269469445
C 0.5641236132 -0.1018296617 -0.6096492175
C -0.6813569764 -0.8801053795 -1.0302424642
C -1.9852034659 -0.1087672562 -0.8166034977
C -2.3521807164 0.0576788177 0.6570113492
C -3.6480820526 0.8425255682 0.8694979430
C -4.8923186279 0.0944536676 0.4034198218
H 4.8396142934 1.0093653189 2.1785403617
H 4.7254279682 1.8020359514 0.6062430169
H 5.5105678948 0.2292030760 0.7450699637
H 2.5525342448 0.7737336874 1.2659677515
H 3.3330199795 -0.8038863387 1.3882170251
H 3.9720621055 -0.6430850553 -1.0280020014
H 3.0801124990 0.8726786669 -1.1468725098
H 1.8517644956 -1.8070106242 -0.3565859514
H 1.8373289457 -1.1390777304 -1.9876237605
H 0.5835047481 0.8557729913 -1.1356914364
H 0.5214004708 0.1036244788 0.4599028744
H -0.7241611392 -1.8205272552 -0.4757061696
H -0.5937047126 -1.1282785478 -2.0911681052
H -1.8999250058 0.8769760581 -1.2803590322
H -2.7873856371 -0.6465328292 -1.3247970152
H -2.4498199261 -0.9286018350 1.1169522673
H -1.5455116733 0.5845701709 1.1698090407
H -3.7499698633 1.0607249565 1.9352644850
H -3.5798579341 1.7970431047 0.3426823724
H -5.7866453702 0.6610571734 0.6518433588
H -4.8774180441 -0.0584470216 -0.6723112866
H -4.9551491099 -0.8767617128 0.8892843597
32
CONF77
C 5.2501293385 -0.2577669426 -0.0950034874
C 3.7649336743 -0.6013175473 -0.0951937961
C 2.9066057868 0.6191073973 -0.4231231352
C 1.4132349738 0.3074307020 -0.5365110246
C 0.7667776254 -0.0385081974 0.8037932149
C -0.7232483874 -0.3645628429 0.6861619195
C -1.5778749183 0.8428288654 0.3019020292
C -3.0790684307 0.5828463875 0.4339903571
C -3.6074871757 -0.4457047277 -0.5641049655
C -5.1224109715 -0.5888709880 -0.4727426515
H 5.5561395192 0.1130272479 -1.0708317524
H 5.8462130380 -1.1357616043 0.1416633118
H 5.4619161659 0.5113824142 0.6444443945
H 3.4911072615 -0.9944934160 0.8850640307
H 3.5735953842 -1.3833292426 -0.8336408939
H 3.2483349645 1.0359117520 -1.3739663780
H 3.0574209660 1.3828069796 0.3435734206
H 1.2707466259 -0.5245163817 -1.2304025964
H 0.9124583510 1.1808273022 -0.9577763671
H 0.8997392138 0.7985697257 1.4935208012
H 1.2733292178 -0.9051125132 1.2324682994
H -1.0720457789 -0.7441063340 1.6499404937
H -0.8532316194 -1.1590540257 -0.0506631452
H -1.3117308219 1.6795807597 0.9526501067
H -1.3606735447 1.1387971871 -0.7258905577
H -3.2997452656 0.2452018779 1.4495605218
H -3.6109747212 1.5248605545 0.2776946114
H -3.3325007558 -0.1383186292 -1.5757213150
H -3.1453688597 -1.4153224859 -0.3726280851
H -5.4144196011 -0.9049392944 0.5263018692
H -5.6091351690 0.3602579849 -0.6865592200
H -5.4809718635 -1.3274421773 -1.1855664837
32
CONF69
C 4.7423477951 0.8681542798 -0.2629207828
C 4.2374325308 -0.3266917157 0.5385851233
C 2.7530850818 -0.2298355191 0.8941293463
C 1.8301957920 -0.3468293756 -0.3172919913
C 0.3575977047 -0.3301649751 0.0873463639
C -0.5652785097 -0.4336691740 -1.1253081187
C -2.0465598778 -0.5187602860 -0.7549388268
C -2.5786205101 0.7616057779 -0.1120932615
C -4.1025579613 0.7806414504 0.0153237643
C -4.6354788044 -0.2677917053 0.9854918475
H 5.8151985392 0.7889751356 -0.4218085680
H 4.5416521502 1.7945480501 0.2708066027
H 4.2591380612 0.9183784843 -1.2349192256
H 4.8124337849 -0.3965683059 1.4649647106
H 4.4121086381 -1.2439706503 -0.0282937617
H 2.5662489964 0.7205482378 1.3997180536
H 2.5088659773 -1.0302976186 1.5971478673
H 2.0492965871 -1.2767043862 -0.8480135758
H 2.0159077488 0.4800841982 -1.0047042165
H 0.1508276904 0.5940308626 0.6295281494
H 0.1584579918 -1.1650451580 0.7637229257
H -0.2958454975 -1.3275160605 -1.6938115397
H -0.4046289358 0.4299238955 -1.7753390681
H -2.6205715948 -0.7179635549 -1.6635156656
H -2.1932528941 -1.3611602712 -0.0769250040
H -2.1403758908 0.8864745782 0.8795258641
H -2.2699608544 1.6137289479 -0.7228823509
H -4.4095602845 1.7702862862 0.3621047167
H -4.5487143436 0.6232659958 -0.9693766282
H -4.4314995770 -1.2719573048 0.6236185908
H -4.1709494631 -0.1514798847 1.9622440133
H -5.7113872967 -0.1610900923 1.1020299886
32
CONF175
C 3.9705233871 0.9031633041 -1.3546568454
C 3.2738523787 0.0202952306 -0.3254200849
C 2.0924718091 0.7391789000 0.3225447244
C 1.4425195236 -0.0541677146 1.4571156405
C 0.8346527808 -1.3974589443 1.0447844069
C -0.2320947726 -1.3182847447 -0.0486854170
C -1.4485482534 -0.4843221563 0.3476329590
C -2.5415527826 -0.5439473545 -0.7177820545
C -3.8083765237 0.2205465912 -0.3303500382
C -3.6078311981 1.7313240511 -0.2812010965
H 4.3506874917 1.8087236559 -0.8866951414
H 3.2761544559 1.1912567465 -2.1410156614
H 4.8050326177 0.3752981515 -1.8098890569
H 3.9884269128 -0.2673430703 0.4494555283
H 2.9277928235 -0.8915638045 -0.8147009117
H 1.3484666315 0.9721303115 -0.4410497459
H 2.4448000164 1.6898944059 0.7316363903
H 0.6674939169 0.5637611697 1.9146416194
H 2.1967082994 -0.2471271998 2.2245988290
H 0.3898940268 -1.8528164921 1.9334915067
H 1.6316469283 -2.0621025724 0.7057271129
H -0.5620410644 -2.3359844883 -0.2744647994
H 0.2032839790 -0.9108199205 -0.9626846967
H -1.8479635624 -0.8570096821 1.2942187796
H -1.1442988744 0.5516329095 0.4958714042
H -2.1526908409 -0.1422808033 -1.6567001049
H -2.8045529403 -1.5905430084 -0.8921402049
H -4.5880332541 -0.0064989349 -1.0613611198
H -4.1566904055 -0.1313087268 0.6433988921
H -2.9068174775 2.0074177506 0.5018556205
H -3.2237270965 2.0938826275 -1.2321826760
H -4.5529961049 2.2302038805 -0.0803210543
32
CONF47
C 4.7764640351 0.3340773120 -0.3948400812
C 3.9418539981 -0.9374850667 -0.2900098237
C 2.4364266439 -0.6741951981 -0.3477074538
C 1.9140926105 0.0942259600 0.8656351333
C 0.3867619601 0.1429872994 0.9292148446
C -0.2324994597 0.9586525107 -0.2046978396
C -1.7359295811 1.1817055148 -0.0346955685
C -2.5540891312 -0.1031193518 -0.1472995392
C -4.0559982513 0.1720476124 -0.1154221401
C -4.8701916536 -1.1125347420 -0.2160278149
H 4.5241723194 0.8795225033 -1.3016237359
H 5.8353995479 0.0884402272 -0.4252527273
H 4.6036192105 0.9843530942 0.4583904403
H 4.1823435412 -1.4532047024 0.6425457552
H 4.2098414861 -1.6034039179 -1.1137282842
H 1.9168983301 -1.6342635216 -0.4029183500
H 2.2099895247 -0.1203268244 -1.2603767242
H 2.3012112795 1.1145621552 0.8520014385
H 2.2849671591 -0.3908957174 1.7722286427
H 0.0908358300 0.5887764712 1.8822815302
H -0.0010149064 -0.8769050783 0.9044191691
H -0.0558853491 0.4573887533 -1.1578634191
H 0.2617136595 1.9326829259 -0.2438719952
H -1.9261220485 1.6473526357 0.9353388491
H -2.0736167034 1.8789645334 -0.8057209474
H -2.3015784957 -0.6094544154 -1.0820481512
H -2.3006887813 -0.7748966571 0.6744404116
H -4.3071072116 0.6894868060 0.8132859148
H -4.3192476653 0.8340799561 -0.9436347908
H -4.6395286739 -1.7753322212 0.6149906141
H -5.9349854966 -0.8938201785 -0.1961832006
H -4.6433376525 -1.6347629331 -1.1428262946
32
CONF146
C 4.1893864481 -1.1481756939 1.1291156968
C 2.7784236977 -0.8387205105 0.6420929353
C 2.7773010693 0.2698979641 -0.4087834310
C 1.3965554555 0.5375110825 -1.0091198823
C 0.4091796837 1.1305489310 -0.0050948921
C -0.8731197290 1.6478949478 -0.6593860851
C -1.7055892383 0.5832111820 -1.3781132593
C -2.1868978462 -0.5686125732 -0.4943684635
C -3.1211148967 -0.1248380832 0.6295603809
C -3.6994043397 -1.3173322714 1.3829026509
H 4.6412320578 -0.2630074207 1.5713874335
H 4.8158414234 -1.4739200670 0.3015009173
H 4.1721880511 -1.9361557937 1.8781198393
H 2.1648749324 -0.5396761699 1.4933635628
H 2.3374730962 -1.7412102388 0.2122006036
H 3.4588660184 -0.0141532729 -1.2147616021
H 3.1621638464 1.1898490553 0.0381164639
H 0.9996265864 -0.3965589429 -1.4107307792
H 1.5090483787 1.2365882648 -1.8418324710
H 0.8908503910 1.9682788280 0.5060918504
H 0.1578087865 0.3873598389 0.7516791033
H -0.6068850559 2.4172665265 -1.3890139777
H -1.4873728819 2.1267535203 0.1055631161
H -2.5789240654 1.0749564335 -1.8146883316
H -1.1212674190 0.1698400202 -2.2023054469
H -2.7195369155 -1.2825431253 -1.1282872015
H -1.3301252943 -1.0925612795 -0.0671994596
H -2.5785281520 0.5100818985 1.3317699706
H -3.9365113043 0.4665551776 0.2062196026
H -4.2721986550 -1.9524149644 0.7105063697
H -2.9020050571 -1.9145096249 1.8198952725
H -4.3561956863 -0.9831888773 2.1825037162
32
CONF229
C 4.5182401992 0.8526879088 -0.9759335277
C 3.6760696693 -0.3062814962 -0.4555799890
C 2.3910611412 0.1791176455 0.2119281102
C 1.5419913187 -0.9827506038 0.7228750078
C 0.3212465356 -0.5379353899 1.5307434637
C -0.6961834105 0.3106423067 0.7648011423
C -1.3486380830 -0.4328954117 -0.3984263107
C -2.3772036065 0.4108315437 -1.1547697526
C -3.6050059375 0.8269622967 -0.3419790461
C -4.4279343771 -0.3561193979 0.1553477241
H 4.7952083895 1.5174147611 -0.1606841081
H 3.9608695905 1.4281317960 -1.7117312261
H 5.4280292491 0.4851613225 -1.4442928210
H 4.2603583078 -0.8849461862 0.2637250882
H 3.4216670092 -0.9710987267 -1.2844294497
H 1.8199367426 0.7652422505 -0.5101049963
H 2.6450950097 0.8351543758 1.0481968821
H 2.1621756730 -1.6120112861 1.3668292964
H 1.2254420966 -1.5987085378 -0.1205953980
H 0.6675743459 0.0363530364 2.3938941610
H -0.1842688040 -1.4293855293 1.9109999570
H -0.2166143750 1.2174365133 0.3921292836
H -1.4684218450 0.6173528787 1.4727490486
H -0.5772243040 -0.7304201794 -1.1111834766
H -1.8191432562 -1.3447934834 -0.0270883439
H -1.8845047593 1.3138973413 -1.5243712651
H -2.7156736121 -0.1580857792 -2.0245977779
H -3.2974949388 1.4390634898 0.5073098067
H -4.2352141902 1.4516323617 -0.9798886496
H -5.3427860377 -0.0059155591 0.6276898628
H -4.6965955441 -1.0073319290 -0.6736440389
H -3.8726646435 -0.9382273393 0.8859123149
32
CONF133
C 5.0508088375 0.2379169250 0.2731796300
C 4.0123655033 -0.8773744689 0.2201547379
C 2.5905372573 -0.3983012606 0.5188629604
C 2.0233060183 0.5147178234 -0.5666890239
C 0.5900463242 0.9685613389 -0.2835016654
C -0.4436422162 -0.1472030090 -0.4253271766
C -1.8673371230 0.3726161811 -0.2364607964
C -2.9025136927 -0.7418370971 -0.3758874522
C -4.3461585167 -0.2427551074 -0.2992353464
C -4.7290448688 0.2801231802 1.0808590897
H 4.8778473713 0.9714282837 -0.5096419998
H 6.0492089725 -0.1713796572 0.1381149657
H 5.0146248699 0.7444491390 1.2351287384
H 4.2815073123 -1.6413079812 0.9535130534
H 4.0331804534 -1.3457936643 -0.7664717199
H 2.5833008687 0.1317266895 1.4743060022
H 1.9484924666 -1.2750576097 0.6207264305
H 2.0526609382 -0.0057069251 -1.5270450347
H 2.6527398740 1.4022790239 -0.6503284405
H 0.3332176862 1.7680819296 -0.9830814566
H 0.5370850882 1.3850929513 0.7251429279
H -0.2518820454 -0.9279304216 0.3127860928
H -0.3520774044 -0.5977718836 -1.4167360057
H -1.9476097349 0.8306674402 0.7506996349
H -2.0705691866 1.1468025842 -0.9805782162
H -2.7549852648 -1.2362317591 -1.3394394591
H -2.7379129242 -1.4877640928 0.4052725546
H -4.4930435881 0.5466551881 -1.0398501321
H -5.0129417703 -1.0680968879 -0.5598820881
H -5.7825952614 0.5485760794 1.1027434593
H -4.5529491073 -0.4816137624 1.8371565109
H -4.1495084840 1.1625330217 1.3381854946
32
CONF93
C 5.1100763496 0.8371682508 0.0834074741
C 4.1229243544 -0.3198940446 -0.0161046431
C 2.6824811333 0.1405516063 0.1978911291
C 1.6936361266 -1.0186918369 0.0914015334
C 0.2491615667 -0.6237138399 0.4041890025
C -0.3709050769 0.2823126532 -0.6581441522
C -1.8174125363 0.6708239979 -0.3467506957
C -2.7909484667 -0.5041295470 -0.4329599545
C -4.2572410817 -0.0732999670 -0.3725898890
C -4.6533801245 0.5157801327 0.9767440896
H 5.0515176785 1.3037145970 1.0642581550
H 4.8888282861 1.5919795374 -0.6679206655
H 6.1276609899 0.4866257706 -0.0705652152
H 4.3745333378 -1.0765956281 0.7306675141
H 4.2083447194 -0.7863977735 -1.0002298995
H 2.4423787586 0.9028459704 -0.5452469286
H 2.5945789214 0.5990226794 1.1858504359
H 1.9998430888 -1.8003933122 0.7913464843
H 1.7406768376 -1.4424256885 -0.9146408360
H 0.2155573559 -0.1187798640 1.3725291757
H -0.3444664902 -1.5359709050 0.4842706171
H -0.3329916766 -0.2217085899 -1.6270251116
H 0.2192399155 1.1971216574 -0.7368175333
H -1.8570443112 1.1116278346 0.6507166798
H -2.1324051466 1.4353780718 -1.0616100559
H -2.6211775703 -1.0301676933 -1.3758552182
H -2.5973594645 -1.2067271691 0.3793987798
H -4.4503392592 0.6601085879 -1.1589745536
H -4.8839396055 -0.9454346403 -0.5739642951
H -4.4297762119 -0.1860617837 1.7771885112
H -4.1176730737 1.4412858018 1.1694799480
H -5.7193219813 0.7303236578 0.9960748055
32
CONF104
C 4.8048642911 0.5693376282 1.2097109173
C 4.0791939329 -0.0458333405 0.0188336195
C 2.5688542415 0.1660939108 0.1003446070
C 1.8424600674 -0.4536576341 -1.0917487049
C 0.3421624641 -0.1576973464 -1.1094064701
C -0.4144734092 -0.8202110847 0.0414794421
C -1.9346032595 -0.7537158007 -0.1176084594
C -2.4911528607 0.6623514723 0.0202906431
C -4.0074899621 0.7349026223 -0.1689353155
C -4.7910227511 0.0534089709 0.9475495866
H 4.4573839673 0.1233817413 2.1389702560
H 4.6211984214 1.6405167192 1.2549141559
H 5.8770109373 0.4072300174 1.1301852530
H 4.2899535415 -1.1170485479 -0.0210005263
H 4.4564418469 0.3991167115 -0.9049574463
H 2.3573679406 1.2376649779 0.1333048175
H 2.1990992607 -0.2751900746 1.0274351045
H 1.9978116960 -1.5353438149 -1.0862388207
H 2.2852432627 -0.0630971034 -2.0117061260
H -0.0718550247 -0.5205180696 -2.0535740679
H 0.1961887742 0.9233383303 -1.0762389792
H -0.1370142222 -0.3496338750 0.9862738438
H -0.1169952244 -1.8706991885 0.0926294820
H -2.2128656588 -1.1559921683 -1.0949531798
H -2.3862454544 -1.3910145310 0.6446263071
H -2.2323403144 1.0560936060 1.0061959907
H -2.0224247194 1.3044152940 -0.7275814125
H -4.3008556698 1.7865730245 -0.2110521694
H -4.2714339433 0.2806903014 -1.1267187420
H -5.8578963065 0.2116404711 0.8087042592
H -4.6070485343 -1.0174272498 0.9575787151
H -4.5063380017 0.4618074971 1.9146558129
32
CONF64
C 4.1086422740 0.1966364677 -1.6311371558
C 4.0138420195 -0.5781868873 -0.3213971324
C 3.0580244023 0.0587408883 0.6883545412
C 1.5967635005 0.0260104570 0.2439301900
C 0.6649025575 0.5351794086 1.3421492276
C -0.7915049476 0.6575600233 0.8919071129
C -1.4301404217 -0.6893062845 0.5545689425
C -2.9448700988 -0.6052629536 0.3622943792
C -3.3572249030 0.2060371978 -0.8645241269
C -4.8657623648 0.1687992960 -1.0805587185
H 3.1593925222 0.1856414218 -2.1598758528
H 4.8617344031 -0.2476707007 -2.2777391303
H 4.3863506570 1.2310200732 -1.4407960754
H 5.0080031428 -0.6325120515 0.1285207727
H 3.6889698437 -1.6005145131 -0.5278711982
H 3.3593890651 1.0939372805 0.8657584424
H 3.1462082878 -0.4766903567 1.6371879701
H 1.3299982828 -0.9992651183 -0.0183174266
H 1.4670982345 0.6462293235 -0.6445303412
H 1.0126496782 1.5190605679 1.6673922164
H 0.7218486248 -0.1345966108 2.2037846076
H -0.8386867945 1.3162487501 0.0229966551
H -1.3653282380 1.1252593553 1.6959203493
H -0.9807392613 -1.0930635643 -0.3543560946
H -1.2213021039 -1.3881225452 1.3684840840
H -3.3396751784 -1.6191715764 0.2581381347
H -3.3988670668 -0.1655994929 1.2537456084
H -3.0398517860 1.2428319375 -0.7433530945
H -2.8543796566 -0.1966076109 -1.7468874718
H -5.1423410900 0.7553644982 -1.9532721860
H -5.2046357195 -0.8537546424 -1.2318426271
H -5.3835207417 0.5755060407 -0.2147041474
32
CONF227
C 4.4451030737 0.3479116862 0.1514522297
C 3.6093050267 -0.8301102399 -0.3363175669
C 2.3842674297 -0.4071098902 -1.1497235787
C 1.3584198596 0.4395303565 -0.3929095402
C 0.6940866828 -0.3065261129 0.7620264949
C -0.3261206113 0.5429474014 1.5233324531
C -1.5457136874 0.9841327863 0.7116068980
C -2.3983628022 -0.1797358722 0.2111605464
C -3.6836609798 0.3033258530 -0.4575924039
C -4.5311458982 -0.8577188317 -0.9645686423
H 5.3555201920 -0.0084776279 0.6277420346
H 3.8959216907 0.9428707524 0.8762478016
H 4.7219392706 0.9886652394 -0.6829981701
H 3.2974275967 -1.4334518006 0.5176167277
H 4.2321530835 -1.4651074688 -0.9712880273
H 1.8878113948 -1.3072462226 -1.5214145877
H 2.7263895514 0.1617557525 -2.0181632149
H 0.5929534242 0.7477057943 -1.1075571652
H 1.8339024511 1.3453272242 -0.0130442501
H 1.4597206328 -0.6193847759 1.4744976472
H 0.2137920617 -1.2097280271 0.3817166763
H 0.1777127282 1.4358950495 1.9022559607
H -0.6740841082 -0.0291513366 2.3872636100
H -2.1641244183 1.6206000046 1.3501439480
H -1.2277415700 1.5918090974 -0.1372843452
H -1.8300471453 -0.7729031740 -0.5072907995
H -2.6524428666 -0.8286172188 1.0529525734
H -4.2641260940 0.8906547965 0.2577654259
H -3.4293879528 0.9593691624 -1.2934116213
H -4.8101316562 -1.5123599499 -0.1418641717
H -5.4398596565 -0.4914763435 -1.4360129856
H -3.9769220672 -1.4434676064 -1.6946146243
32
CONF125
C 4.5476786533 -1.1408793426 0.5048278388
C 4.1630097047 -0.1794230785 -0.6142792674
C 3.0504084441 0.7922523022 -0.2179129941
C 1.6985162953 0.1134403710 -0.0046548703
C 0.6011851219 1.1349064148 0.2892873633
C -0.7517980438 0.5036559770 0.6226805854
C -1.4045177845 -0.1875550776 -0.5732774710
C -2.7725487800 -0.7902278308 -0.2483845247
C -3.8610981509 0.2545307758 -0.0085116518
C -5.2242694048 -0.3944738020 0.2022517591
H 5.3927835821 -1.7540140791 0.2007690268
H 3.7215878840 -1.8019580337 0.7524106328
H 4.8282057710 -0.5886944682 1.3990729984
H 3.8469798764 -0.7501243740 -1.4904684525
H 5.0447272256 0.3998841969 -0.8983890890
H 2.9431557956 1.5410849864 -1.0068381880
H 3.3402281200 1.3166313662 0.6958679862
H 1.7633508789 -0.5850367767 0.8312718421
H 1.4450055227 -0.4560906880 -0.9005302606
H 0.4853121082 1.7994872239 -0.5703368236
H 0.9171808729 1.7476219225 1.1374906852
H -1.4148986583 1.2908289580 0.9857889414
H -0.6226596634 -0.2205153327 1.4305910126
H -1.5129881510 0.5311455049 -1.3891634576
H -0.7512294106 -0.9893278516 -0.9218989041
H -3.0808600290 -1.4239632218 -1.0838272566
H -2.6844769713 -1.4289868255 0.6336989696
H -3.6132253371 0.8534518697 0.8692144881
H -3.9087421491 0.9268215271 -0.8683698812
H -5.1996472449 -1.0593168784 1.0629720080
H -5.9861298414 0.3622189467 0.3738115132
H -5.5085811940 -0.9770364572 -0.6714476455
32
CONF203
C 4.0400985585 -1.6448530324 0.3731930893
C 3.2862587728 -0.5169262370 -0.3220896579
C 2.4377801586 0.2831122718 0.6639256107
C 1.7541988254 1.4988515879 0.0360309346
C 0.7599666355 1.1786888406 -1.0836143909
C -0.3806878345 0.2354916145 -0.6956759821
C -1.2955576690 0.8070470956 0.3856193317
C -2.4340283119 -0.1383720488 0.7731572465
C -3.4816842438 -0.3219356033 -0.3233038967
C -4.6446133846 -1.1850721329 0.1525592346
H 3.3431946403 -2.3278406288 0.8541554043
H 4.7073086139 -1.2462573850 1.1343434309
H 4.6333657612 -2.2078928991 -0.3433285485
H 2.6480120264 -0.9418725961 -1.0981985194
H 4.0007591164 0.1523946937 -0.8068878798
H 3.0831794754 0.6365400944 1.4724721050
H 1.6894354995 -0.3725939312 1.1121717792
H 2.5232583073 2.1576128164 -0.3758654685
H 1.2419586558 2.0549661413 0.8235500395
H 1.3007674148 0.7404574780 -1.9247263880
H 0.3294377277 2.1211161297 -1.4320543760
H 0.0266971059 -0.7183056350 -0.3563259008
H -0.9681377894 0.0377589452 -1.5944472965
H -0.7053969306 1.0131294416 1.2802633830
H -1.7153223778 1.7546473692 0.0391106314
H -2.0176252620 -1.1128712874 1.0398216937
H -2.9301769808 0.2608666332 1.6615583767
H -3.8576636953 0.6574269894 -0.6282264624
H -3.0256258197 -0.7905562276 -1.1967353077
H -5.3777061739 -1.3112843749 -0.6404692695
H -4.2897576714 -2.1686639759 0.4525058450
H -5.1372700373 -0.7248673114 1.0063522628
32
CONF92
C 4.7726366279 -0.0999035453 0.9990208716
C 4.0303976286 -0.6825935736 -0.1986826134
C 2.5085391467 -0.6499772344 -0.0444364034
C 1.9295898430 0.7623761283 -0.1051386920
C 0.4095020918 0.7977129900 0.0623606882
C -0.3420409987 0.1552682927 -1.1033650247
C -1.8420233718 0.4530743517 -1.0878465831
C -2.5724372856 -0.1733242695 0.0981773460
C -4.0812067922 0.0504613006 0.0192762037
C -4.8102367629 -0.5656557870 1.2075755012
H 5.8461478380 -0.2134575675 0.8676769308
H 4.4820890614 -0.6147273527 1.9121511030
H 4.5568759537 0.9586178271 1.1166008036
H 4.3435566745 -1.7207946337 -0.3322325612
H 4.3110623241 -0.1350514629 -1.1013224165
H 2.2336484015 -1.1117154987 0.9068711240
H 2.0697432810 -1.2491719094 -0.8441541650
H 2.1977609835 1.2195252713 -1.0609088131
H 2.3744733753 1.3663466551 0.6876771260
H 0.0951562280 1.8411992527 0.1454807875
H 0.1447865371 0.2953817889 0.9943677330
H -0.1969495237 -0.9262894511 -1.0870485999
H 0.0763611449 0.5332974239 -2.0395834860
H -1.9953941315 1.5349600020 -1.0748595810
H -2.2830331938 0.0700685744 -2.0117862921
H -2.3685510585 -1.2465866759 0.1207984364
H -2.1992803814 0.2565028573 1.0292440465
H -4.2837376266 1.1234610636 -0.0142047864
H -4.4628616047 -0.3862404399 -0.9065980848
H -4.6338818515 -1.6382518532 1.2474308713
H -4.4590902492 -0.1265877592 2.1387324733
H -5.8812975463 -0.3958057540 1.1296460356
32
CONF89
C 5.2209994326 -0.3593562334 -0.1480484833
C 3.7231301733 -0.6416249874 -0.1330219893
C 2.9097607017 0.6206536566 -0.4141426709
C 1.4027419629 0.3703258301 -0.4975505821
C 0.7666235659 0.0723091711 0.8593329595
C -0.7171263135 -0.2860331019 0.7604713491
C -1.5925926600 0.8802392469 0.3040813197
C -3.0891552157 0.5822147765 0.4061329551
C -3.5609237816 -0.4929325402 -0.5712303194
C -5.0733393156 -0.6758766884 -0.5189994251
H 5.4765198629 0.3778998111 0.6097981538
H 5.5264405750 0.0275741413 -1.1177862332
H 5.7837210412 -1.2678720824 0.0523696220
H 3.4481913252 -1.0514959672 0.8401420619
H 3.4887761259 -1.3942947628 -0.8893891860
H 3.2466842147 1.0429443413 -1.3642055916
H 3.1097709623 1.3609412755 0.3640747040
H 1.2152641826 -0.4663282823 -1.1749211384
H 0.9294629960 1.2560684673 -0.9247962601
H 0.8875174040 0.9405475440 1.5116993556
H 1.2890678023 -0.7660273971 1.3236383652
H -1.0616936014 -0.6153451189 1.7440675710
H -0.8305019482 -1.1242995464 0.0709000712
H -1.3667711964 1.7502871013 0.9257668332
H -1.3549214729 1.1389363485 -0.7291748289
H -3.3280496549 0.2717916292 1.4262294475
H -3.6426109538 1.5028484992 0.2042370914
H -3.2644836273 -0.2114647182 -1.5843413101
H -3.0790802227 -1.4426779326 -0.3343062162
H -5.5793128302 0.2516688273 -0.7778989302
H -5.3898943970 -1.4467587426 -1.2174092597
H -5.3863407626 -0.9681596967 0.4809141354
32
CONF128
C 4.6867151624 0.7887168856 1.1552332299
C 3.3472013393 0.1189098353 0.8709485021
C 3.1189976792 -0.0676677946 -0.6279931316
C 1.8418495160 -0.8406097687 -0.9598566348
C 0.5632042397 -0.0739580388 -0.6267182307
C -0.6820749589 -0.8481456885 -1.0551979106
C -1.9868575201 -0.0810598599 -0.8332751039
C -2.3362100511 0.1005277108 0.6428630656
C -3.6605019339 0.8350356025 0.8611822361
C -4.8807697630 0.0130630597 0.4607944258
H 5.5048275062 0.1855445016 0.7676057982
H 4.8311393822 0.9170788235 2.2252207209
H 4.7300947947 1.7673710505 0.6823839002
H 2.5475595767 0.7294240577 1.2931962755
H 3.3178360800 -0.8563306231 1.3623672886
H 3.9719346515 -0.6100294404 -1.0437740026
H 3.0840059634 0.9112509466 -1.1120102616
H 1.8443296883 -1.7895943064 -0.4182376473
H 1.8422349739 -1.0720589194 -2.0281087875
H 0.5796817125 0.8919566364 -1.1373881529
H 0.5232438659 0.1138567342 0.4461137171
H -0.7237229073 -1.7940408975 -0.5098890450
H -0.5951721282 -1.0858769742 -2.1186030404
H -1.9133802000 0.8998537220 -1.3091160950
H -2.7919780025 -0.6291188633 -1.3256470668
H -2.3853846673 -0.8789836896 1.1244443239
H -1.5436608837 0.6710096561 1.1303816856
H -3.7444859099 1.0913992733 1.9199671334
H -3.6501302265 1.7694812870 0.2955512695
H -4.8897151967 -0.9357347979 0.9927685505
H -5.7934895666 0.5517393047 0.7043256019
H -4.8834524089 -0.1905293127 -0.6066312017
32
CONF43
C 4.7851720236 0.3626751750 -0.3591521704
C 3.9647021712 -0.9198675528 -0.2779826428
C 2.4570168595 -0.6742201717 -0.3532879648
C 1.9110045243 0.0797411123 0.8585645586
C 0.3826841224 0.1139335241 0.9031130766
C -0.2308128055 0.9216346546 -0.2399432750
C -1.7301376749 1.1674494669 -0.0653206495
C -2.5675811015 -0.1064213258 -0.1581779496
C -4.0644360975 0.1896094547 -0.0922607241
C -4.8993478953 -1.0827590167 -0.1771997828
H 4.5347282328 0.9165343538 -1.2612683710
H 5.8471993892 0.1299381270 -0.3828783855
H 4.5970291674 0.9999729323 0.5006006409
H 4.1990414307 -1.4417007818 0.6528120680
H 4.2517658335 -1.5745369949 -1.1043582686
H 1.9497496933 -1.6399346017 -0.4215113655
H 2.2351619143 -0.1165517922 -1.2647629451
H 2.2881110775 1.1038902811 0.8569761194
H 2.2748781148 -0.4079598329 1.7666259584
H 0.0719859629 0.5593431980 1.8516470916
H 0.0044265943 -0.9095390994 0.8765772261
H -0.0650626735 0.4048685435 -1.1867501900
H 0.2756070237 1.8885706120 -0.2948904290
H -1.9079608987 1.6463252136 0.9006988745
H -2.0626745931 1.8611339530 -0.8418632697
H -2.3430432892 -0.6169772068 -1.0978165116
H -2.3046182731 -0.7807993864 0.6585058235
H -4.2871023688 0.7081937958 0.8431239716
H -4.3367172498 0.8576431913 -0.9127443681
H -5.9600426936 -0.8489022135 -0.1287782136
H -4.7041392030 -1.6039300156 -1.1118033369
H -4.6568056022 -1.7525813610 0.6448169125
32
CONF63
C 4.0807081209 -0.6701127624 -1.5164156854
C 3.9911722413 -0.6471267491 0.0055340193
C 2.5636194144 -0.4563310356 0.5202380108
C 1.9894827901 0.9228138287 0.1986593874
C 0.6573483207 1.1963377026 0.8983579265
C -0.4851591079 0.3201147958 0.3877542574
C -1.8159831973 0.7008622704 1.0340593611
C -2.9706334330 -0.2198083813 0.6368747710
C -3.3757742485 -0.0901611695 -0.8303199830
C -4.5975615931 -0.9429588190 -1.1522884104
H 3.4220627140 -1.4342422683 -1.9233800004
H 5.0980202505 -0.8908588181 -1.8309652497
H 3.7966828845 0.2904104645 -1.9375879309
H 4.6248748295 0.1534989451 0.3941071315
H 4.3774783163 -1.5920183122 0.3951974951
H 2.5631802786 -0.5901073784 1.6049943825
H 1.9273691877 -1.2311183634 0.0890837292
H 1.8490593809 1.0227165677 -0.8788981509
H 2.7101531160 1.6822472248 0.5126276962
H 0.3893135191 2.2442988389 0.7413924630
H 0.7763931997 1.0454573907 1.9741318586
H -0.2728115074 -0.7274822229 0.6076456022
H -0.5561937362 0.4292709551 -0.6957673986
H -1.6981277024 0.6634499021 2.1200023638
H -2.0674697861 1.7299825168 0.7662238990
H -2.6931561804 -1.2561111797 0.8440338947
H -3.8369280025 0.0193946119 1.2588503354
H -3.5961378454 0.9569455029 -1.0504740627
H -2.5477923739 -0.3986180581 -1.4703515946
H -4.3934402647 -1.9916842444 -0.9478747116
H -5.4475803422 -0.6361425499 -0.5466837287
H -4.8684870958 -0.8433981584 -2.2005821042
32
CONF266
C 4.6690548661 0.1824585086 -0.9239245791
C 3.5800633053 -0.6014016043 -0.2008538906
C 2.3689360702 0.2714006456 0.1216443804
C 1.2766900437 -0.5161259089 0.8418568173
C 0.1036735530 0.3501702817 1.3038220812
C -0.6729529034 1.0414595482 0.1807484218
C -1.2769893460 0.1004394199 -0.8637215101
C -2.2436333861 -0.9484655699 -0.3093472853
C -3.4620536681 -0.3819124246 0.4217348574
C -4.3644265793 0.4589999434 -0.4742979490
H 5.0122116384 1.0118448608 -0.3094138542
H 4.2902676512 0.5850765557 -1.8607759627
H 5.5199408917 -0.4577087100 -1.1438175852
H 3.9850845620 -1.0137786342 0.7262961926
H 3.2625719714 -1.4408566900 -0.8239360565
H 1.9752837334 0.6848788144 -0.8085252295
H 2.6848954072 1.1074407256 0.7505467897
H 1.7140462242 -0.9932726644 1.7231007201
H 0.9154530335 -1.3129800660 0.1894521349
H 0.4851583823 1.1229930084 1.9764936404
H -0.5809242239 -0.2728252416 1.8827327934
H -0.0110952570 1.7413948588 -0.3334546832
H -1.4701584104 1.6337738506 0.6345112376
H -1.7958032657 0.7067343004 -1.6089215155
H -0.4715840532 -0.4215014886 -1.3843225410
H -2.5939045011 -1.5607404620 -1.1447035667
H -1.7046379024 -1.6093468653 0.3722890573
H -4.0407386035 -1.2213077297 0.8155900862
H -3.1370796804 0.2162599999 1.2744432792
H -5.2616841923 0.7537744961 0.0650849780
H -3.8563909749 1.3614307279 -0.8037286836
H -4.6630549507 -0.1091309800 -1.3527574854
32
CONF228
C 4.5457503944 0.8833819265 0.9272082110
C 3.6975461047 -0.2894623982 0.4493251271
C 2.4011718819 0.1774908782 -0.2093030678
C 1.5464614634 -0.9970304719 -0.6807058913
C 0.3245232690 -0.5724797971 -1.4976956983
C -0.6977672427 0.2849050500 -0.7481372985
C -1.3733709622 -0.4531257335 0.4053730266
C -2.3972294390 0.4027461727 1.1544586498
C -3.6079062786 0.8443040682 0.3294094233
C -4.4462940931 -0.3211889235 -0.1832820497
H 5.4644881877 0.5291022357 1.3882675553
H 3.9997183182 1.4751799704 1.6585638558
H 4.8068160902 1.5288458365 0.0914407126
H 3.4580715051 -0.9342817476 1.2981167393
H 4.2713506600 -0.8843875508 -0.2651420893
H 2.6415354131 0.8141201092 -1.0643959840
H 1.8399626137 0.7797287193 0.5072148003
H 1.2315146170 -1.5860190170 0.1823349510
H 2.1623899130 -1.6473190910 -1.3075958031
H -0.1769372137 -1.4722902672 -1.8632966318
H 0.6703933604 -0.0120706075 -2.3700916480
H -1.4573321657 0.5967494022 -1.4674881771
H -0.2168043541 1.1881770145 -0.3689450722
H -1.8535005204 -1.3563874191 0.0252550853
H -0.6141920335 -0.7653365477 1.1249918652
H -2.7555776384 -0.1657732819 2.0165730304
H -1.8943323681 1.2953899361 1.5354837561
H -4.2342609190 1.4771041266 0.9631206583
H -3.2796466454 1.4548380825 -0.5132126605
H -4.7406313905 -0.9686421869 0.6399081365
H -5.3466690295 0.0481904018 -0.6687256807
H -3.8915691309 -0.9127712845 -0.9066182366
32
CONF143
C 3.6609555567 1.1008545608 -1.5793329027
C 3.0965999287 0.0305875306 -0.6519326220
C 2.1792207271 0.6338132070 0.4099301885
C 1.7119364758 -0.3765613675 1.4587821932
C 0.8757362213 -1.5372129846 0.9138331965
C -0.4054326332 -1.1238592166 0.1873992226
C -1.3859330360 -0.3686992044 1.0834849992
C -2.7660758387 -0.1919048202 0.4490549898
C -2.7605857182 0.7272670427 -0.7710514548
C -4.1697858321 0.9617030080 -1.3029995192
H 2.8554981693 1.6314554165 -2.0824754820
H 4.3024663424 0.6536032865 -2.3348586395
H 4.2463967565 1.8242129478 -1.0158118468
H 3.9194877951 -0.4935757212 -0.1600051816
H 2.5441324892 -0.6993618013 -1.2457910137
H 1.3156378810 1.0913000108 -0.0760201750
H 2.7206388250 1.4315824437 0.9254976356
H 1.1348350543 0.1525884387 2.2194663515
H 2.5915194904 -0.7970253292 1.9534511466
H 0.6081520749 -2.1834260035 1.7540544364
H 1.4878862911 -2.1306146602 0.2319160260
H -0.8941557072 -2.0299617884 -0.1803989755
H -0.1513038034 -0.5149456553 -0.6802703010
H -1.5014613832 -0.9225203999 2.0187587162
H -0.9813438122 0.6151713658 1.3277658465
H -3.1598430493 -1.1697689368 0.1610984777
H -3.4430745576 0.2276475577 1.1977186132
H -2.3127206756 1.6853858973 -0.4967738044
H -2.1502335461 0.2868249471 -1.5610144082
H -4.6283987289 0.0185646674 -1.5918934668
H -4.7930648691 1.4251744722 -0.5413066906
H -4.1476352318 1.6138621399 -2.1727335605
32
CONF172
C 4.3316183056 1.1387326681 0.6801655231
C 3.4361558483 -0.0195715650 0.2553285254
C 2.2940109859 0.4520610856 -0.6424513415
C 1.4614979066 -0.6921942320 -1.2230715726
C 0.7419742142 -1.5609287219 -0.1882848246
C -0.2486715853 -0.8152317415 0.7073774630
C -1.4201676926 -0.2044790803 -0.0591604472
C -2.4564276289 0.3971405363 0.8884156378
C -3.6109711421 1.0919477949 0.1648375481
C -4.5159035386 0.1239980218 -0.5895371758
H 3.7563509827 1.8847171059 1.2242335713
H 4.7752291063 1.6177116718 -0.1900649198
H 5.1335559221 0.7863411456 1.3244366654
H 3.0304581526 -0.5004447907 1.1468337611
H 4.0326652536 -0.7607973753 -0.2818462916
H 2.7173475477 1.0197097739 -1.4754161817
H 1.6507577191 1.1325750895 -0.0819847801
H 2.1205350200 -1.3399178981 -1.8072192599
H 0.7259818218 -0.2733049636 -1.9124399232
H 1.4842140447 -2.0510303005 0.4445803761
H 0.2033816254 -2.3473931076 -0.7234104700
H 0.2698035055 -0.0325669566 1.2637873397
H -0.6437503660 -1.5242946168 1.4397965202
H -1.0576041771 0.5780142751 -0.7282054839
H -1.8846228045 -0.9807358854 -0.6697417287
H -2.8581973956 -0.3893827004 1.5318784583
H -1.9581334206 1.1261528143 1.5327062069
H -4.2103432439 1.6295445582 0.9034497358
H -3.2071638838 1.8296206320 -0.5323517523
H -3.9776163616 -0.3652516236 -1.3967871783
H -4.8980167347 -0.6403626497 0.0835849317
H -5.3611299115 0.6560383409 -1.0197821351
32
CONF180
C 3.5588587579 -1.7654671550 -0.1909709162
C 3.7837751222 -0.2630532641 -0.3223894882
C 2.5279910165 0.4997924760 -0.7472162507
C 1.4391021565 0.5188910435 0.3238576837
C 0.2263836939 1.3315825967 -0.1244362241
C -0.8404220591 1.4843970731 0.9611274425
C -1.4449073078 0.1716524905 1.4667401016
C -2.0719594018 -0.7121887063 0.3875255865
C -3.2453397116 -0.0545360720 -0.3354922091
C -3.9099475192 -1.0167178866 -1.3135376631
H 4.4961445369 -2.2680623917 0.0358815414
H 3.1671611311 -2.1728785197 -1.1204840399
H 2.8548966532 -1.9872531361 0.6065742768
H 4.5641720305 -0.0890574963 -1.0670351829
H 4.1415395153 0.1353343462 0.6297375881
H 2.1280385328 0.0519370723 -1.6602523884
H 2.8071594042 1.5302666716 -0.9819206311
H 1.8442747794 0.9514195915 1.2420920321
H 1.1289200820 -0.5027635232 0.5421906188
H -0.2108141007 0.8683660426 -1.0106274990
H 0.5605325249 2.3313873335 -0.4147786502
H -1.6389263149 2.1215746842 0.5759364337
H -0.3974637281 2.0021177623 1.8159357435
H -0.6720788544 -0.4029714068 1.9810159372
H -2.2113336957 0.4166905653 2.2067399082
H -1.3138209068 -0.9997205854 -0.3428321128
H -2.4264403826 -1.6300921985 0.8641560713
H -3.9798324589 0.2800222001 0.4009216434
H -2.8972088081 0.8236283799 -0.8815664624
H -4.7381668642 -0.5323613792 -1.8251633963
H -3.1944526769 -1.3536972444 -2.0605933199
H -4.2927606151 -1.8899588294 -0.7896775352
32
CONF121
C 4.8493047544 1.2108987983 -0.2025725684
C 3.5604799818 0.4624145369 -0.5226023303
C 3.0300477483 -0.2906776037 0.6960826885
C 1.8058196966 -1.1555107387 0.3931685141
C 0.5573199206 -0.3452432815 0.0487412162
C -0.6588082245 -1.2492423463 -0.1459169159
C -1.9135146109 -0.4999453502 -0.5980822540
C -2.5017303656 0.3990436687 0.4880383178
C -3.7606324783 1.1423657548 0.0372461475
C -4.9618933339 0.2265956839 -0.1709364412
H 4.6821161937 1.9321162351 0.5943798473
H 5.2099984055 1.7441133275 -1.0788140546
H 5.6228159084 0.5177196416 0.1208059010
H 3.7453663652 -0.2486197551 -1.3311268786
H 2.8115844608 1.1756773044 -0.8701489563
H 2.7803933971 0.4257767901 1.4823146576
H 3.8251942168 -0.9354321598 1.0789492644
H 1.5892094678 -1.7721541334 1.2691767009
H 2.0383116376 -1.8304078507 -0.4342123668
H 0.7261217521 0.2212316626 -0.8686716225
H 0.3659272916 0.3668669843 0.8533143227
H -0.8715039684 -1.7766338819 0.7870996021
H -0.4123793671 -2.0016368182 -0.8994801364
H -1.6751415349 0.1048326651 -1.4764065672
H -2.6620089290 -1.2363711590 -0.8954067893
H -2.7372234183 -0.2057825837 1.3669964861
H -1.7550607091 1.1381226266 0.7838564772
H -4.0150671639 1.8852860834 0.7969668720
H -3.5479804291 1.6788155348 -0.8902404928
H -5.1657949466 -0.3428163005 0.7331828280
H -5.8446013760 0.8136777598 -0.4131971095
H -4.7864627749 -0.4710276293 -0.9854083509
32
CONF142
C 4.1460139886 -1.0137802827 -1.2826122570
C 2.7421490966 -0.7573864278 -0.7467565340
C 2.7594352404 0.2093796251 0.4359073659
C 1.3849987586 0.4126409361 1.0748616459
C 0.4003844118 1.1400159465 0.1606314235
C -0.8802694983 1.5699535083 0.8782062125
C -1.7140511491 0.4223165586 1.4538317198
C -2.1708694600 -0.6218081749 0.4338000378
C -3.0835948674 -0.0555607874 -0.6519441923
C -3.6219938464 -1.1543848252 -1.5611639700
H 4.7767394159 -1.4464334444 -0.5090095063
H 4.6018353592 -0.0833188035 -1.6139211142
H 4.1151845986 -1.7005131823 -2.1250544700
H 2.2966035295 -1.7035577862 -0.4304568301
H 2.1244541020 -0.3482120688 -1.5477160302
H 3.1515364039 1.1746221635 0.1061029723
H 3.4427161636 -0.1812580660 1.1944174730
H 1.5091922635 0.9977875898 1.9897051426
H 0.9791965663 -0.5608907151 1.3557574234
H 0.1457893698 0.5065119278 -0.6890751189
H 0.8859688380 2.0366412608 -0.2336136022
H -1.4941939462 2.1445173591 0.1818927154
H -0.6129014008 2.2382176309 1.7010584504
H -1.1384897034 -0.0808270449 2.2331200443
H -2.5980494085 0.8534481204 1.9311093460
H -1.3022987404 -1.0901777634 -0.0323378077
H -2.7121887192 -1.4058309014 0.9700656329
H -3.9191412621 0.4684526316 -0.1817619937
H -2.5339173681 0.6680146998 -1.2560079025
H -4.1996968545 -1.8759813425 -0.9874944178
H -4.2645534360 -0.7339651304 -2.3310553729
H -2.8033604583 -1.6812933357 -2.0466693747
32
CONF141
C 3.6283334969 1.1035981678 -1.5934342253
C 3.0854933924 0.0335537449 -0.6530483744
C 2.1757329844 0.6345539435 0.4163724021
C 1.7142413883 -0.3779196078 1.4657908119
C 0.8798579400 -1.5405257743 0.9221372050
C -0.4000222301 -1.1293078892 0.1922477149
C -1.3827993567 -0.3733856763 1.0850535191
C -2.7598673524 -0.1932949163 0.4448911488
C -2.7480554129 0.7292523346 -0.7726208347
C -4.1548442461 0.9686599784 -1.3086781860
H 2.8117374120 1.6202666360 -2.0930056346
H 4.2682116753 0.6585440573 -2.3516155471
H 4.2098740517 1.8384261382 -1.0409608212
H 3.9188761341 -0.4806022314 -0.1684442914
H 2.5323160766 -0.7043534676 -1.2361624358
H 1.3091347726 1.0934128781 -0.0627769153
H 2.7207470464 1.4310301531 0.9300916966
H 1.1375642478 0.1493594846 2.2281298273
H 2.5961055059 -0.7962498578 1.9581482865
H 0.6112276694 -2.1851491573 1.7632299093
H 1.4935457604 -2.1351128445 0.2426372269
H -0.8873853894 -2.0362614611 -0.1752021560
H -0.1443666045 -0.5216100479 -0.6758118625
H -1.5030969011 -0.9279686044 2.0192534294
H -0.9774715225 0.6094814570 1.3320176013
H -3.1536018054 -1.1698718139 0.1525958341
H -3.4395923971 0.2251179740 1.1916752017
H -2.2988786370 1.6855304988 -0.4941458775
H -2.1360622703 0.2896141392 -1.5617242227
H -4.7795442818 1.4313344428 -0.5476714382
H -4.1282954618 1.6233291030 -2.1764014531
H -4.6147270171 0.0274804256 -1.6018690570
32
CONF198
C 4.0821820179 0.2251892133 -1.2901612227
C 3.0859774036 -0.8111035420 -0.7826917959
C 2.7920135859 -0.6841607426 0.7130866445
C 2.1650570553 0.6456561611 1.1389843657
C 0.8351151923 0.9817448904 0.4622834390
C -0.2724266719 -0.0262889941 0.7616511868
C -1.6167314237 0.4240940689 0.1935824096
C -2.7229967019 -0.5893006362 0.4801542058
C -4.1049469780 -0.1275702362 0.0152722195
C -4.2333286133 -0.0479304649 -1.5018879909
H 3.6683596074 1.2280911702 -1.2274347553
H 4.3348026978 0.0274293155 -2.3293577221
H 4.9969421083 0.1917996687 -0.7021567073
H 3.4922446029 -1.8093660627 -0.9639586226
H 2.1574464347 -0.7314946483 -1.3500583531
H 3.7287932302 -0.8068154290 1.2630526588
H 2.1332758197 -1.5024895326 1.0101777047
H 2.8709970585 1.4539622968 0.9395252690
H 2.0073392500 0.6131995475 2.2201800827
H 0.9759109105 1.0548141425 -0.6174259447
H 0.5151939421 1.9663490568 0.8137885828
H -0.3610783746 -0.1534359906 1.8435250889
H -0.0155957733 -0.9965943353 0.3330056282
H -1.8896767228 1.3875311271 0.6314861971
H -1.5151008679 0.5655849554 -0.8837647575
H -2.4788943111 -1.5375039578 -0.0047256793
H -2.7593520255 -0.7703213128 1.5574416304
H -4.8513224722 -0.8294740885 0.3947438409
H -4.3216158000 0.8510895328 0.4495537204
H -5.2526309616 0.2086846476 -1.7806917369
H -3.5698982946 0.7096001017 -1.9102575356
H -3.9842940993 -1.0054008353 -1.9541101870
32
CONF132
C 4.6827505451 0.7522497462 -1.1840193216
C 3.3464473841 0.0869901418 -0.8750293539
C 3.1182380189 -0.0442164745 0.6297658967
C 1.8426625376 -0.8073813481 0.9893278448
C 0.5624477753 -0.0546246705 0.6312007804
C -0.6815453876 -0.8193700619 1.0799018681
C -1.9876243706 -0.0604615768 0.8384433034
C -2.3330129665 0.0913721029 -0.6419853728
C -3.6605938331 0.8147127656 -0.8775765259
C -4.8780749305 -0.0103652944 -0.4750513832
H 5.5037434858 0.1686832875 -0.7729833318
H 4.7208114312 1.7486010313 -0.7491188214
H 4.8272578257 0.8399800213 -2.2581006470
H 3.3222111205 -0.9062636816 -1.3292382888
H 2.5439843177 0.6770149465 -1.3204312814
H 3.0807247942 0.9519581516 1.0771235045
H 3.9723506523 -0.5687532809 1.0656363441
H 1.8442840493 -1.0021217842 2.0648861415
H 1.8462542424 -1.7743807395 0.4804966706
H 0.5240213403 0.1010059066 -0.4468476529
H 0.5752932923 0.9261564092 1.1129134432
H -0.5944319304 -1.0291210591 2.1491896884
H -0.7215698746 -1.7792594854 0.5594576608
H -2.7927663880 -0.6009237312 1.3391468395
H -1.9183782050 0.9298750732 1.2950705925
H -1.5419215304 0.6570908569 -1.1373475591
H -2.3753728646 -0.8971366004 -1.1055139578
H -3.6596884555 1.7559216359 -0.3230846200
H -3.7397802770 1.0579004976 -1.9398230498
H -5.7926807291 0.5225958235 -0.7241139747
H -4.8813261358 -0.9625198091 -1.0011258209
H -4.8823850930 -0.2074156065 0.5936349006
32
CONF196
C 4.2723064112 1.1001552475 -0.0925047726
C 3.2728690135 0.3076180594 -0.9274836638
C 2.8090325716 -0.9826742863 -0.2493085133
C 2.0664609693 -0.7870194913 1.0748699564
C 0.7924799689 0.0549874571 0.9858983073
C -0.2831654006 -0.5629586520 0.0951495327
C -1.5864699944 0.2320344712 0.1420134454
C -2.6630119584 -0.3931336745 -0.7431190516
C -3.9469632852 0.4344778968 -0.8172568302
C -4.7042580981 0.4904031082 0.5049273910
H 3.8106111875 1.4753491515 0.8169752106
H 4.6454237404 1.9507359182 -0.6584114817
H 5.1179746656 0.4734995176 0.1828478866
H 3.7413180862 0.0404893902 -1.8780995858
H 2.4107358822 0.9358227848 -1.1567028536
H 3.6848862626 -1.6075685335 -0.0557927400
H 2.1677324429 -1.5306326136 -0.9422769942
H 2.7405290215 -0.3236324328 1.7976260539
H 1.8043750987 -1.7744777313 1.4636785929
H 1.0326185661 1.0556087217 0.6226118466
H 0.3885342689 0.1662313011 1.9956937354
H -0.4750270117 -1.5882513625 0.4212190883
H 0.0697268963 -0.6031192066 -0.9369297924
H -1.9376087353 0.2772899381 1.1743143451
H -1.3965377854 1.2556736931 -0.1904113227
H -2.2621640351 -0.5055530358 -1.7538479812
H -2.9003009468 -1.3924812002 -0.3704962471
H -3.7020666145 1.4495857794 -1.1379953343
H -4.5983128990 -0.0036589347 -1.5772566338
H -4.1255161983 1.0095638163 1.2641802831
H -5.6462322412 1.0185693600 0.3770558440
H -4.9196275764 -0.5145482655 0.8615590448
32
CONF222
C 4.1122175497 0.8126692214 -1.0118578626
C 3.4456710381 0.6966660146 0.3543434339
C 2.9382938326 -0.7135947094 0.6603959371
C 1.8679916419 -1.2390639340 -0.2998224815
C 0.6020548469 -0.3855407839 -0.3988407534
C -0.1646008244 -0.2869915224 0.9184748043
C -1.4492340172 0.5363837256 0.8072319857
C -2.5391389174 -0.1385322019 -0.0231371753
C -3.8374097481 0.6658851253 -0.0193474764
C -4.9207683402 -0.0012588211 -0.8586551110
H 4.5448174118 1.8026260195 -1.1370834449
H 3.3936792488 0.6537897708 -1.8114891895
H 4.9065970978 0.0759200545 -1.1104426262
H 2.6212608696 1.4084539986 0.4191234516
H 4.1708180193 0.9698643085 1.1250554235
H 2.5473710879 -0.7302904986 1.6795950469
H 3.7861228515 -1.4029553674 0.6284518428
H 1.5858305660 -2.2435078352 0.0264397496
H 2.3008858157 -1.3334824220 -1.2975124774
H -0.0428137782 -0.8359824983 -1.1558896749
H 0.8569022324 0.6182279974 -0.7431075180
H 0.4748902005 0.1797152997 1.6698433895
H -0.4100526325 -1.2923730667 1.2692483564
H -1.8388156664 0.7110854579 1.8135251259
H -1.2155881422 1.5112565456 0.3722601659
H -2.2013172362 -0.2560140736 -1.0542540720
H -2.7325761949 -1.1358302369 0.3794899734
H -4.1909025098 0.7759819432 1.0085468738
H -3.6408427311 1.6671533098 -0.4096944198
H -5.1419489990 -0.9945881942 -0.4743496598
H -5.8354241816 0.5862578868 -0.8404863322
H -4.5952387904 -0.0992117757 -1.8919859759
32
CONF231
C 4.3733842908 -0.7166166446 0.7069355511
C 3.0217540447 -1.3282696037 0.3550868009
C 2.1325227282 -0.4007133433 -0.4753535221
C 1.6206916265 0.8030745809 0.3130209361
C 0.7735257618 1.7628207684 -0.5254320312
C -0.5041647531 1.1617738123 -1.1151914646
C -1.4716536990 0.6314491646 -0.0592558762
C -2.7899709412 0.1771492406 -0.6826795954
C -3.8109161453 -0.3093301888 0.3472316067
C -3.4109110092 -1.6188639908 1.0182648957
H 4.2554135190 0.1540194614 1.3464343989
H 4.8983751491 -0.4126805282 -0.1959826268
H 4.9885118770 -1.4421358989 1.2340499816
H 2.4969290720 -1.6012464135 1.2735637136
H 3.1912892269 -2.2462955845 -0.2127709746
H 1.2807670231 -0.9793441905 -0.8370526161
H 2.6912241658 -0.0507962300 -1.3467659867
H 2.4715484813 1.3661760404 0.7010291492
H 1.0429289777 0.4537874695 1.1706216015
H 1.3861527859 2.1428020067 -1.3469383530
H 0.4995139977 2.6152780387 0.1014771620
H -0.2501698416 0.3585416177 -1.8090898390
H -1.0075795376 1.9406994220 -1.6941996459
H -1.0122723897 -0.2075518134 0.4629488887
H -1.6717064140 1.4168939179 0.6738341243
H -3.2229691729 1.0141057869 -1.2365924135
H -2.5928915988 -0.6240296809 -1.3991644509
H -3.9483004630 0.4617658129 1.1086882119
H -4.7705775739 -0.4515881868 -0.1552466646
H -3.2337368237 -2.3892114178 0.2708751040
H -2.5063431521 -1.4957956827 1.6077172294
H -4.2027158310 -1.9595709077 1.6812776558
32
CONF197
C 4.0517195902 0.2000670402 1.3144465354
C 3.0598386558 -0.8249262509 0.7761357600
C 2.7904234900 -0.6751355194 -0.7221463558
C 2.1721906250 0.6619515324 -1.1384502677
C 0.8392882283 0.9970361332 -0.4669733300
C -0.2685668742 -0.0071753661 -0.7772944331
C -1.6103617708 0.4321546381 -0.1947878880
C -2.7158997486 -0.5794013764 -0.4903551141
C -4.0953811984 -0.1299633629 -0.0064886326
C -4.2127192331 -0.0801682978 1.5129054801
H 4.9768705554 0.1695610845 0.7428696582
H 4.2843589192 -0.0118022318 2.3555585418
H 3.6438534160 1.2056963229 1.2566949388
H 2.1227060587 -0.7499716006 1.3297600913
H 3.4595187281 -1.8273168578 0.9493394509
H 2.1352954053 -1.4878104219 -1.0418927122
H 3.7356139821 -0.7911641374 -1.2589691194
H 2.0218905659 0.6414031914 -2.2209980124
H 2.8801156394 1.4651341653 -0.9256415662
H 0.5232683339 1.9844267504 -0.8141857938
H 0.9747853164 1.0634812562 0.6138567854
H -0.0085053648 -0.9838576567 -0.3654663679
H -0.3623468975 -0.1171517922 -1.8606176637
H -1.5026836200 0.5571057233 0.8840454035
H -1.8878164768 1.4016799033 -0.6160823314
H -2.7601359661 -0.7421090108 -1.5702874644
H -2.4653327918 -1.5350945601 -0.0237552131
H -4.3173319223 0.8564373859 -0.4200905635
H -4.8429472781 -0.8261292394 -0.3940100625
H -3.9568650200 -1.0452752058 1.9446802441
H -3.5489958995 0.6718430472 1.9309926293
H -5.2308212094 0.1671814947 1.8042507581
32
CONF45
C 4.7863902338 0.3903845036 0.3432317979
C 3.9864699521 -0.9044975491 0.2531124001
C 2.4755112012 -0.6850437450 0.3432736443
C 1.9080631506 0.0759110978 -0.8540508807
C 0.3790982975 0.0972228426 -0.8806936368
C -0.2278411369 0.8812362244 0.2824544390
C -1.7232553403 1.1511334804 0.1103091553
C -2.5786332066 -0.1130694181 0.1611238880
C -4.0698519216 0.2068938470 0.0795785620
C -4.9259349998 -1.0531590709 0.1281666436
H 4.5321458703 0.9305542377 1.2525516253
H 4.5830227548 1.0335601282 -0.5086490381
H 5.8522164923 0.1748914894 0.3584906632
H 4.2910457406 -1.5640958438 1.0692017991
H 4.2219295858 -1.4111312827 -0.6857070127
H 2.2515961341 -0.1429322705 1.2635255489
H 1.9845384958 -1.6596841303 0.4026135075
H 2.2659475596 -0.3985838739 -1.7714203107
H 2.2755707838 1.1034963813 -0.8458193530
H 0.0092209917 -0.9295734348 -0.8671387057
H 0.0547251946 0.5557569392 -1.8183099159
H 0.2896456475 1.8403475751 0.3642709149
H -0.0706641857 0.3376062418 1.2155824042
H -2.0499650940 1.8257247550 0.9059429602
H -1.8906289253 1.6610749803 -0.8416187611
H -2.3125214297 -0.7718911865 -0.6671046078
H -2.3755296509 -0.6483264044 1.0918049610
H -4.3437280601 0.8636857204 0.9084730780
H -4.2706504087 0.7463739636 -0.8488506170
H -4.6821929423 -1.7112841239 -0.7028422588
H -4.7531931216 -1.5948957806 1.0554003965
H -5.9818934094 -0.8009118881 0.0687457736
32
CONF199
C 4.0923353009 0.2041191726 1.2883003238
C 3.0918450305 -0.8234323592 0.7712722414
C 2.7913613295 -0.6754974627 -0.7213063658
C 2.1642748102 0.6610454743 -1.1257965353
C 0.8362079859 0.9875173480 -0.4408974950
C -0.2748086607 -0.0100353818 -0.7616681831
C -1.6171470175 0.4293636189 -0.1805458097
C -2.7274975538 -0.5704255119 -0.4977330528
C -4.1080122315 -0.1176045403 -0.0200405830
C -4.2389665025 -0.0903299080 1.4987770525
H 3.6812808324 1.2088683243 1.2378018054
H 5.0057331034 0.1748016512 0.6980042005
H 4.3465329821 -0.0059924728 2.3246844008
H 2.1662199666 -0.7501746960 1.3441992522
H 3.4973402758 -1.8247465566 0.9367850304
H 2.1302189342 -1.4887572735 -1.0267525961
H 3.7254496014 -0.7913725739 -1.2771964595
H 2.0037053549 0.6447844708 -2.2069515662
H 2.8713837483 1.4657887874 -0.9163184186
H 0.5195811742 1.9806013122 -0.7708985526
H 0.9778123896 1.0368318133 0.6400348953
H -0.0195549938 -0.9911534318 -0.3573852368
H -0.3658604616 -0.1105766069 -1.8461628655
H -1.5154587720 0.5385789920 0.9005423593
H -1.8858865054 1.4064066048 -0.5899704696
H -2.7637978308 -0.7186235712 -1.5800209795
H -2.4874461333 -1.5338401297 -0.0417043590
H -4.3182550526 0.8767967027 -0.4203800188
H -4.8574211430 -0.8016959246 -0.4251989887
H -3.9988160306 -1.0651454112 1.9175270809
H -3.5703037288 0.6468792778 1.9348814923
H -5.2567700530 0.1646563552 1.7843737391
32
CONF194
C 4.2189308164 0.5445722041 -1.1453737821
C 3.6997790832 -0.7887990067 -0.6187719300
C 2.2159592601 -0.7522926636 -0.2498800643
C 1.9173907739 0.1554668574 0.9428197542
C 0.4930371409 -0.0012935838 1.4771741187
C -0.5773329700 0.4731068960 0.4959971041
C -1.9739247670 0.3964836584 1.1094578993
C -3.0680552623 0.9755088478 0.2104582847
C -3.2646776948 0.2476905744 -1.1209769835
C -3.6952058839 -1.2054045765 -0.9555749206
H 4.1763349095 1.3100408809 -0.3753300067
H 3.6240241871 0.8747051936 -1.9941357485
H 5.2525804231 0.4455666875 -1.4684891963
H 4.2819104404 -1.0837679400 0.2574145295
H 3.8483784296 -1.5526545170 -1.3858205215
H 1.8927595866 -1.7675883079 -0.0062668574
H 1.6453171855 -0.4204672719 -1.1189858595
H 2.0760632762 1.1980870485 0.6622965144
H 2.6179048208 -0.0836407431 1.7471044740
H 0.4024526118 0.5755466077 2.4013391352
H 0.3139319975 -1.0501835330 1.7264930303
H -0.5403420876 -0.1432333895 -0.4021194753
H -0.3676612572 1.5055155209 0.2053777195
H -2.2061127588 -0.6416090114 1.3526978872
H -1.9754795600 0.9565351451 2.0484327478
H -4.0126001502 0.9554886445 0.7600354957
H -2.8311403678 2.0218640516 0.0016071695
H -4.0328281733 0.7808517597 -1.6866331849
H -2.3439594251 0.2907172999 -1.7047823693
H -4.5842524286 -1.2694484847 -0.3318892660
H -3.9232502826 -1.6429118972 -1.9247562684
H -2.9076724766 -1.7961395321 -0.4954605638
32
CONF221
C 4.9327836473 -0.0396750325 0.8380118298
C 3.8406800144 -0.6671278524 -0.0203448483
C 2.5444955765 0.1391444924 0.0288857203
C 1.4496348652 -0.4910060266 -0.8296904447
C 0.1640492910 0.3364517172 -0.8878772791
C -0.6052029221 0.3445625362 0.4315959437
C -1.8660461778 1.2103811183 0.3916923710
C -2.9353078392 0.7632548667 -0.6085245184
C -3.4529415106 -0.6622318198 -0.4086215874
C -4.1271037591 -0.8734683453 0.9422987746
H 4.6155972914 0.0156593692 1.8770321016
H 5.1546361249 0.9681926229 0.4941985163
H 5.8451576817 -0.6288840589 0.7878838401
H 3.6447281636 -1.6840009920 0.3275274333
H 4.1854683994 -0.7330469333 -1.0549343980
H 2.7390754206 1.1545511205 -0.3248477359
H 2.2110745672 0.2066915819 1.0658693144
H 1.2191040845 -1.4881581222 -0.4467681015
H 1.8332415704 -0.6106633414 -1.8462289622
H -0.4737623002 -0.0789599056 -1.6701110955
H 0.4089563584 1.3634922271 -1.1694174850
H 0.0404227176 0.7353578468 1.2204892072
H -0.8666225924 -0.6798791269 0.7022039517
H -2.3023049913 1.2335383182 1.3921099470
H -1.5771924683 2.2345068977 0.1412729396
H -3.7789962092 1.4539213806 -0.5297473529
H -2.5396465961 0.8517955906 -1.6221603886
H -4.1758964009 -0.8736854647 -1.2005314689
H -2.6326194107 -1.3727472438 -0.5213754997
H -3.4122011331 -0.7754815926 1.7548728983
H -4.9192665816 -0.1424984097 1.0896326593
H -4.5640173712 -1.8681172728 0.9937269469
32
CONF164
C 3.1167717672 0.0100890476 -2.0420896246
C 3.6360788580 -0.0758727460 -0.6110252402
C 2.6612185257 0.4934062963 0.4208603644
C 1.3775408896 -0.3231215434 0.5582113154
C 0.4828389593 0.2220433598 1.6693835186
C -0.7612784971 -0.6310457209 1.9247534892
C -1.7276519006 -0.7329912660 0.7429112914
C -2.2991370793 0.6180323637 0.3155665316
C -3.4589030982 0.4926970361 -0.6734876269
C -3.0340648913 -0.0715526899 -2.0248098386
H 2.2391759405 -0.6163002572 -2.1772649968
H 3.8809407537 -0.3232872987 -2.7403512805
H 2.8509590298 1.0358511016 -2.2882047479
H 4.5748134343 0.4791898294 -0.5437314491
H 3.8510620867 -1.1183060741 -0.3651941868
H 2.4075479203 1.5205310871 0.1474548713
H 3.1618619647 0.5263391088 1.3920554548
H 1.6333743983 -1.3624810527 0.7788747213
H 0.8347930052 -0.3033468691 -0.3865798709
H 0.1857718440 1.2437427265 1.4269498033
H 1.0611912141 0.2645007621 2.5962784423
H -1.2975565662 -0.2112106623 2.7797371037
H -0.4429060255 -1.6398710752 2.1997499306
H -1.2219568650 -1.2054297632 -0.0992164612
H -2.5540891977 -1.3855422205 1.0368037267
H -2.6541558253 1.1450256410 1.2049601280
H -1.5139866533 1.2242787821 -0.1395135126
H -4.2341644101 -0.1448032458 -0.2420302360
H -3.8939625651 1.4833524810 -0.8262099508
H -2.6880385754 -1.0970398933 -1.9268586796
H -3.8719306699 -0.0611991375 -2.7180508417
H -2.2302542569 0.5259364064 -2.4496452482
32
CONF165
C 2.8835463910 -0.0021658877 -2.0587330925
C 3.3739796616 -0.5249818396 -0.7128566789
C 2.2643038372 -0.6125551256 0.3360425612
C 1.7372224723 0.7556983478 0.7644134956
C 0.7788846632 0.6876681331 1.9552485783
C -0.4817652105 -0.1474541335 1.7211027670
C -1.3412417299 0.3586635391 0.5647001375
C -2.6441661843 -0.4294688104 0.4460384387
C -3.5617318208 0.0809441659 -0.6661850816
C -2.9999193596 -0.1529743925 -2.0643845808
H 2.5402833861 1.0255627147 -1.9759866708
H 2.0616433013 -0.6129636415 -2.4261674672
H 3.6869733465 -0.0328468931 -2.7909584293
H 4.1724741506 0.1215649489 -0.3415760471
H 3.7967556132 -1.5223245364 -0.8560734090
H 2.6539472843 -1.1289438809 1.2170725145
H 1.4477905610 -1.2133729276 -0.0679601945
H 1.2366250157 1.2397151260 -0.0741179367
H 2.5853631929 1.3852077162 1.0465360581
H 0.4805472473 1.7063513152 2.2159634162
H 1.3129929729 0.2717403373 2.8134503440
H -1.0772512331 -0.1277877873 2.6378403321
H -0.2057509429 -1.1873827370 1.5380023764
H -1.5716908872 1.4154102875 0.7211977727
H -0.7820980373 0.2702307221 -0.3663812121
H -2.4132070633 -1.4822673532 0.2658532021
H -3.1797124053 -0.3689379312 1.3970179198
H -4.5237435369 -0.4304716195 -0.5842710636
H -3.7422600417 1.1485105386 -0.5215850465
H -2.0920551137 0.4228572283 -2.2223695886
H -2.7707980872 -1.2064264400 -2.2096165184
H -3.7254237054 0.1471988104 -2.8167809457
32
CONF91
C 5.2138853493 -0.3885828948 0.1394280135
C 3.7134583134 -0.6548221034 0.1033045150
C 2.9105561926 0.6001262947 0.4416305624
C 1.4011548152 0.3592426097 0.5084230803
C 0.7662914181 0.1369354923 -0.8635404905
C -0.7161647147 -0.2315617151 -0.7854296589
C -1.5951508524 0.9018042896 -0.2585531230
C -3.0906374711 0.6015901525 -0.3697730892
C -3.5509384953 -0.5304808910 0.5469319870
C -5.0625978828 -0.7189511480 0.4926792746
H 5.4806309262 0.3826329548 -0.5797647195
H 5.7687387356 -1.2917021526 -0.1029578561
H 5.5179056919 -0.0531786732 1.1286113737
H 3.4678474050 -1.4410379575 0.8209906085
H 3.4397779636 -1.0142838548 -0.8899442220
H 3.1198370792 1.3748620209 -0.2997246507
H 3.2479093245 0.9734624116 1.4118128579
H 0.9340577428 1.2257171582 0.9797325175
H 1.2048694700 -0.5096203374 1.1412977857
H 1.2913742033 -0.6720392122 -1.3745830160
H 0.8845935462 1.0411610722 -1.4655292313
H -0.8257843071 -1.1101781661 -0.1474127408
H -1.0607818486 -0.5023629831 -1.7867010308
H -1.3531898599 1.1020182967 0.7866179780
H -1.3771757319 1.8073045223 -0.8304133228
H -3.6479714691 1.5059373137 -0.1125236129
H -3.3335172499 0.3486941371 -1.4047033747
H -3.0654063865 -1.4623442262 0.2533169592
H -3.2500879365 -0.3058120920 1.5728525446
H -5.3798897847 -0.9549704340 -0.5206542558
H -5.3706543933 -1.5306968208 1.1472192727
H -5.5722065372 0.1890966723 0.8075142408
32
CONF162
C 3.0853108567 0.0408671778 2.0511647274
C 3.6134259801 -0.0948941567 0.6271177840
C 2.6604950339 0.4705853672 -0.4271430694
C 1.3629345975 -0.3244086625 -0.5596808922
C 0.4825867755 0.2213099579 -1.6820069689
C -0.7663761608 -0.6231956873 -1.9425505718
C -1.7309902442 -0.7304956579 -0.7597693919
C -2.2901567624 0.6199478894 -0.3151280557
C -3.4351823399 0.4923003416 0.6907334961
C -2.9896474512 -0.0722019945 2.0353169000
H 2.8433928222 1.0790014273 2.2685753664
H 3.8353635187 -0.2931995292 2.7642145489
H 2.1911757523 -0.5596949521 2.1951641000
H 3.8048763432 -1.1482922589 0.4101251696
H 4.5658965721 0.4354228335 0.5535173109
H 3.1711168300 0.4728365159 -1.3936840479
H 2.4240285719 1.5080560381 -0.1784784431
H 0.8164818890 -0.2818111447 0.3822070489
H 1.6011523430 -1.3711153339 -0.7648151967
H 1.0688002669 0.2530758646 -2.6043788363
H 0.1920981446 1.2470317410 -1.4485437995
H -0.4536284113 -1.6314865995 -2.2258756695
H -1.3014666505 -0.1938311310 -2.7935245314
H -2.5636161987 -1.3727892100 -1.0588487684
H -1.2269289240 -1.2169168261 0.0753467344
H -1.4957368062 1.2198955541 0.1321056852
H -2.6560324120 1.1542510125 -1.1957134620
H -3.8692844605 1.4822009302 0.8508737216
H -4.2158742899 -0.1459049645 0.2702532855
H -2.6395994480 -1.0956694117 1.9310791464
H -2.1834251838 0.5286939863 2.4506441680
H -3.8182255558 -0.0675448591 2.7396670897
32
CONF224
C 3.7494720896 -0.8340190406 1.4819532803
C 3.6600393668 0.4154627947 0.6128940198
C 3.2040399683 0.1238750015 -0.8182306041
C 1.7860019052 -0.4365618523 -0.9428227928
C 0.7019057598 0.5484262792 -0.5104123560
C -0.6994956735 -0.0098138699 -0.7500154916
C -1.7837527639 0.9858748973 -0.3432788471
C -3.2012097463 0.5096632281 -0.6665423014
C -3.6610880193 -0.7249868945 0.1114183025
C -3.7555022029 -0.4880211176 1.6145421679
H 2.7669541436 -1.2692125525 1.6435319244
H 4.1734830768 -0.5878751627 2.4526680453
H 4.3840022638 -1.5805539406 1.0091057666
H 4.6472020784 0.8816807011 0.5648280720
H 2.9837975003 1.1349116833 1.0770484595
H 3.8996794100 -0.5913772782 -1.2643362643
H 3.2656899334 1.0482622244 -1.3981072773
H 1.6980419237 -1.3536239752 -0.3582389042
H 1.6163353339 -0.7024110725 -1.9895082362
H 0.8204497719 1.4808905955 -1.0680888520
H 0.8121939249 0.7802178866 0.5504034388
H -0.8122169803 -0.9346277111 -0.1814779765
H -0.8154751486 -0.2547430532 -1.8088386270
H -1.6995274843 1.1995070141 0.7233762270
H -1.6108853678 1.9246494687 -0.8760377322
H -3.8967015053 1.3273364252 -0.4610863372
H -3.2594363442 0.2889142765 -1.7353897166
H -4.6472356432 -1.0118818514 -0.2618985721
H -2.9849585340 -1.5585073959 -0.0846355999
H -4.3904720674 0.3700831905 1.8242832098
H -4.1814509494 -1.3590720692 2.1069861892
H -2.7743633963 -0.3038859914 2.0438470435
32
CONF136
C 3.3354674475 1.4026400478 1.1792794473
C 3.4417514733 -0.1002758846 0.9449136084
C 2.1614632806 -0.7097881186 0.3718497646
C 1.8552996555 -0.2344371683 -1.0474977241
C 0.7273993105 -1.0227567917 -1.7162341044
C -0.6248497890 -0.9345896813 -1.0059057717
C -1.1750139992 0.4890551480 -0.9361091400
C -2.6250234150 0.5493917987 -0.4542249661
C -2.7973132821 0.1290650700 1.0043419753
C -4.2353190636 0.3126700830 1.4755783671
H 3.2061666720 1.9348098773 0.2407248882
H 4.2381633443 1.7744988248 1.6583704994
H 2.4881409451 1.6270648417 1.8236611638
H 3.6649197313 -0.5900907141 1.8958620046
H 4.2734489547 -0.3033940347 0.2662606408
H 1.3287530334 -0.4619970004 1.0324327213
H 2.2666148170 -1.7977178133 0.3615928609
H 2.7562330323 -0.3477771943 -1.6563429000
H 1.5982447145 0.8247134951 -1.0369563716
H 1.0200289005 -2.0744406783 -1.7730840042
H 0.6105052475 -0.6583011747 -2.7401516059
H -0.5323102450 -1.3466164440 -0.0010061247
H -1.3370137758 -1.5586181819 -1.5522201339
H -0.5575620159 1.0919272635 -0.2679303389
H -1.1198768884 0.9341082318 -1.9329098182
H -2.9874342382 1.5745735488 -0.5660325591
H -3.2444249127 -0.0893236439 -1.0886498528
H -2.5149504063 -0.9183392755 1.1213950162
H -2.1316847761 0.7271121995 1.6312989717
H -4.5340755086 1.3554204346 1.3922514599
H -4.9126679159 -0.2859988468 0.8705101292
H -4.3402484761 0.0067960924 2.5137268240
32
CONF130
C 4.2653220570 0.0568940392 -1.4826169178
C 4.2400438205 -0.3404513069 -0.0107565025
C 3.0830835571 0.2905361817 0.7654834335
C 1.7115965818 -0.2317257149 0.3414927677
C 0.5969630612 0.3532251469 1.2069259346
C -0.7888737721 -0.2073229523 0.8816926260
C -1.3174885918 0.2442540783 -0.4787973499
C -2.7125445537 -0.2986737485 -0.7938384899
C -3.8180380729 0.3187795025 0.0607507678
C -5.1960711113 -0.1773527709 -0.3619668832
H 5.1499930388 -0.3495853704 -1.9670703818
H 4.2859011781 1.1398618528 -1.5826974930
H 3.3903571735 -0.3213068400 -2.0043087889
H 5.1790508185 -0.0293800974 0.4531715781
H 4.1763647156 -1.4279363950 0.0704231014
H 3.1116942172 1.3749592885 0.6350608580
H 3.2231471836 0.0835340415 1.8296228735
H 1.6992964262 -1.3210897108 0.4272420632
H 1.5337360760 0.0253190263 -0.7025068664
H 0.5817367375 1.4394870916 1.0902059901
H 0.8215519398 0.1389236611 2.2550353746
H -1.4805922056 0.1202906751 1.6597580445
H -0.7511721809 -1.2989642141 0.9090783387
H -1.3405765233 1.3361831302 -0.5116447008
H -0.6340778367 -0.0968368123 -1.2583751858
H -2.9355039549 -0.0968269220 -1.8446321482
H -2.7156544542 -1.3829870922 -0.6595807706
H -3.6574570496 0.0701529991 1.1109355937
H -3.7794464495 1.4064250794 -0.0340985643
H -5.3935553445 0.0827453526 -1.3996519963
H -5.2571363520 -1.2589350867 -0.2633660227
H -5.9702522835 0.2686955340 0.2576395061
32
CONF163
C 3.0454646450 0.0553502144 2.0622819009
C 3.5860693291 -0.1147976324 0.6466341301
C 2.6557587497 0.4519738165 -0.4270673148
C 1.3503459661 -0.3280755422 -0.5701928643
C 0.4825577543 0.2306490896 -1.6958593602
C -0.7736234351 -0.5998114397 -1.9670705761
C -1.7356326966 -0.7196585180 -0.7833588707
C -2.2794393127 0.6271547082 -0.3100932522
C -3.4049253871 0.4910142594 0.7165257099
C -2.9352602469 -0.0935300763 2.0443592067
H 3.7760624813 -0.2928012257 2.7886481631
H 2.1313250006 -0.5150764017 2.2028620657
H 2.8335436444 1.1031471264 2.2637975636
H 3.7586582748 -1.1752109430 0.4490574573
H 4.5497077919 0.3951807658 0.5752981350
H 3.1797757152 0.4384553783 -1.3863012773
H 2.4288273140 1.4946924057 -0.1917186621
H 0.7986658680 -0.2819677480 0.3684579043
H 1.5781818842 -1.3768129035 -0.7766949521
H 1.0743060300 0.2603603889 -2.6147605616
H 0.2012089167 1.2583563065 -1.4598010365
H -0.4694769772 -1.6057835896 -2.2675007809
H -1.3072192559 -0.1524105573 -2.8096352002
H -2.5758394219 -1.3477071596 -1.0913373773
H -1.2334201180 -1.2271771645 0.0401890996
H -1.4736101705 1.2172625198 0.1297072002
H -2.6595153278 1.1750801099 -1.1761789656
H -3.8309540359 1.4806188693 0.8986248233
H -4.1969209788 -0.1379919687 0.3033760356
H -3.7481179009 -0.0900370988 2.7667661472
H -2.5968732564 -1.1187165639 1.9207148369
H -2.1148219349 0.4953352558 2.4489254064
32
CONF254
C 3.0735227587 -1.4094985355 -1.1347038502
C 2.2679104970 -1.3010200040 0.1549117449
C 2.4745065675 0.0266134514 0.8862846278
C 2.0406107874 1.2700990748 0.1056879365
C 0.5689946243 1.2875530246 -0.3111692875
C -0.3906635595 1.2796092734 0.8769285859
C -1.8477110041 1.5166268603 0.4748636290
C -2.4462074196 0.4446350321 -0.4381437003
C -2.5010235457 -0.9416064023 0.2008356281
C -3.2292079155 -1.9415071335 -0.6900302228
H 2.7317589384 -0.6864595245 -1.8705461369
H 2.9677705967 -2.4038645346 -1.5624516266
H 4.1285961602 -1.2302111536 -0.9391926255
H 2.5681762069 -2.1083905661 0.8276076164
H 1.2086422551 -1.4418225859 -0.0660960959
H 3.5364416925 0.1303868649 1.1241255076
H 1.9329827061 -0.0085276969 1.8335999958
H 2.6580246859 1.3637730532 -0.7897201479
H 2.2392223813 2.1462531787 0.7286485438
H 0.3662097106 0.4338055748 -0.9576514974
H 0.3911920763 2.1923764120 -0.8986698270
H -0.0952923950 2.0717480774 1.5701574709
H -0.3132757741 0.3326836110 1.4112257671
H -2.4521387243 1.5774866335 1.3836168122
H -1.9189655070 2.4821888120 -0.0325341875
H -3.4639545477 0.7486837044 -0.6967043618
H -1.8784194409 0.3923202534 -1.3686928311
H -1.4887418727 -1.3045320755 0.3863759658
H -3.0118540276 -0.8736582248 1.1642188287
H -4.2531185084 -1.6197860802 -0.8675537988
H -2.7277975733 -2.0298570250 -1.6514394851
H -3.2533482507 -2.9234043737 -0.2234734180
32
CONF135
C 4.9289960542 -0.1157111273 0.8613516843
C 4.1980521237 -0.1871344189 -0.4749624313
C 2.7835294954 0.3935486873 -0.4245160652
C 1.8171045022 -0.4502536042 0.4051063492
C 0.3949755508 0.1145544932 0.4367205708
C -0.3512816337 -0.0557169725 -0.8855646479
C -1.7570478514 0.5473602729 -0.8666848395
C -2.7331998279 -0.2031991295 0.0371333616
C -4.1468992811 0.3673779320 -0.0558803415
C -5.1210116227 -0.3772298800 0.8495774749
H 5.9509401778 -0.4705961404 0.7502831500
H 4.4372358076 -0.7308769784 1.6101752605
H 4.9590954223 0.9099610683 1.2227403471
H 4.1474543251 -1.2269222161 -0.8061513951
H 4.7745318758 0.3681374273 -1.2188293059
H 2.4082636002 0.4692792989 -1.4467072452
H 2.8247940725 1.4039941985 -0.0108627093
H 2.1859375862 -0.5059953331 1.4306934029
H 1.7911214258 -1.4669452131 0.0056804745
H 0.4353655041 1.1756347285 0.6941223783
H -0.1595825946 -0.3973288287 1.2251098232
H -0.4191089879 -1.1194566008 -1.1258464093
H 0.2163578532 0.4279488859 -1.6826004419
H -1.6966518733 1.5901728651 -0.5460972779
H -2.1524975524 0.5396463393 -1.8856751365
H -2.7512858100 -1.2575288225 -0.2494502857
H -2.3978230529 -0.1458263136 1.0740492922
H -4.1268690546 1.4234671219 0.2229526035
H -4.4935556813 0.3057053644 -1.0901218653
H -5.1676461394 -1.4287466329 0.5751070720
H -4.8039426201 -0.3086656572 1.8878298173
H -6.1196454529 0.0445797025 0.7664375428
32
CONF255
C 3.0847704844 -1.4221381511 -1.1176621731
C 2.2743966928 -1.2970044053 0.1674712375
C 2.4763091112 0.0412325188 0.8805291281
C 2.0359696415 1.2721056486 0.0838348460
C 0.5619426094 1.2809960946 -0.3248411462
C -0.3907358409 1.2818937304 0.8689175587
C -1.8500356608 1.5175270250 0.4743474645
C -2.4528507974 0.4442353224 -0.4342530507
C -2.4943200684 -0.9433611870 0.2028101257
C -3.2350851231 -1.9430610199 -0.6778304423
H 4.1380551040 -1.2328055787 -0.9219179793
H 2.7408605954 -0.7138250356 -1.8667120887
H 2.9868180472 -2.4242136887 -1.5288979623
H 2.5737515360 -2.0942947301 0.8524956372
H 1.2161348608 -1.4427348377 -0.0552053549
H 3.5381265216 0.1525568030 1.1154846598
H 1.9361727547 0.0169033213 1.8289367955
H 2.6482629651 1.3533895019 -0.8162878341
H 2.2363791379 2.1577911846 0.6925794723
H 0.3580021460 0.4202850142 -0.9617152165
H 0.3781938337 2.1794546312 -0.9202082236
H -0.0905423555 2.0781850063 1.5553002817
H -0.3112407028 0.3383053100 1.4087713988
H -2.4493776550 1.5788315722 1.3864405233
H -1.9249250301 2.4825025496 -0.0336045532
H -3.4746503062 0.7439532544 -0.6816860293
H -1.8944304466 0.3963439029 -1.3707023622
H -1.4783154309 -1.3044635608 0.3707793177
H -2.9892972555 -0.8784591936 1.1746405250
H -2.7505021419 -2.0272045002 -1.6482063297
H -3.2479949245 -2.9262909526 -0.2136348201
H -4.2629523878 -1.6239922925 -0.8362789268
32
CONF129
C 5.1891153134 0.2312820361 0.3636047833
C 3.8232082004 -0.2890004151 -0.0692424108
C 2.7042793552 0.2795205015 0.8015696432
C 1.3223591946 -0.2899035361 0.4761349377
C 0.7918105498 0.1591020033 -0.8844552722
C -0.6010523159 -0.3893422741 -1.2002899493
C -1.7065721016 0.2222190705 -0.3415272496
C -3.0875199959 -0.2714130156 -0.7687770681
C -4.2318664547 0.3745165251 0.0138989517
C -4.2670146038 -0.0406528379 1.4806281815
H 5.3966363632 -0.0512105838 1.3934181704
H 5.2214946931 1.3163262380 0.2939820748
H 5.9727305089 -0.1773944136 -0.2696910938
H 3.8120281739 -1.3792677439 -0.0014040016
H 3.6542092172 -0.0181439543 -1.1125597134
H 2.6799106384 1.3664445329 0.6926978876
H 2.9340725348 0.0589628397 1.8471375323
H 0.6286936308 0.0329779389 1.2544215617
H 1.3668551913 -1.3813359590 0.5028334427
H 1.4770866159 -0.1791150306 -1.6636701133
H 0.7639281903 1.2508938338 -0.9174762361
H -0.5992916942 -1.4739702213 -1.0686254390
H -0.8244533274 -0.1865816690 -2.2509229450
H -1.5383346428 -0.0343802380 0.7041786158
H -1.6707594945 1.3107488101 -0.4311716925
H -3.2242621479 -0.0528360932 -1.8310153039
H -3.1361700107 -1.3561758165 -0.6474942202
H -4.1450764024 1.4613148619 -0.0537376320
H -5.1767714393 0.0891307441 -0.4544495657
H -3.3845169698 0.3116755302 2.0076716675
H -5.1429407580 0.3789139480 1.9697082593
H -4.3112936108 -1.1240509747 1.5669539812
32
CONF73
C 5.0681057301 -0.3673241888 0.4670810570
C 3.5522185894 -0.4902907719 0.3654097976
C 2.8927923655 0.8633029744 0.1067584467
C 1.3649542046 0.8068591138 0.1355166357
C 0.7645168688 0.0636331143 -1.0568697847
C -0.7653526872 0.0791771928 -1.0551794786
C -1.3648572994 -0.8177690257 0.0268457416
C -2.8927176328 -0.8700042133 -0.0080806226
C -3.5519559903 0.4365215906 0.4305174949
C -5.0677317576 0.3007547816 0.5162239771
H 5.5195931406 -1.3396532334 0.6485752925
H 5.3425968850 0.2970300845 1.2836301491
H 5.4797253333 0.0366509183 -0.4551249799
H 3.1599715892 -0.9073601552 1.2958809946
H 3.3034553839 -1.1823755143 -0.4405607420
H 3.2244988780 1.2490236050 -0.8601707306
H 3.2296953676 1.5647937808 0.8742193145
H 0.9758385163 1.8281656603 0.1381609184
H 1.0496283061 0.3301846115 1.0651649842
H 1.1079662811 -0.9722017149 -1.0602125675
H 1.1218124588 0.5353631605 -1.9756456773
H -1.1234214476 -0.2646600386 -2.0287801189
H -1.1087435031 1.1060259347 -0.9188390620
H -0.9757418184 -1.8301113162 -0.1082116415
H -1.0488088460 -0.4704429374 1.0119223251
H -3.2251677124 -1.1224346796 -1.0177971169
H -3.2290041225 -1.6682467805 0.6584832530
H -3.1588488458 0.7250427057 1.4081741575
H -3.3040201834 1.2305509244 -0.2755261699
H -5.5191070626 1.2398640893 0.8269446201
H -5.4801941747 0.0240593308 -0.4514604019
H -5.3413954111 -0.4671911254 1.2365262786
32
CONF114
C 4.5582663413 -0.7038889944 1.0107607271
C 4.2589132164 0.0666814218 -0.2704716541
C 2.8098911289 0.5487268771 -0.3564279976
C 1.8053668199 -0.5964676938 -0.4758279430
C 0.3847387034 -0.1264526782 -0.7922968743
C -0.2435503135 0.6876363334 0.3377767495
C -1.7083419657 1.0458474044 0.0781493633
C -2.6556135943 -0.1460105637 0.2023295547
C -4.1161196898 0.2641384842 0.0265695649
C -5.0587863701 -0.9264775834 0.1575692184
H 3.9920568151 -1.6305278162 1.0488739532
H 4.3007803245 -0.1055454972 1.8819576989
H 5.6160586245 -0.9505292321 1.0640580095
H 4.4808905926 -0.5652185863 -1.1336024976
H 4.9179841173 0.9367329958 -0.3204122095
H 2.7086175236 1.1960091498 -1.2312728333
H 2.5850022103 1.1468509524 0.5282523076
H 1.7867616195 -1.1687025967 0.4532088557
H 2.1350350371 -1.2671432062 -1.2735676819
H -0.2299940567 -1.0076826558 -0.9842105185
H 0.3959825204 0.4746539021 -1.7048127290
H 0.3207392331 1.6130919789 0.4650121851
H -0.1729482085 0.1237879813 1.2709745835
H -2.0152100585 1.8074607557 0.7994646124
H -1.8018224567 1.4817337133 -0.9193214739
H -2.4080650807 -0.8980668954 -0.5488816345
H -2.5278181791 -0.6045987880 1.1859098080
H -4.3729489812 1.0144773382 0.7779664629
H -4.2450779740 0.7235064160 -0.9561307946
H -4.9562716744 -1.3862892340 1.1380299176
H -6.0920777200 -0.6128889088 0.0310830038
H -4.8319551347 -1.6764517329 -0.5969544039
32
CONF257
C 3.0766719316 -1.4141855506 -1.1283744708
C 2.2651713488 -1.3001462392 0.1570960793
C 2.4745848350 0.0276080751 0.8873710821
C 2.0446269744 1.2715588615 0.1052891207
C 0.5741147863 1.2911682538 -0.3154123534
C -0.3887292589 1.2811599837 0.8700901272
C -1.8448193662 1.5172796815 0.4640865189
C -2.4428309513 0.4405300304 -0.4436235451
C -2.5114793734 -0.9391778121 0.2080716079
C -3.2362716938 -1.9438222440 -0.6802552638
H 2.9675986066 -2.4082979820 -1.5558842058
H 4.1317553909 -1.2405921044 -0.9276469293
H 2.7427971990 -0.6897912120 -1.8665499967
H 2.5582051105 -2.1080452797 0.8323745588
H 1.2063172729 -1.4360847568 -0.0689093171
H 3.5365597756 0.1287596071 1.1261578382
H 1.9320483537 -0.0050459302 1.8341704635
H 2.6644249447 1.3640053748 -0.7886071159
H 2.2430595062 2.1475851236 0.7285079821
H 0.3723910014 0.4391765622 -0.9645449221
H 0.3986197777 2.1974998105 -0.9012870468
H -0.0958040994 2.0728905182 1.5648044429
H -0.3119822987 0.3338079565 1.4036430221
H -2.4510106704 1.5839304810 1.3712502250
H -1.9139587878 2.4800209152 -0.0488983631
H -3.4566681296 0.7482691724 -0.7130146700
H -1.8681999455 0.3758917137 -1.3691564965
H -1.5031477933 -1.3057907276 0.4074771544
H -3.0316356346 -0.8589688637 1.1655225362
H -2.7214062464 -2.0504425225 -1.6326037865
H -3.2775332551 -2.9188624748 -0.2008333938
H -4.2539830319 -1.6143048879 -0.8777008851
32
CONF161
C 3.0562976773 0.0471325478 2.0605426761
C 3.5932317186 -0.1227643933 0.6434663508
C 2.6625733328 0.4497478449 -0.4268660940
C 1.3558774791 -0.3277465437 -0.5724052302
C 0.4846960391 0.2433045180 -1.6892299550
C -0.7723128552 -0.5839007678 -1.9661686026
C -1.7341145994 -0.7115879913 -0.7831161211
C -2.2741034904 0.6327674379 -0.2982434691
C -3.4137029844 0.4910528043 0.7118842030
C -2.9656631811 -0.1157747341 2.0370844710
H 3.7898710368 -0.2985097903 2.7850779981
H 2.1439754904 -0.5254595607 2.2042972852
H 2.8423418483 1.0945976326 2.2617540348
H 3.7612681211 -1.1835172206 0.4436267108
H 4.5587234408 0.3836173576 0.5708672969
H 3.1855003311 0.4397762813 -1.3867143001
H 2.4372831150 1.4917129857 -0.1867035502
H 0.8078328949 -0.2906116205 0.3687718249
H 1.5819316184 -1.3745570172 -0.7902550651
H 1.0739215474 0.2832622179 -2.6093700066
H 0.2039705114 1.2682681570 -1.4408446116
H -0.4694074954 -1.5878018871 -2.2746348224
H -1.3059053954 -0.1293831531 -2.8049219094
H -2.5760441354 -1.3345910844 -1.0965757594
H -1.2331560112 -1.2276711748 0.0359030858
H -1.4695962618 1.2109246011 0.1595149328
H -2.6394935587 1.1951069243 -1.1613678326
H -3.8346276272 1.4812529134 0.9024966386
H -4.2049893004 -0.1259602193 0.2796726154
H -2.1487475592 0.4632049960 2.4625513479
H -3.7889290073 -0.1198732277 2.7476408273
H -2.6296736049 -1.1403713152 1.9023006898
32
CONF384
C 3.3348409157 0.7671330179 1.3669833624
C 2.3469605538 -0.3841128603 1.2166372362
C 2.3541570732 -1.0076910160 -0.1802349954
C 1.9528167945 -0.0606763423 -1.3141132489
C 0.5547968197 0.5460175731 -1.1824987789
C -0.5575742843 -0.5003404585 -1.2050755966
C -1.9554610923 0.1113876474 -1.3127813489
C -2.3562320019 1.0139043369 -0.1429713202
C -2.3444417053 0.3378423426 1.2292214801
C -3.3302110396 -0.8198222558 1.3383305400
H 3.3633716750 1.1065155742 2.3998786053
H 3.0506865611 1.6095061736 0.7419204537
H 4.3353028270 0.4482860501 1.0824560759
H 1.3428149121 -0.0343107782 1.4619250332
H 2.6027077883 -1.1650714647 1.9372125071
H 1.6857358463 -1.8708784277 -0.1809845042
H 3.3611806268 -1.3779739396 -0.3897254888
H 2.0062676461 -0.6171775594 -2.2536511416
H 2.6808401611 0.7503181109 -1.3773497899
H 0.4029277961 1.2360264529 -2.0170148951
H 0.4972378740 1.1288201112 -0.2631061258
H -0.5010752284 -1.1211705905 -0.3108421288
H -0.4048059524 -1.1548293006 -2.0675801791
H -2.0090387743 0.7038990752 -2.2300332158
H -2.6836823456 -0.6964022027 -1.4072248786
H -1.6895371745 1.8778932793 -0.1125585570
H -3.3644644114 1.3897566351 -0.3360811190
H -1.3391324747 -0.0194785966 1.4583311063
H -2.5993529283 1.0904658525 1.9796295507
H -3.0473495492 -1.6367391917 0.6797829644
H -3.3543105241 -1.1992677949 2.3573114966
H -4.3321776831 -0.4915884825 1.0702298510
32
CONF168
C 3.2990170706 1.3948481083 -1.1387873331
C 3.6820106044 0.4101406338 -0.0397358858
C 3.0249403643 -0.9620259092 -0.2019058163
C 1.4961360652 -0.9538906043 -0.1447844192
C 0.9472052065 -0.4692658494 1.1963427000
C -0.5527573965 -0.7207756038 1.3572935363
C -1.4114206769 0.1085315250 0.4041774226
C -2.9018429738 -0.1052045292 0.6618190768
C -3.8017867992 0.7718303726 -0.2100427060
C -3.7504812911 0.4042112027 -1.6889590695
H 2.2443643284 1.6509807839 -1.0834895838
H 3.4998609155 0.9673294380 -2.1187582176
H 3.8749887487 2.3120009696 -1.0396810143
H 3.4215526629 0.8301641809 0.9329681795
H 4.7657186877 0.2698578445 -0.0540094703
H 3.4019827524 -1.6214580804 0.5841151174
H 3.3330876476 -1.3846908788 -1.1616566441
H 1.1451975256 -1.9745813477 -0.3178202424
H 1.1072750376 -0.3330752453 -0.9518439103
H 1.1394117572 0.5989498729 1.3112699878
H 1.4753199957 -0.9906010667 1.9988890374
H -0.8385316665 -0.4811726659 2.3849108560
H -0.7603050095 -1.7817490247 1.1979454894
H -1.1726040581 1.1672089106 0.5332037335
H -1.1780259543 -0.1667069451 -0.6241542436
H -3.1495792326 -1.1556459534 0.4913320355
H -3.1109911009 0.1155909471 1.7117952618
H -4.8311419155 0.6695585623 0.1417515006
H -3.5133150666 1.8181071873 -0.0859110663
H -3.9931379834 -0.6471668405 -1.8269355959
H -4.4680929071 0.9986501041 -2.2495829102
H -2.7626981307 0.5875468264 -2.1031007393
32
CONF171
C 3.2640227897 1.3893431066 -1.1689088753
C 3.6619623281 0.4356276561 -0.0480254867
C 3.0314827073 -0.9519530194 -0.1827271545
C 1.5028739501 -0.9715981235 -0.1241935467
C 0.9460031164 -0.4784844072 1.2104640203
C -0.5544418314 -0.7310847355 1.3651620075
C -1.4074748612 0.1002478620 0.4088026804
C -2.8998286435 -0.1138217713 0.6539688789
C -3.7910168722 0.7734400420 -0.2166122906
C -3.7222867857 0.4250152257 -1.6993908539
H 3.8177210020 2.3215181548 -1.0841369726
H 2.2033488000 1.6218091487 -1.1260162953
H 3.4818865515 0.9474732695 -2.1388151541
H 3.3904703306 0.8712987172 0.9147218417
H 4.7481968953 0.3158361991 -0.0560612478
H 3.4214900940 -1.5886971771 0.6155581423
H 3.3470933240 -1.3870622425 -1.1344710449
H 1.1702256546 -2.0007314477 -0.2827493846
H 1.1023948038 -0.3693121837 -0.9395158581
H 1.1349880215 0.5909803133 1.3184255753
H 1.4715994194 -0.9926088832 2.0192251521
H -0.8448478214 -0.4923924381 2.3916603238
H -0.7614644504 -1.7918011699 1.2037112280
H -1.1697781017 1.1585969235 0.5427170807
H -1.1666229337 -0.1718373957 -0.6186262502
H -3.1481271528 -1.1621391863 0.4717719992
H -3.1166319277 0.0976407217 1.7042934442
H -4.8241436979 0.6659637795 0.1221842469
H -3.5048062948 1.8182247511 -0.0758348952
H -3.9639326847 -0.6242900214 -1.8540281431
H -4.4325615542 1.0274671389 -2.2608670744
H -2.7294470086 0.6130320966 -2.0991120717
32
CONF260
C 3.0909647045 -1.4149734320 -1.1193575876
C 2.2785760091 -1.2989829158 0.1653764715
C 2.4789493684 0.0343904296 0.8879651056
C 2.0448328820 1.2708446678 0.0965094469
C 0.5742752736 1.2819329264 -0.3242910909
C -0.3885076657 1.2795231783 0.8613731177
C -1.8439394821 1.5185028553 0.4547030113
C -2.4462370970 0.4386737465 -0.4464566653
C -2.5266841953 -0.9351783973 0.2161001780
C -3.2511588473 -1.9429109431 -0.6689554314
H 4.1443584155 -1.2302842323 -0.9200335238
H 2.7503110482 -0.6991311132 -1.8627447288
H 2.9909586658 -2.4131605498 -1.5395583347
H 2.5771503867 -2.1008251981 0.8454578570
H 1.2206945790 -1.4435642458 -0.0599263555
H 3.5396801258 0.1427221903 1.1292656335
H 1.9336846561 0.0048363199 1.8333201855
H 2.6644914790 1.3588266666 -0.7979321175
H 2.2399048249 2.1522801739 0.7131220098
H 0.3751052208 0.4236685878 -0.9659160113
H 0.3960058362 2.1825591578 -0.9180079414
H -0.0931532995 2.0732994180 1.5526895790
H -0.3142568976 0.3341719303 1.3988226435
H -2.4496319998 1.5929960182 1.3615995966
H -1.9095451174 2.4783790040 -0.0640932520
H -3.4570358631 0.7510948083 -0.7217870180
H -1.8687784190 0.3626096415 -1.3693580157
H -1.5217947866 -1.3056452231 0.4253361737
H -3.0528513103 -0.8442554477 1.1692781919
H -4.2661310200 -1.6100713491 -0.8746302690
H -2.7313454803 -2.0588545007 -1.6174732336
H -3.2997519726 -2.9142430200 -0.1828059091
32
CONF103
C 4.6974456359 -0.0651475729 -1.0902727008
C 3.9894935092 -0.7486485052 0.0745393815
C 2.4646834362 -0.6468368219 -0.0000731216
C 1.9429437289 0.7644485112 0.2650934929
C 0.4258192078 0.8819774104 0.1091296617
C -0.3534884552 0.1235910407 1.1825500094
C -1.8575775259 0.3974844844 1.1376805661
C -2.5348912999 -0.1581666556 -0.1135325966
C -4.0508228890 0.0219031616 -0.0710111395
C -4.7217901377 -0.5270771915 -1.3247243170
H 5.7708895392 -0.2263367341 -1.0251684546
H 4.5159847595 1.0062842996 -1.0855913825
H 4.3462866387 -0.4698708235 -2.0369636931
H 4.3330111409 -0.3130502424 1.0155080598
H 4.2670890835 -1.8053722893 0.0795444670
H 2.0378354149 -1.3289581875 0.7372950482
H 2.1318599184 -0.9740487214 -0.9879976395
H 2.4119317808 1.4568330594 -0.4361987740
H 2.2286635989 1.0702970144 1.2745704109
H 0.1450916970 0.5147084305 -0.8794063356
H 0.1509375468 1.9385264528 0.1620973873
H 0.0261734206 0.4193435488 2.1638163229
H -0.1881468829 -0.9493891400 1.0716789253
H -2.3212942256 -0.0575144338 2.0167155729
H -2.0317429949 1.4747101767 1.1949517003
H -2.1447159623 0.3462653448 -0.9990618302
H -2.3020375749 -1.2217906710 -0.2059023723
H -4.4507271520 -0.4890346869 0.8079548314
H -4.2839792959 1.0843415914 0.0302765854
H -4.5139413336 -1.5892990388 -1.4329214555
H -5.7992299659 -0.3908174411 -1.2738160478
H -4.3515707517 -0.0145427986 -2.2098494327
32
CONF148
C 3.9832544782 1.2020598914 1.1354306265
C 2.9248733230 0.1357745500 0.8773768174
C 2.8134140311 -0.1973533242 -0.6090561146
C 1.8662208525 -1.3616195285 -0.9061009128
C 0.4140302426 -1.1349539830 -0.4811890595
C -0.2498644707 0.0348846275 -1.2050605601
C -1.7459282350 0.1488158526 -0.9086135997
C -2.0370825808 0.5424436440 0.5391548862
C -3.5069339185 0.8852867638 0.7856318962
C -4.4332508414 -0.3178277134 0.6482009625
H 3.7402813776 2.1163616495 0.5982995687
H 4.9603436031 0.8596530030 0.8016313925
H 4.0436889201 1.4325698297 2.1963663250
H 1.9635281380 0.4944905009 1.2483717575
H 3.1797825902 -0.7708780992 1.4311212427
H 3.8058271292 -0.4637262106 -0.9822175662
H 2.4903710662 0.6904782241 -1.1553490504
H 2.2396291083 -2.2537040702 -0.3966843096
H 1.8909584693 -1.5617619025 -1.9803742234
H 0.3737713637 -0.9749643706 0.5961508347
H -0.1502771202 -2.0456475610 -0.6983745387
H -0.1137125998 -0.0975963336 -2.2815068080
H 0.2366320049 0.9696872262 -0.9211637966
H -2.1756572978 0.9064801219 -1.5690272182
H -2.2270965615 -0.8036279412 -1.1373525570
H -1.7479432054 -0.2700206004 1.2080264510
H -1.4292500922 1.4150445974 0.7922544014
H -3.6042976325 1.2911331567 1.7954691563
H -3.8179221248 1.6644067828 0.0857450763
H -4.4352929396 -0.6928360105 -0.3716467420
H -4.1139178139 -1.1195402098 1.3104699402
H -5.4518520109 -0.0413266958 0.9101628930
32
CONF252
C 2.9399040516 -1.2336192131 1.5260580517
C 3.1633498312 -1.0426439360 0.0298024600
C 1.9580038940 -0.4273565410 -0.6826472549
C 1.6959530531 1.0211419021 -0.2738395280
C 0.6312770946 1.7066099501 -1.1328515234
C -0.7552789010 1.0630304603 -1.0676057021
C -1.3615384592 1.0855824944 0.3341243663
C -2.8283800928 0.6522317842 0.3623491863
C -3.0794324060 -0.7918788694 -0.0770081153
C -2.3992381171 -1.8211339605 0.8187672014
H 2.8149728647 -0.2772659379 2.0266534429
H 3.7914808646 -1.7413014343 1.9728675911
H 2.0510613918 -1.8355626647 1.7035258914
H 3.3748505573 -2.0152205058 -0.4211608140
H 4.0387253327 -0.4084468751 -0.1281800393
H 1.0781412606 -1.0375289369 -0.4710403964
H 2.1335600126 -0.4602574185 -1.7610126917
H 2.6272154863 1.5854076381 -0.3716953403
H 1.3966954471 1.0633732180 0.7733621562
H 0.9652969881 1.7046809012 -2.1737422722
H 0.5498714215 2.7495404001 -0.8157054867
H -0.6924146784 0.0368149272 -1.4295506663
H -1.4174007525 1.6092182953 -1.7448271406
H -0.7843591088 0.4434970898 0.9991225500
H -1.2991365835 2.1042945292 0.7259521669
H -3.2066495956 0.7767436931 1.3803117269
H -3.4045051249 1.3171925217 -0.2862907565
H -4.1577713000 -0.9683225147 -0.0597005018
H -2.7450981575 -0.9272057395 -1.1067672560
H -2.6939379319 -2.8268263551 0.5280966076
H -1.3172458616 -1.7519918936 0.7425373599
H -2.6817335227 -1.6667784265 1.8579142282
32
CONF223
C 4.7055885642 0.5883588640 0.4530610321
C 3.3992478839 -0.1950459993 0.5120577413
C 2.6656391390 -0.1658150113 -0.8273572580
C 1.4167283260 -1.0490222158 -0.8598844745
C 0.2947860488 -0.6277509887 0.0921579211
C -0.3451073467 0.7065463654 -0.2851883459
C -1.4122006560 1.1692812932 0.7092852138
C -2.6212869012 0.2426314783 0.8495063433
C -3.4143990339 0.0711721397 -0.4443531531
C -4.6905294745 -0.7308780466 -0.2161787104
H 4.5141283648 1.6279718160 0.1961526698
H 5.3696916225 0.1676018747 -0.2988742515
H 5.2128707614 0.5597597200 1.4144209807
H 2.7652471504 0.2321776041 1.2904983967
H 3.6095596137 -1.2320915540 0.7841366930
H 3.3487040076 -0.5165726645 -1.6054630090
H 2.4005749146 0.8643313048 -1.0714136320
H 1.7120795189 -2.0725298449 -0.6149232405
H 1.0228541336 -1.0560153788 -1.8794471007
H 0.6771684551 -0.5709260256 1.1126318771
H -0.4682542965 -1.4081007777 0.0717179387
H -0.7776839873 0.6306814637 -1.2843984478
H 0.4266892777 1.4776282608 -0.3219947069
H -0.9473253093 1.2797912752 1.6923975498
H -1.7650826236 2.1566353963 0.4001952830
H -2.2988798010 -0.7361659284 1.2087595277
H -3.2832518765 0.6643448516 1.6105389103
H -3.6705327699 1.0557778051 -0.8426103238
H -2.8015964489 -0.4407676835 -1.1879330596
H -4.4540281386 -1.7185434652 0.1737744482
H -5.3354349141 -0.2266768218 0.5003258145
H -5.2392237460 -0.8512577544 -1.1471726284
32
CONF145
C 3.8373943569 1.2840351320 0.6948270937
C 3.8698716467 -0.1565288850 0.1969788467
C 3.0115429430 -0.3844989637 -1.0487988805
C 1.5157478831 -0.1286155667 -0.8550067738
C 0.8726231320 -1.0626486779 0.1690971500
C -0.6552885114 -0.9944524426 0.1614479545
C -1.1959648925 0.3527189443 0.6385526369
C -2.7150930310 0.3630628852 0.8145111283
C -3.4788133177 0.2385846321 -0.5026065686
C -4.9829566117 0.3730575054 -0.2952899949
H 4.5399005275 1.4147849651 1.5146517793
H 2.8468043342 1.5511960389 1.0530293203
H 4.1115833708 1.9685070783 -0.1050740472
H 3.5449927662 -0.8255795491 0.9951994028
H 4.9011367956 -0.4209030376 -0.0497153404
H 3.1505821037 -1.4164719192 -1.3812908318
H 3.3741589272 0.2695548031 -1.8459476664
H 1.0199172032 -0.2727141125 -1.8185329044
H 1.3604093681 0.9089181010 -0.5595405892
H 1.2326950750 -0.8195064685 1.1703744479
H 1.1766909792 -2.0886194953 -0.0539592095
H -1.0434887683 -1.7782751544 0.8169313778
H -1.0132342992 -1.1988612349 -0.8491483304
H -0.7324737318 0.5938869919 1.5986357877
H -0.9176333137 1.1337360998 -0.0710715863
H -3.0083408648 -0.4527277357 1.4797369747
H -3.0039202097 1.3005779173 1.2964572349
H -3.1368621650 1.0155599344 -1.1902366426
H -3.2675678980 -0.7288100713 -0.9606662537
H -5.5097477618 0.2766481124 -1.2416152080
H -5.3440848511 -0.3995987345 0.3797732553
H -5.2237071593 1.3425375143 0.1352723042
32
CONF169
C 3.7335174004 -0.4629386250 -1.6851881873
C 3.7929851884 -0.7806992076 -0.1950968737
C 2.8997719463 0.1268185823 0.6521965579
C 1.4077128436 -0.0921381043 0.4091504853
C 0.5545639874 0.7660290328 1.3414865601
C -0.9461936197 0.5100884880 1.1951209896
C -1.5035666120 0.9655715840 -0.1525922562
C -3.0323202114 0.9481166939 -0.2092170619
C -3.6667701137 -0.4331034559 -0.0342739468
C -3.2713866850 -1.4200239720 -1.1270156039
H 2.7422503375 -0.6555763818 -2.0864474498
H 4.4447595508 -1.0792482819 -2.2301122657
H 3.9798259149 0.5820285791 -1.8600661353
H 4.8245179924 -0.6688838684 0.1470361724
H 3.5032317324 -1.8215414798 -0.0342613394
H 3.1489304116 1.1704806562 0.4460348475
H 3.1139230780 -0.0599732637 1.7077460513
H 1.1682813485 -1.1461892109 0.5709660116
H 1.1693268181 0.1525187848 -0.6257565585
H 0.7617767530 1.8217154892 1.1498121637
H 0.8453872526 0.5566789103 2.3743019780
H -1.4705422319 1.0477086452 1.9893488993
H -1.1362025665 -0.5556648376 1.3338647734
H -1.1688763969 1.9889915062 -0.3409834329
H -1.1051582317 0.3391626684 -0.9505491465
H -3.4200059700 1.6087560819 0.5705450092
H -3.3474390738 1.3564229223 -1.1729021629
H -3.3967794451 -0.8414635214 0.9407901359
H -4.7526144388 -0.3103205779 -0.0461712108
H -3.8301769423 -2.3465331980 -1.0174394827
H -3.4847177763 -1.0044226340 -2.1094209570
H -2.2121020748 -1.6566800520 -1.0750066380
32
CONF195
C 3.7517328604 1.1419975483 -0.9876372531
C 3.2766541852 -0.3017937431 -1.1062026635
C 3.0556401604 -0.9784376667 0.2481419507
C 1.9681621631 -0.3450091793 1.1181439725
C 0.5706701126 -0.4333964473 0.5081922024
C -0.4920054188 0.1110472512 1.4611008325
C -1.9206879214 -0.0794048747 0.9499439690
C -2.2213546656 0.7262579825 -0.3133769248
C -3.7084026064 0.7469284602 -0.6705375283
C -4.2481618140 -0.6231207538 -1.0660099613
H 4.6393133781 1.1993589904 -0.3611873790
H 2.9809666082 1.7722851919 -0.5522455164
H 3.9980981792 1.5392514478 -1.9695907079
H 4.0291192405 -0.8765867923 -1.6517964711
H 2.3561556441 -0.3356332537 -1.6909402546
H 3.9969581876 -0.9586798241 0.8032390964
H 2.7978702351 -2.0263461582 0.0748480972
H 2.2128619929 0.7003000253 1.3134139159
H 1.9622949016 -0.8611258843 2.0819516303
H 0.3451961878 -1.4769829025 0.2748946089
H 0.5430236875 0.1328276901 -0.4227094818
H -0.3088284721 1.1742463666 1.6355238083
H -0.3963540303 -0.4002923825 2.4225851835
H -2.0881883698 -1.1407425965 0.7590071852
H -2.6141240196 0.2314528107 1.7356514295
H -1.8857636563 1.7551985045 -0.1608803422
H -1.6624103639 0.3146665839 -1.1555830276
H -4.2781173404 1.1289369508 0.1798274390
H -3.8561176835 1.4382031124 -1.5037492891
H -4.2118268241 -1.3124436132 -0.2267884323
H -5.2821223520 -0.5409479928 -1.3928708025
H -3.6622886730 -1.0406735107 -1.8819175831
32
CONF258
C 4.3876471510 0.9513807915 -0.9677594563
C 2.9332111577 0.5435614889 -0.7629301794
C 2.7813536398 -0.4320568411 0.4027513571
C 1.3554426906 -0.9577076506 0.5728718614
C 0.3661869257 0.1216262586 1.0092822375
C -0.9986012707 -0.4412356645 1.4098743519
C -1.7485861648 -1.1695508587 0.2920577030
C -2.0188590050 -0.3321148039 -0.9600294774
C -2.8338035445 0.9404355262 -0.7225498553
C -4.2363009618 0.6660277239 -0.1916745406
H 5.0016278817 0.0796628064 -1.1835440301
H 4.7775071577 1.4304157608 -0.0723410671
H 4.4768418818 1.6486231544 -1.7972949126
H 2.5566089531 0.0744434727 -1.6750175012
H 2.3356436067 1.4370557631 -0.5756690579
H 3.0994163217 0.0579250853 1.3262794887
H 3.4485117759 -1.2814097006 0.2345002545
H 1.3631893268 -1.7494501873 1.3264724208
H 1.0284664636 -1.3998347056 -0.3699844807
H 0.2377066787 0.8514965481 0.2098674931
H 0.7827350591 0.6494374525 1.8713893800
H -1.6165756496 0.3775909982 1.7835155293
H -0.8590285816 -1.1434423974 2.2362312388
H -1.1774082782 -2.0513286961 -0.0051674975
H -2.6982137389 -1.5266274488 0.6953722727
H -1.0680487050 -0.0564180395 -1.4203177447
H -2.5550079557 -0.9596739407 -1.6769347487
H -2.3042127031 1.5948733687 -0.0284808642
H -2.9151172785 1.4729808835 -1.6735630315
H -4.7636132428 -0.0213791821 -0.8496982670
H -4.1991038867 0.2303487108 0.8032527723
H -4.8052359452 1.5912033300 -0.1347867445
32
CONF166
C 3.2345458301 1.2714215860 -1.3493468238
C 3.6249223736 -0.0159634433 -0.6320698187
C 3.1433427765 -0.0690917544 0.8192215607
C 1.6241735846 -0.0254950185 0.9945793319
C 0.9108042923 -1.2183754994 0.3600621268
C -0.5657474647 -1.3094737053 0.7479677297
C -1.4118807962 -0.1721001770 0.1785451984
C -2.8933231940 -0.3604833010 0.5001926386
C -3.7676286701 0.8089248793 0.0449320408
C -3.8566915804 0.9382200961 -1.4717107617
H 2.1565723791 1.3407110887 -1.4683052857
H 3.6862985694 1.3031417295 -2.3381022475
H 3.5764647865 2.1379636025 -0.7874604483
H 4.7143741887 -0.1019316747 -0.6301652019
H 3.2325323872 -0.8728958840 -1.1816973303
H 3.5786710742 0.7740645931 1.3617139179
H 3.5232089812 -0.9861580766 1.2769719198
H 1.2378466316 0.9038585545 0.5762594701
H 1.4066252458 -0.0180281269 2.0658365422
H 1.4126020903 -2.1355064229 0.6792009643
H 0.9859465057 -1.1596502579 -0.7271691956
H -0.6535806579 -1.3154234107 1.8372376368
H -0.9654483265 -2.2584378957 0.3811772961
H -1.0783360682 0.7799775007 0.5950991004
H -1.2707832970 -0.1351458426 -0.9030352202
H -3.2513652430 -1.2804612893 0.0317593288
H -3.0025879007 -0.4779433734 1.5813926891
H -4.7741825035 0.6659622720 0.4451173427
H -3.3741615506 1.7370326397 0.4657836683
H -4.2112304771 0.0084560191 -1.9112567521
H -4.5493287332 1.7318028837 -1.7420563556
H -2.8868088913 1.1749350432 -1.9007859930
32
CONF202
C 4.1043204323 -1.5228363373 0.6004934689
C 3.3030051517 -0.5465040009 -0.2531219660
C 2.4527023815 0.3852166850 0.6079579389
C 1.7415071548 1.4774473411 -0.1923592167
C 0.7460660747 0.9712152798 -1.2396317179
C -0.3776942398 0.0852435203 -0.6983624793
C -1.2800349859 0.8003992562 0.3053382881
C -2.4440347182 -0.0654470288 0.7911618226
C -3.5124971396 -0.3091846975 -0.2730973532
C -4.6925516323 -1.0951116799 0.2868703360
H 3.4384251448 -2.1337130643 1.2062344924
H 4.7752282626 -0.9854567766 1.2672985634
H 4.6990646266 -2.1819157431 -0.0274002037
H 2.6609400410 -1.1110256336 -0.9310813805
H 3.9872038901 0.0503770929 -0.8608682507
H 3.1016885282 0.8706862940 1.3417539240
H 1.7210128612 -0.2034806424 1.1638968038
H 2.4950919541 2.0786335923 -0.7078928727
H 1.2235309580 2.1385601895 0.5050700617
H 1.2882218279 0.4141439419 -2.0062504231
H 0.2988450763 1.8411407277 -1.7277220487
H 0.0448870009 -0.8062136242 -0.2317635018
H -0.9777779404 -0.2454203167 -1.5483592295
H -0.6862586719 1.0930468127 1.1731065750
H -1.6748583655 1.7121000365 -0.1497639813
H -2.0574388378 -1.0258503916 1.1407601653
H -2.9143165602 0.4297058779 1.6446038743
H -3.8650222667 0.6522154675 -0.6538346018
H -3.0830573232 -0.8614150146 -1.1104836462
H -5.1570733292 -0.5529850636 1.1076922335
H -5.4419827895 -1.2612184768 -0.4831835921
H -4.3624245545 -2.0621731237 0.6598139905
32
CONF259
C 4.3943726234 0.9502453125 -0.9590929779
C 2.9394061455 0.5396193692 -0.7638139671
C 2.7817793951 -0.4344123738 0.4023849942
C 1.3541239407 -0.9564031743 0.5688316291
C 0.3667720049 0.1250822793 1.0044252403
C -0.9986310463 -0.4353604852 1.4062467963
C -1.7485615366 -1.1665792329 0.2903541570
C -2.0220421851 -0.3309500403 -0.9621550656
C -2.8413304089 0.9388952571 -0.7247927289
C -4.2384873602 0.6606715875 -0.1818822716
H 4.7778847650 1.4282094186 -0.0603740005
H 4.4873982434 1.6492512681 -1.7866545507
H 5.0112350717 0.0800716114 -1.1727604967
H 2.5701446548 0.0680676474 -1.6776491461
H 2.3384671588 1.4320476040 -0.5822242777
H 3.0980223065 0.0560543492 1.3262744516
H 3.4476261094 -1.2854229022 0.2372647312
H 1.3581936222 -1.7488920109 1.3216665089
H 1.0279996448 -1.3966959199 -0.3751764027
H 0.2390604303 0.8543327659 0.2042986925
H 0.7843714146 0.6532220525 1.8658248403
H -1.6161082027 0.3850544032 1.7771983397
H -0.8597842507 -1.1352030523 2.2347260544
H -1.1760230299 -2.0475514725 -0.0065553584
H -2.6970261415 -1.5250323891 0.6951278542
H -1.0724681205 -0.0521122559 -1.4232898718
H -2.5564686701 -0.9608910598 -1.6783287915
H -2.3096200251 1.5994207056 -0.0381636782
H -2.9322509319 1.4660773930 -1.6778736155
H -4.7653760513 -0.0371819826 -0.8290487011
H -4.1917531227 0.2358978748 0.8172739309
H -4.8133912166 1.5824954347 -0.1309326743
32
CONF147
C 3.7885232028 1.3006276231 0.7369565957
C 3.8546862205 -0.1364185842 0.2321266563
C 3.0336296235 -0.3689725554 -1.0378625399
C 1.5294933137 -0.1369185600 -0.8824531121
C 0.8696898338 -1.1012906427 0.1017456134
C -0.6572150900 -1.0126903283 0.0907184966
C -1.1804469993 0.3184113751 0.6290408723
C -2.6966838303 0.3350736036 0.8266915479
C -3.4803150298 0.2688520520 -0.4828869185
C -4.9794421346 0.4134790326 -0.2475264850
H 4.0733046653 1.9937331296 -0.0517477949
H 4.4676193927 1.4366803066 1.5754308288
H 2.7853206588 1.5516011683 1.0710474284
H 3.5183224658 -0.8145681605 1.0178267817
H 4.8958798668 -0.3848336767 0.0119988307
H 3.1977067525 -1.3960918093 -1.3739063073
H 3.4073850850 0.2967458600 -1.8200546169
H 1.0627749659 -0.2655715127 -1.8625565850
H 1.3522841710 0.8916164870 -0.5687236446
H 1.2269581405 -0.9006405680 1.1133891914
H 1.1632053872 -2.1216173857 -0.1584090080
H -1.0581662833 -1.8206123693 0.7080998520
H -1.0143428123 -1.1651390264 -0.9293136557
H -0.7023865979 0.5164728420 1.5918877820
H -0.9046546896 1.1255785729 -0.0518234682
H -2.9881677979 -0.5033716991 1.4639999603
H -2.9697280600 1.2556447960 1.3489513305
H -3.1388871654 1.0671104101 -1.1460289112
H -3.2872865455 -0.6831443967 -0.9797871751
H -5.5220165270 0.3577028385 -1.1881019461
H -5.3398264481 -0.3787233626 0.4049855220
H -5.2015169328 1.3696269084 0.2214458067
32
CONF185
C 3.9153558758 0.9356418378 1.5102912548
C 2.9689599957 0.7983240168 0.3231535913
C 2.8082421527 -0.6599973907 -0.1015242469
C 1.9860224429 -0.8380698920 -1.3793029332
C 0.5407391051 -0.3438144300 -1.2902346433
C -0.2857568167 -1.0902051418 -0.2443114539
C -1.7789132667 -0.7635647018 -0.3088227118
C -2.0999289960 0.6603893945 0.1422005055
C -3.5916978653 0.9926428426 0.0742778977
C -4.4294586663 0.2280586134 1.0934016691
H 4.0149050678 1.9784067582 1.8019826231
H 4.9022005820 0.5533562189 1.2584651241
H 3.5394891629 0.3744292730 2.3630453538
H 3.3558191681 1.3774900128 -0.5186788947
H 1.9969618728 1.2128715913 0.5950722669
H 2.3528827398 -1.2261879464 0.7127550671
H 3.8009098115 -1.0836936968 -0.2754197825
H 1.9779670943 -1.8996020346 -1.6397786739
H 2.4844411762 -0.3038647048 -2.1923086498
H 0.0738553554 -0.4830182826 -2.2688410531
H 0.5369587832 0.7249869192 -1.0760747769
H 0.0819779131 -0.8543030846 0.7557335142
H -0.1562402602 -2.1640720751 -0.4018920639
H -2.1370039225 -0.9070262366 -1.3312721620
H -2.3112042758 -1.4691303922 0.3314543313
H -1.7474675715 0.8011258046 1.1669502366
H -1.5628859122 1.3662483842 -0.4940038208
H -3.7162824934 2.0635557531 0.2519714292
H -3.9610507582 0.7803270903 -0.9316000424
H -4.4125712931 -0.8397539960 0.8922865356
H -4.0500022566 0.3959689715 2.0990063181
H -5.4636369029 0.5623229753 1.0565617736
32
CONF167
C 3.2072532762 1.2740098046 -1.3571682166
C 3.6082954142 -0.0154334101 -0.6495121846
C 3.1468829817 -0.0734362435 0.8082030386
C 1.6303066144 -0.0304470559 1.0049413202
C 0.9094497327 -1.2239763892 0.3805656352
C -0.5669793462 -1.3043082325 0.7711944901
C -1.4070805675 -0.1659538201 0.1947712608
C -2.8912968294 -0.3513901917 0.5047525671
C -3.7616778005 0.8123629194 0.0279970678
C -3.8323860595 0.9268197387 -1.4908687800
H 3.6464550102 1.3098322697 -2.3514619052
H 3.5550868775 2.1390323832 -0.7965435644
H 2.1277712920 1.3422956590 -1.4623304778
H 4.6976849020 -0.1008762634 -0.6632477501
H 3.2087565176 -0.8707470316 -1.1964677267
H 3.5896250421 0.7680848034 1.3471775042
H 3.5332523879 -0.9918606926 1.2577141901
H 1.2379590009 0.8983393021 0.5911114231
H 1.4270184835 -0.0223551636 2.0790128512
H 1.4072097318 -2.1413704947 0.7052290607
H 0.9825934227 -1.1734576872 -0.7072105241
H -0.6541547470 -1.3034981194 1.8604976145
H -0.9719983851 -2.2531772505 0.4100444703
H -1.0751831445 0.7861018887 0.6126908373
H -1.2579313812 -0.1304945107 -0.8857628433
H -3.2444652662 -1.2765248893 0.0427669922
H -3.0109440409 -0.4572880497 1.5860283182
H -4.7727529263 0.6714754353 0.4173351708
H -3.3748352849 1.7451542806 0.4445464184
H -4.1714527670 -0.0105956542 -1.9261529684
H -4.5296516423 1.7104736643 -1.7775268671
H -2.8596962583 1.1698734692 -1.9097619822
32
CONF182
C 4.4139673593 0.0344797270 -1.1566704345
C 3.6249797777 -0.9166856400 -0.2634208215
C 2.1234818397 -0.6238518443 -0.2416711434
C 1.7760790655 0.6809710923 0.4729468173
C 0.2770888042 0.9857476764 0.4714135776
C -0.5384695335 0.0101472920 1.3185702471
C -1.9823377908 0.4663786450 1.5381651078
C -2.8128585411 0.6138239283 0.2619347007
C -2.9796982278 -0.6915957099 -0.5131237002
C -3.9336087652 -0.5258451376 -1.6905945709
H 4.3690112762 1.0531375871 -0.7809124702
H 4.0155137351 0.0222183417 -2.1688027413
H 5.4585141108 -0.2654817173 -1.1953897023
H 4.0151827206 -0.8658117811 0.7556216236
H 3.7739025234 -1.9377100134 -0.6228144777
H 1.6201209314 -1.4510518784 0.2620267532
H 1.7511564200 -0.5826930384 -1.2682040638
H 2.2926779265 1.5069148164 -0.0191972733
H 2.1343773035 0.6325087194 1.5042636189
H -0.0830799325 0.9716766738 -0.5587269594
H 0.1272797419 1.9953059323 0.8627947590
H -0.0612967017 -0.0870948736 2.2972714706
H -0.5378786748 -0.9766154367 0.8553438822
H -2.4762931922 -0.2538826591 2.1954352665
H -1.9707027840 1.4292336611 2.0554144036
H -3.8034192455 0.9815250333 0.5424937556
H -2.3606474452 1.3650984042 -0.3877034473
H -2.0103923307 -1.0259094677 -0.8862405374
H -3.3631275250 -1.4627495995 0.1591685770
H -4.0346081036 -1.4608458229 -2.2364146444
H -4.9189614772 -0.2217854434 -1.3440859018
H -3.5634258337 0.2339633293 -2.3755143347
32
CONF218
C 4.2283579979 -1.3797047853 0.7086253654
C 3.3695082048 -0.5289174665 -0.2200816006
C 2.4787721641 0.4338758550 0.5625585398
C 1.7171363306 1.4187766802 -0.3256932208
C 0.7245252847 0.7801736350 -1.3003915744
C -0.3848266987 -0.0498546704 -0.6514709128
C -1.2821558309 0.7656659242 0.2778972509
C -2.4832482961 -0.0251418989 0.8006659973
C -3.5588648986 -0.2694811147 -0.2563718242
C -4.7711850063 -0.9837062131 0.3299594168
H 3.6010214103 -1.9649892327 1.3774295378
H 4.8765029984 -0.7490716278 1.3134086467
H 4.8509709982 -2.0627936149 0.1358130103
H 2.7524115839 -1.1857377472 -0.8352155338
H 4.0166898570 0.0437720763 -0.8886710308
H 3.1067134308 1.0104603960 1.2470415490
H 1.7762545840 -0.1370594347 1.1720293036
H 2.4417929750 1.9918682277 -0.9101467803
H 1.1858747740 2.1264877995 0.3134407244
H 1.2701740457 0.1450612322 -2.0009240079
H 0.2620956168 1.5813038830 -1.8829787324
H 0.0500450468 -0.8817692499 -0.0947697697
H -0.9912009301 -0.4765719749 -1.4528043456
H -0.6946396603 1.1047317988 1.1329777801
H -1.6398844978 1.6520267155 -0.2518330182
H -2.1399802489 -0.9841373253 1.1960653520
H -2.9336860709 0.5292623211 1.6278963347
H -3.8717404451 0.6892158991 -0.6765956432
H -3.1504740872 -0.8711483361 -1.0699816185
H -4.4823744813 -1.9486013539 0.7407867916
H -5.2137378632 -0.3913065270 1.1278687827
H -5.5258990116 -1.1477921887 -0.4353843331
32
CONF309
C 3.2063535211 0.9585220475 1.5463958743
C 3.2209761711 0.9149244151 0.0226024876
C 3.0397385126 -0.4946946040 -0.5441653051
C 1.7078637931 -1.1645337321 -0.2007206658
C 0.4936114455 -0.4330565954 -0.7692936731
C -0.7975340958 -1.2074912555 -0.5130136275
C -2.0272002156 -0.5762536191 -1.1683341813
C -2.3692752058 0.8352651872 -0.6844194446
C -2.6238515679 0.9599054623 0.8187236287
C -3.8102438401 0.1314966094 1.2984808458
H 2.2290686179 0.6860865897 1.9357335622
H 3.4418476676 1.9608941243 1.8963751000
H 3.9440985540 0.2702355463 1.9531636760
H 4.1803088241 1.3002035558 -0.3316099012
H 2.4434634258 1.5729886655 -0.3683307511
H 3.8500531116 -1.1261095297 -0.1708523295
H 3.1355058066 -0.4455982240 -1.6318567179
H 1.6053613803 -1.2496110986 0.8824289455
H 1.7260159492 -2.1805322588 -0.6042262255
H 0.6253441264 -0.2976217254 -1.8458100139
H 0.4190482280 0.5541287969 -0.3132553889
H -0.9563088461 -1.2994620325 0.5628990658
H -0.6843865025 -2.2200924509 -0.9098463505
H -1.8624468877 -0.5317108264 -2.2480835786
H -2.8850679991 -1.2297935863 -0.9992315714
H -1.5600724461 1.5147128762 -0.9590501770
H -3.2643064796 1.1665613236 -1.2175357068
H -1.7293417634 0.6679311497 1.3710668823
H -2.8145307322 2.0123520195 1.0434214596
H -4.7020369592 0.3790414534 0.7266601740
H -3.6141030324 -0.9316921017 1.1879843221
H -4.0094140752 0.3317688457 2.3487757626
32
CONF170
C 3.2352791758 1.4216569464 1.1992255343
C 3.6124082164 0.0481994826 0.6553639156
C 3.1526742256 -0.1774681418 -0.7864390610
C 1.6369456614 -0.1426853134 -0.9911677784
C 0.9042699067 -1.2589227944 -0.2486005720
C -0.5714627548 -1.3679762599 -0.6351612046
C -1.4083293081 -0.1775321834 -0.1700317428
C -2.8895983560 -0.3764992355 -0.4858547777
C -3.7579906210 0.8251926796 -0.1100805135
C -3.8707608707 1.0368092541 1.3957237998
H 2.1572453514 1.5226909563 1.2918939841
H 3.6000046412 2.2050177301 0.5382717677
H 3.6742629547 1.5704722138 2.1830226740
H 3.1955460188 -0.7265317974 1.3006385456
H 4.6999449936 -0.0553795501 0.6837497424
H 3.5298891896 -1.1465776498 -1.1231755190
H 3.6054151982 0.5897564675 -1.4197551001
H 1.4364111666 -0.2455220751 -2.0608215243
H 1.2512636276 0.8274353887 -0.6782784349
H 0.9747582656 -1.0965936538 0.8283445303
H 1.3954359609 -2.2089255174 -0.4745677921
H -0.9828611374 -2.2774156205 -0.1896639745
H -0.6546919367 -1.4674079516 -1.7202575105
H -1.2739567642 -0.0511751931 0.9056425334
H -1.0614755481 0.7326976323 -0.6623747258
H -2.9947246600 -0.5627922320 -1.5577045481
H -3.2558524051 -1.2620578159 0.0391328257
H -3.3471607201 1.7249942932 -0.5735924437
H -4.7594539960 0.6714001442 -0.5188858731
H -4.2458702902 0.1366713369 1.8777782144
H -2.9051462254 1.2831321577 1.8289577249
H -4.5565956437 1.8527475747 1.6111955047
32
CONF134
C 5.2946758886 0.2050197862 -0.3575387985
C 3.8513838480 -0.2676542995 -0.4891657514
C 2.9965941065 0.2059177640 0.6850097022
C 1.5651261370 -0.3325008972 0.6593232225
C 0.7227506569 0.2486248512 -0.4752260701
C -0.7226033988 -0.2550938706 -0.4733361364
C -1.5646506313 0.3338419352 0.6574247425
C -2.9968558773 -0.2025065311 0.6856846105
C -3.8513750094 0.2676893645 -0.4900515040
C -5.2950149267 -0.2034709106 -0.3568075171
H 5.7410491029 -0.1814779339 0.5561304699
H 5.3370612801 1.2914855751 -0.3252813827
H 5.8882084708 -0.1373378043 -1.2017410070
H 3.8296304041 -1.3590709698 -0.5316449951
H 3.4372546774 0.1108510060 -1.4249302460
H 2.9700586891 1.2981729775 0.6942498627
H 3.4737298597 -0.1191968542 1.6130959872
H 1.0939098303 -0.0936499142 1.6144351809
H 1.5915055248 -1.4208936274 0.5661756083
H 1.1786782512 -0.0212117279 -1.4294132170
H 0.7230838929 1.3388453513 -0.4034093783
H -0.7229528611 -1.3447976965 -0.3940520517
H -1.1787564733 0.0081747605 -1.4292605610
H -1.0941032353 0.1000211079 1.6141166568
H -1.5895867771 1.4216976239 0.5578495135
H -2.9718194792 -1.2947449038 0.6991989954
H -3.4733050769 0.1268966425 1.6126004385
H -3.8288803675 1.3589348332 -0.5361808108
H -3.4375332099 -0.1142058619 -1.4245607332
H -5.7408406705 0.1858665498 0.5559210159
H -5.8885377660 0.1370241477 -1.2017815645
H -5.3382210284 -1.2898006285 -0.3215480262
32
CONF184
C 3.9704519983 0.7469717405 -1.1513245350
C 3.3442605237 -0.6296459668 -0.9589714326
C 2.9858523028 -0.9328156155 0.4972263053
C 1.9443506878 0.0024385208 1.1144155167
C 0.5840320005 -0.0581713153 0.4222126450
C -0.4620241242 0.7638850794 1.1731035817
C -1.8059903455 0.8443950266 0.4479101995
C -2.5171341241 -0.5047764488 0.3503431806
C -3.9630927499 -0.3868725374 -0.1338235732
C -4.0747796748 0.0992201983 -1.5746516661
H 4.3017811435 0.8693227316 -2.1799254066
H 4.8307930469 0.8676485244 -0.4965137261
H 3.2558455276 1.5353401758 -0.9306861766
H 4.0528931646 -1.3896004308 -1.2974981598
H 2.4536405906 -0.7154589668 -1.5833388005
H 3.8971693416 -0.8795993276 1.0982853622
H 2.6127004507 -1.9584626206 0.5557671200
H 2.3144056932 1.0289371070 1.0998682704
H 1.8147426508 -0.2796420970 2.1626496756
H 0.2622723246 -1.0994622144 0.3638669980
H 0.6690887778 0.3257453695 -0.5958704412
H -0.0779136216 1.7784316628 1.3079694533
H -0.6128845270 0.3355218802 2.1671172727
H -2.4512688569 1.5411392047 0.9891851052
H -1.6440711668 1.2494809713 -0.5524419437
H -1.9704572116 -1.1618815816 -0.3282411395
H -2.5178614885 -0.9719836344 1.3384398333
H -4.4367791826 -1.3683951383 -0.0551581167
H -4.5083531010 0.2958480345 0.5220970999
H -5.1133416005 0.0877062134 -1.8969850331
H -3.7007689240 1.1147302065 -1.6725162496
H -3.5022582195 -0.5455139964 -2.2378524279
32
CONF187
C 3.9763436641 0.7437616654 -1.1512005383
C 3.3396124760 -0.6284415357 -0.9622936253
C 2.9820901252 -0.9338687920 0.4936559132
C 1.9435113600 0.0027475888 1.1137590266
C 0.5812022873 -0.0582645994 0.4256110286
C -0.4631564879 0.7655945776 1.1768820238
C -1.8067676055 0.8471255123 0.4511278244
C -2.5223125656 -0.5001213009 0.3602296138
C -3.9639191798 -0.3813301455 -0.1365914237
C -4.0619692399 0.0885062503 -1.5837592600
H 3.2693085861 1.5370573416 -0.9239332187
H 4.3042832010 0.8680118359 -2.1806431505
H 4.8404375398 0.8542660534 -0.4995608624
H 4.0413787770 -1.3927076577 -1.3053511833
H 2.4469236489 -0.7048192665 -1.5848807111
H 3.8943344016 -0.8845187013 1.0936191636
H 2.6061223456 -1.9585942569 0.5504595768
H 2.3140860797 1.0289966934 1.0968569719
H 1.8171444208 -0.2781235451 2.1626838350
H 0.2589673076 -1.0995551032 0.3699929099
H 0.6638758925 0.3236479732 -0.5934198808
H -0.0776769753 1.7797154931 1.3109378506
H -0.6144902255 0.3381211015 2.1711861475
H -2.4500968595 1.5488881191 0.9881620860
H -1.6427481781 1.2463003445 -0.5512289261
H -1.9728481015 -1.1655774182 -0.3078453920
H -2.5325462749 -0.9580751717 1.3525793325
H -4.4424965902 -1.3598201517 -0.0507120394
H -4.5113982064 0.3110886104 0.5071303688
H -3.6794616056 1.0998607905 -1.6910645075
H -3.4899621422 -0.5683849788 -2.2353623859
H -5.0983696925 0.0811973359 -1.9130702416
32
CONF158
C 3.2821254725 1.7435693507 -0.7558606378
C 3.6544928326 0.5592634866 0.1294153101
C 2.4390516752 -0.2300342627 0.6181072406
C 1.7011762581 -0.9510464683 -0.5087744977
C 0.6480330165 -1.9389212242 -0.0031695511
C -0.4847831350 -1.3117423265 0.8117639599
C -1.3141617909 -0.3001056922 0.0232936377
C -2.5226692160 0.1789007024 0.8256424949
C -3.3205343976 1.2789161381 0.1238001872
C -4.0302959008 0.7955530799 -1.1361009750
H 2.8185163023 1.4083288772 -1.6797160630
H 4.1698101636 2.3177145936 -1.0108889846
H 2.5862896166 2.4001881591 -0.2379653843
H 4.2021421021 0.9286574882 0.9998380548
H 4.3214448193 -0.1087864448 -0.4205564554
H 1.7581758184 0.4538794592 1.1277800794
H 2.7743733676 -0.9717559317 1.3476280029
H 2.4299712361 -1.5075173004 -1.1040926443
H 1.2276211931 -0.2234061532 -1.1677811522
H 1.1424892353 -2.6922516221 0.6155614926
H 0.2151051112 -2.4539340398 -0.8645908978
H -0.0763120417 -0.8319379183 1.7028530584
H -1.1442226081 -2.1152959000 1.1503482869
H -0.6981218063 0.5634281581 -0.2336167626
H -1.6477925060 -0.7647387683 -0.9061337255
H -3.1815840527 -0.6687369422 1.0289226307
H -2.1728649223 0.5611860029 1.7881538866
H -4.0672135637 1.6652681334 0.8216709236
H -2.6500892363 2.1028455404 -0.1311714531
H -3.3143856233 0.4891813449 -1.8939501870
H -4.6744325753 -0.0506343189 -0.9073161864
H -4.6437782085 1.5914803087 -1.5517304772
32
CONF274
C 4.3989438691 -0.1858224660 0.0580277367
C 3.1192334986 -0.9851699409 -0.1600392892
C 2.0084277213 -0.6277637793 0.8290573008
C 1.5199361326 0.8207274261 0.7560074314
C 0.9727035450 1.2532469536 -0.6063234382
C -0.2029224643 0.4238284340 -1.1258408444
C -1.4419285250 0.5032049246 -0.2364697589
C -2.6275556717 -0.2326455183 -0.8579324509
C -3.9187629242 -0.0949633419 -0.0497832990
C -3.8639086492 -0.8045868105 1.2986665043
H 4.2397529030 0.8696923215 -0.1459579410
H 5.1839568426 -0.5436112641 -0.6042544027
H 4.7419672269 -0.2907371218 1.0851241629
H 3.3447395825 -2.0485850329 -0.0463483949
H 2.7669397852 -0.8357328886 -1.1818428082
H 2.3736830398 -0.8103810605 1.8432071995
H 1.1647525153 -1.3005949298 0.6638317988
H 2.3420105180 1.4890264790 1.0196912471
H 0.7448445731 0.9571505950 1.5128309335
H 1.7765463618 1.2163379587 -1.3441052793
H 0.6550053220 2.2963603016 -0.5271408620
H 0.0981056535 -0.6195490973 -1.2345505866
H -0.4629420780 0.7908960521 -2.1225240680
H -1.2172043918 0.0689475760 0.7375873599
H -1.7091457644 1.5520387831 -0.0843674944
H -2.8003457823 0.1654565085 -1.8612530304
H -2.3802608138 -1.2918324259 -0.9629841832
H -4.1330674393 0.9647671081 0.1064694901
H -4.7406077537 -0.5149150611 -0.6346458695
H -4.8289524147 -0.7425913669 1.7961288483
H -3.6135324231 -1.8546913514 1.1647424616
H -3.1192231561 -0.3522979914 1.9480548607
32
CONF241
C 4.7328154233 0.0026684563 0.5968250297
C 3.5720757114 -0.9860879719 0.5995787243
C 2.1994931703 -0.3102811622 0.5833366638
C 1.8828186104 0.3726833510 -0.7461123350
C 0.5239002249 1.0751115701 -0.7565461713
C -0.6622025962 0.1136377534 -0.7068812718
C -1.9911199061 0.8580840695 -0.8182950059
C -3.2064608403 -0.0688218615 -0.8843304865
C -3.4306243542 -0.9321943509 0.3589141662
C -3.6905652790 -0.1165922973 1.6205497024
H 4.7519267626 0.5825333107 -0.3220778818
H 5.6785478132 -0.5274291225 0.6816030686
H 4.6477191266 0.6894071931 1.4362073603
H 3.6433245961 -1.6055332620 1.4968789675
H 3.6563335542 -1.6479802511 -0.2653799031
H 2.1530871197 0.4277309405 1.3877618426
H 1.4419360854 -1.0697169519 0.7847660095
H 1.9104536297 -0.3696668686 -1.5475317276
H 2.6524379637 1.1172127829 -0.9568802640
H 0.4492779918 1.6735921094 -1.6682926427
H 0.4674688290 1.7617089838 0.0917376714
H -0.6368520665 -0.4442113281 0.2290508401
H -0.5802699626 -0.6027440197 -1.5280913892
H -2.0940979812 1.5428574295 0.0249954278
H -1.9778757767 1.4648402339 -1.7276710030
H -4.0977681840 0.5423601383 -1.0478673623
H -3.0967249000 -0.7283944045 -1.7490091676
H -4.2934894096 -1.5760856310 0.1713351023
H -2.5692731543 -1.5831705494 0.5169679988
H -3.9466826765 -0.7745780198 2.4477680086
H -2.8110263080 0.4551239334 1.9039288085
H -4.5158242270 0.5743350739 1.4626143831
32
CONF186
C 3.7850215270 -0.2093901047 1.6121835273
C 3.8084069258 -0.6283484892 0.1462623003
C 2.4271720205 -0.5929914538 -0.5095017447
C 1.8631473855 0.8207677508 -0.6410270816
C 0.6101416028 0.8904002602 -1.5164323031
C -0.5811925077 0.0730872767 -1.0118110959
C -1.1042926492 0.5431064262 0.3440765562
C -2.3322876711 -0.2350863335 0.8200725995
C -3.5926555194 0.0483443788 0.0046475815
C -4.8119639411 -0.6489440834 0.5972434391
H 3.4904386953 0.8315492489 1.7148343785
H 4.7715936706 -0.3277269572 2.0541483786
H 3.0828370647 -0.8242469581 2.1711564362
H 4.2002265800 -1.6460371279 0.0771392277
H 4.4875786740 0.0247601755 -0.4066750345
H 1.7446865176 -1.2101554989 0.0773494986
H 2.5022264988 -1.0339647369 -1.5068274308
H 2.6261132757 1.4613224689 -1.0913555973
H 1.6392886883 1.2246322094 0.3463241092
H 0.8662413409 0.5419136020 -2.5203695630
H 0.3045377782 1.9365279044 -1.6000127676
H -0.3048563697 -0.9806519950 -0.9472634002
H -1.3787850122 0.1570182197 -1.7524323528
H -0.3168856660 0.4255365889 1.0905974024
H -1.3517042713 1.6059694927 0.2863940601
H -2.1154848523 -1.3056007441 0.7884362914
H -2.5289548531 0.0299698266 1.8621431025
H -3.7685519862 1.1262914118 -0.0209690716
H -3.4536224165 -0.2910747127 -1.0230168558
H -5.6979599580 -0.4428675565 0.0015850088
H -4.6584017276 -1.7255121301 0.6243501773
H -4.9925832466 -0.3039330558 1.6130708152
32
CONF226
C 4.5931265637 -0.7251255172 -0.2220330404
C 3.3215809291 -0.5918755962 -1.0527863607
C 2.2948814897 0.3626341756 -0.4392983191
C 1.6187366031 -0.2066423148 0.8064762504
C 0.6804054580 0.7872771652 1.4944107564
C -0.4992109930 1.2648318582 0.6451645807
C -1.4453354923 0.1408358786 0.2280430701
C -2.6716601031 0.6852396375 -0.5022986524
C -3.6014529575 -0.4094506801 -1.0279929056
C -4.3104061225 -1.1786069727 0.0812926562
H 5.0544005116 0.2493016845 -0.0769206589
H 5.3072029233 -1.3710335682 -0.7274459087
H 4.3813702692 -1.1539378904 0.7538079265
H 2.8654200239 -1.5763073692 -1.1802320776
H 3.5911894196 -0.2225152795 -2.0451241289
H 1.5339484011 0.5773981777 -1.1916827101
H 2.7869630585 1.3045568137 -0.1852548075
H 2.3835197567 -0.4949878855 1.5300983499
H 1.0681614242 -1.1098091013 0.5373026380
H 1.2617691460 1.6613759329 1.7986828527
H 0.2897764961 0.3204560993 2.4022875954
H -0.1305925797 1.7787105396 -0.2443367248
H -1.0630917067 1.9963212225 1.2300954239
H -0.9243808583 -0.5557175992 -0.4312439622
H -1.7572615097 -0.4073401912 1.1186693316
H -3.2319527371 1.3406948820 0.1688307563
H -2.3331444760 1.2914578497 -1.3466078599
H -4.3539882173 0.0530233177 -1.6711113573
H -3.0259515884 -1.1059144070 -1.6420999777
H -4.8634947673 -0.4954703951 0.7221790405
H -5.0109745426 -1.8933233692 -0.3441113971
H -3.5984804917 -1.7256158247 0.6933939761
32
CONF160
C 3.3329416088 1.7493686687 -0.6965531588
C 3.6690688053 0.5416674588 0.1713563284
C 2.4324705351 -0.2411876806 0.6150949558
C 1.7036490830 -0.9173064562 -0.5452411954
C 0.6469685775 -1.9242684280 -0.0869113082
C -0.4869938799 -1.3315889105 0.7517589633
C -1.3205404227 -0.2929686607 0.0038748221
C -2.5238168168 0.1569306668 0.8306245320
C -3.3362922569 1.2700241309 0.1673605812
C -4.0660884549 0.8125777922 -1.0908068479
H 2.6326518464 2.4034224846 -0.1817176840
H 2.8881658743 1.4395707481 -1.6382432069
H 4.2335094685 2.3174874467 -0.9174485353
H 4.2015289685 0.8845071790 1.0618327661
H 4.3394716968 -0.1236311881 -0.3777608628
H 1.7532213595 0.4386351085 1.1324018353
H 2.7431821448 -1.0088059742 1.3285026798
H 2.4369832484 -1.4504785878 -1.1560578529
H 1.2354007009 -0.1641438734 -1.1789458239
H 1.1384399131 -2.7046043350 0.4999396911
H 0.2159217415 -2.4006559889 -0.9711865373
H -0.0788017259 -0.8849737067 1.6600339669
H -1.1439656472 -2.1492420548 1.0600577836
H -0.7060424956 0.5790533649 -0.2267039877
H -1.6600239216 -0.7247619646 -0.9391508809
H -3.1753365005 -0.7001302939 1.0175411392
H -2.1662800649 0.5149929168 1.7995522044
H -4.0722332305 1.6380928484 0.8861897012
H -2.6726499439 2.1016451095 -0.0801722127
H -4.6894793912 1.6152920521 -1.4775851540
H -3.3625182772 0.5260114657 -1.8676813446
H -4.7032763099 -0.0409614076 -0.8700662078
32
CONF220
C 4.5704910927 -0.7039515554 -0.4172775456
C 3.3187171193 -1.1665544994 0.3202600704
C 2.3173845945 -0.0396700647 0.5822154923
C 1.6224368380 0.4510499153 -0.6862985927
C 0.6793187807 1.6311979868 -0.4426082636
C -0.5029171243 1.3409922951 0.4842219910
C -1.4450555826 0.2631351096 -0.0482100539
C -2.6846550938 0.1196156240 0.8330030884
C -3.6069329008 -1.0223432214 0.4034623689
C -4.2878550347 -0.7722288104 -0.9376391306
H 4.3284928865 -0.3447418811 -1.4139295901
H 5.2744897537 -1.5268701772 -0.5163618692
H 5.0572600760 0.1002675745 0.1300816879
H 3.6178842427 -1.5953352729 1.2797071253
H 2.8289232194 -1.9556427484 -0.2549695929
H 2.8343214952 0.7973660429 1.0577436375
H 1.5651650253 -0.4068097749 1.2826599958
H 1.0715297023 -0.3752662914 -1.1389574071
H 2.3768621367 0.7735117248 -1.4063492867
H 0.2901388312 1.9657621272 -1.4076740739
H 1.2565524164 2.4562634264 -0.0175277561
H -1.0690385290 2.2677214271 0.6101205825
H -0.1380201085 1.0499759826 1.4707926236
H -1.7420536572 0.5244928617 -1.0653197386
H -0.9264826757 -0.6965693565 -0.0843744069
H -2.3617837208 -0.0603653541 1.8617262571
H -3.2458225385 1.0571577741 0.8241699182
H -3.0313372387 -1.9493276410 0.3508996615
H -4.3755819203 -1.1544055313 1.1686669930
H -4.8360638477 0.1670644776 -0.9149859785
H -3.5594006074 -0.7272136174 -1.7426776831
H -4.9888125258 -1.5735314807 -1.1594174049
32
CONF240
C 4.4458398091 0.6130344616 -0.0234775978
C 3.6906870475 -0.6874743619 -0.2749006048
C 2.4080964280 -0.4912793250 -1.0861274535
C 1.3032347837 0.2850514866 -0.3653921756
C 0.6505294024 -0.5129821201 0.7617225575
C -0.3360941647 0.3096146166 1.5931202507
C -1.5225396230 0.8836140972 0.8164662256
C -2.4174017698 -0.1841566324 0.1913842865
C -3.6631294259 0.4244664856 -0.4492338569
C -4.5525027362 -0.6373781505 -1.0853402520
H 4.6631790401 1.1139526159 -0.9644001254
H 5.3864857725 0.4103788162 0.4831845637
H 3.8661402721 1.2885134705 0.5998978196
H 3.4583578598 -1.1621748331 0.6796781557
H 4.3416917678 -1.3695610371 -0.8270812619
H 2.0168321893 -1.4722095632 -1.3675863967
H 2.6632904126 0.0374659761 -2.0079155190
H 0.5420124741 0.5491645261 -1.1017477431
H 1.7072008818 1.2155820706 0.0362664545
H 1.4246959357 -0.8815191065 1.4376081486
H 0.1450372892 -1.3845898191 0.3419692071
H 0.2052269699 1.1388522268 2.0558874017
H -0.7192079379 -0.3223316318 2.3984731035
H -2.1226460948 1.4809014887 1.5081448080
H -1.1629911812 1.5571779136 0.0367132612
H -1.8617361840 -0.7329115741 -0.5709592062
H -2.7202251701 -0.8976068821 0.9617402801
H -4.2316086270 0.9659871325 0.3105307953
H -3.3590900972 1.1468081339 -1.2104520033
H -5.4322348569 -0.1817065491 -1.5332266714
H -4.0102377110 -1.1736155823 -1.8609925905
H -4.8802513152 -1.3564757476 -0.3378854634
32
CONF188
C 3.7633358137 1.3889161890 0.7097298584
C 3.8086210194 0.3972216200 -0.4473542389
C 3.2056761727 -0.9652602570 -0.0996235454
C 1.7213698686 -0.9363932527 0.2700642237
C 0.8285388677 -0.4461457196 -0.8689142437
C -0.6618952020 -0.6700839944 -0.6070557963
C -1.2079969970 0.1931223438 0.5291508462
C -2.7026272749 -0.0153276824 0.7798095326
C -3.5934915256 0.5417685074 -0.3290695847
C -5.0717517752 0.3913517795 0.0112859022
H 2.7388318408 1.6542602153 0.9568401076
H 4.2939735101 2.3005360690 0.4449620440
H 4.2326101039 0.9628159497 1.5938969249
H 4.8506387440 0.2418089202 -0.7378339668
H 3.2904498873 0.8193554844 -1.3097355211
H 3.7628907085 -1.3886831293 0.7399534521
H 3.3416323651 -1.6325608737 -0.9546456898
H 1.5803191047 -0.3095149756 1.1504559228
H 1.4191943138 -1.9518927268 0.5390654072
H 1.1050570879 -0.9796068845 -1.7821029344
H 0.9985865399 0.6180596691 -1.0415011214
H -0.8332435875 -1.7234798076 -0.3722356800
H -1.2079884284 -0.4419018865 -1.5241887658
H -0.6701764900 -0.0472295757 1.4478954060
H -1.0249650576 1.2462293817 0.3018868887
H -2.9014555180 -1.0828928017 0.9005573562
H -2.9708709230 0.4771376881 1.7179641232
H -3.3614841830 1.5988168142 -0.4786863973
H -3.3896265123 0.0202341437 -1.2655380332
H -5.6913080290 0.7931653701 -0.7867749290
H -5.3251835121 -0.6574949293 0.1485308426
H -5.3077650670 0.9227572555 0.9306375779
32
CONF189
C 3.7416734390 1.3975614530 0.7123478418
C 3.8020574453 0.4075934892 -0.4454635342
C 3.2097729136 -0.9607900851 -0.1023818859
C 1.7250374177 -0.9447231373 0.2664431728
C 0.8288309547 -0.4573588802 -0.8710249614
C -0.6607951227 -0.6827762631 -0.6057985361
C -1.2040508197 0.1800044407 0.5320930831
C -2.7003663512 -0.0201225062 0.7793635679
C -3.5859001956 0.5438941402 -0.3303449106
C -5.0654729901 0.4133795853 0.0124967654
H 4.2673439482 2.3133372435 0.4520582083
H 4.2080862777 0.9739190201 1.5991790558
H 2.7136152409 1.6550729522 0.9526868272
H 4.8469073495 0.2619176156 -0.7307091953
H 3.2847053644 0.8261472533 -1.3100723520
H 3.7698040905 -1.3825332216 0.7361888671
H 3.3516228390 -1.6241460167 -0.9595042720
H 1.5789189028 -0.3218698377 1.1488282444
H 1.4304402594 -1.9633917034 0.5319180602
H 1.1042176563 -0.9913931152 -1.7841786598
H 0.9969566592 0.6068702142 -1.0451999720
H -0.8310767461 -1.7363285350 -0.3709208617
H -1.2092523170 -0.4543874416 -1.5214887722
H -0.6693344380 -0.0659905159 1.4511939930
H -1.0146130772 1.2327152858 0.3081398406
H -2.9059741611 -1.0865878500 0.8983942242
H -2.9671810524 0.4728493660 1.7176773471
H -3.3410343595 1.5974231887 -0.4840141631
H -3.3898321878 0.0165898048 -1.2652395514
H -5.2941537882 0.9545047062 0.9280739027
H -5.6810309295 0.8164786431 -0.7880015431
H -5.3310275278 -0.6313985871 0.1578776935
32
CONF190
C 5.0647693013 -0.4128011150 0.0151044919
C 3.5856743454 -0.5447813177 -0.3292363201
C 2.6984960437 0.0171286671 0.7802201304
C 1.2025368618 -0.1818365283 0.5298847739
C 0.6611736919 0.6849419488 -0.6058916824
C -0.8282161279 0.4610396578 -0.8737762940
C -1.7256875688 0.9473013396 0.2631335340
C -3.2104055241 0.9596593073 -0.1058637793
C -3.8003930827 -0.4109494434 -0.4440070196
C -3.7388649929 -1.3964571772 0.7175734454
H 5.6814968277 -0.8165999740 -0.7841486377
H 5.2927579886 -0.9525231661 0.9317025389
H 5.3294888238 0.6323554159 0.1593436250
H 3.3421806497 -1.5984651405 -0.4840998091
H 3.3898366690 -0.0168477341 -1.2638334652
H 2.9042860241 1.0832437331 0.9019860776
H 2.9635379213 -0.4780342052 1.7178790805
H 0.6664644861 0.0611122107 1.4490052193
H 1.0132354476 -1.2337436476 0.3020563053
H 1.2107553271 0.4593154752 -1.5215906114
H 0.8316138158 1.7376424633 -0.3673491494
H -0.9968094236 -0.6027943329 -1.0498644860
H -1.1019436336 0.9966823765 -1.7864939056
H -1.5783111662 0.3255514219 1.1460785065
H -1.4333432846 1.9668509563 0.5277295889
H -3.7711593599 1.3833164308 0.7312618670
H -3.3533759180 1.6198366929 -0.9652590111
H -4.8453603415 -0.2679587613 -0.7301498381
H -3.2821370688 -0.8319802643 -1.3068638893
H -2.7105800092 -1.6531656335 0.9578139701
H -4.2042724103 -0.9693003161 1.6032514141
H -4.2649158714 -2.3131910628 0.4614544069
32
CONF192
C 3.7956264490 1.3590146365 0.7371902742
C 3.8189010211 0.3901531551 -0.4396919479
C 3.1988517815 -0.9701024978 -0.1142373656
C 1.7148419654 -0.9285455078 0.2554112384
C 0.8273233173 -0.4167033377 -0.8784068834
C -0.6648845577 -0.6378481998 -0.6239250752
C -1.2114002991 0.2151079082 0.5197649077
C -2.7013326055 -0.0117138429 0.7819056329
C -3.6081731151 0.5256888230 -0.3237308568
C -5.0815269137 0.3589568702 0.0303595324
H 4.3413412927 2.2662999036 0.4886345098
H 4.2607098622 0.9068511975 1.6105276957
H 2.7769535505 1.6372945486 0.9939076994
H 4.8565610876 0.2257905846 -0.7404806273
H 3.3009221560 0.8366593246 -1.2897402140
H 3.7505811919 -1.4140966394 0.7183673549
H 3.3264488535 -1.6252549465 -0.9798966298
H 1.5805638874 -0.3097991142 1.1425901389
H 1.4015420944 -1.9435640386 0.5133048923
H 1.1034178029 -0.9382968655 -1.7984950004
H 1.0032535425 0.6489710042 -1.0351751829
H -0.8403252792 -1.6931207259 -0.4006641112
H -1.2075817880 -0.3981287889 -1.5401822923
H -0.6638593042 -0.0225154587 1.4334827933
H -1.0419115720 1.2710126160 0.2949682879
H -2.8846731441 -1.0811671794 0.9105925356
H -2.9693058062 0.4827506137 1.7191326882
H -3.3909838722 1.5844277296 -0.4832809055
H -3.4054092307 -0.0005681411 -1.2578152570
H -5.7129535560 0.7444461501 -0.7664499576
H -5.3195194638 -0.6919126844 0.1798927178
H -5.3171613476 0.8961808850 0.9465025320
32
CONF234
C 4.7417467642 0.0059830484 -0.5669821567
C 3.5702352719 -0.9671197140 -0.6421675391
C 2.2050522836 -0.2774912273 -0.6049071232
C 1.8825618342 0.3427680037 0.7535148204
C 0.5270911641 1.0511731044 0.7877073238
C -0.6633873757 0.0977201020 0.7019675887
C -1.9894014490 0.8448584047 0.8294927892
C -3.2077038397 -0.0789294098 0.8835319846
C -3.4363385631 -0.9236793443 -0.3715431271
C -3.6997236016 -0.0892062152 -1.6199237507
H 4.6739954475 0.7431711017 -1.3640170668
H 5.6824269980 -0.5291290662 -0.6734010742
H 4.7566055390 0.5287618675 0.3855578927
H 3.6354746683 -1.6787578848 0.1840299172
H 3.6467584421 -1.5344537031 -1.5728159427
H 1.4413262800 -1.0173984267 -0.8510139974
H 2.1744960118 0.4999395892 -1.3720868310
H 2.6545899322 1.0721254934 1.0046471002
H 1.9006046693 -0.4369674637 1.5188696755
H 0.4753234890 1.7684278175 -0.0350499605
H 0.4537064816 1.6163582790 1.7205200896
H -0.5891532002 -0.6436807333 1.5014436643
H -0.6356814662 -0.4317424807 -0.2503182011
H -1.9715754785 1.4358633166 1.7491134419
H -2.0922173384 1.5443385001 -0.0016642461
H -3.0985473615 -0.7512320003 1.7383498917
H -4.0967895112 0.5325290078 1.0573839693
H -2.5758089471 -1.5725194541 -0.5417424521
H -4.2990538867 -1.5697020452 -0.1908754843
H -2.8206091054 0.4858858019 -1.8979470710
H -3.9596254612 -0.7344894776 -2.4558637388
H -4.5236450743 0.6002561692 -1.4488803842
32
CONF144
C 3.8294833529 1.1774453174 -0.8704553272
C 3.8671212467 -0.1872176486 -0.1917923490
C 3.0245736317 -0.2508044356 1.0836734027
C 1.5267242608 -0.0185212196 0.8764037481
C 0.8714006170 -1.0738275618 -0.0131151828
C -0.6559027180 -0.9940355741 -0.0079706860
C -1.1889129074 0.2896782959 -0.6430117541
C -2.7040058094 0.2752392356 -0.8496072218
C -3.4949621869 0.2888997958 0.4570741385
C -4.9951521857 0.3842937479 0.2043378372
H 4.5249152236 1.2015777351 -1.7062149802
H 4.1099263405 1.9589652570 -0.1676041235
H 2.8356988477 1.3968083097 -1.2515550567
H 4.9012150037 -0.4204373655 0.0737600317
H 3.5313804881 -0.9525270498 -0.8931852543
H 3.3974270438 0.5000330163 1.7850456182
H 3.1672739388 -1.2314567981 1.5449866066
H 1.3686914063 0.9731201637 0.4526453742
H 1.0419508802 -0.0375496708 1.8559829180
H 1.1703433166 -2.0641360285 0.3401805913
H 1.2269405074 -0.9658263153 -1.0394369840
H -1.0116910509 -1.0723489783 1.0208894935
H -1.0514851913 -1.8485528515 -0.5629610740
H -0.9255122207 1.1460053775 -0.0197737550
H -0.7069730854 0.4237687232 -1.6148731864
H -2.9847902397 1.1543791038 -1.4352466122
H -2.9816641369 -0.6084042212 -1.4293623628
H -3.2859309077 -0.6200165575 1.0231952159
H -3.1740894614 1.1403305536 1.0616679902
H -5.2334510313 1.2958562192 -0.3393887596
H -5.3357320251 -0.4639251808 -0.3853552222
H -5.5421692747 0.3914869849 1.1439503211
32
CONF176
C 4.5232606706 -0.6985961166 0.1345059773
C 3.1237383902 -1.2771701851 0.3110984016
C 2.0603557851 -0.2171833165 0.6052016674
C 1.7599844854 0.6795930975 -0.5941252846
C 0.7362249721 1.7757756561 -0.2903222160
C -0.6505483329 1.2742332911 0.1179068546
C -1.3294967434 0.4362514044 -0.9641107143
C -2.7961462041 0.1320305652 -0.6561461609
C -2.9832128687 -0.8006689318 0.5392288036
C -4.4478537899 -1.1741088514 0.7366908511
H 4.5713567450 -0.0464223289 -0.7334992561
H 5.2462173540 -1.4991439997 -0.0036718638
H 4.8098122469 -0.1250223075 1.0133018665
H 3.1424825846 -1.9889825981 1.1398908371
H 2.8421542713 -1.8274979007 -0.5896117374
H 2.3898204599 0.4000824463 1.4444642025
H 1.1445992298 -0.7282404974 0.9076016025
H 1.4070951760 0.0655460844 -1.4245828955
H 2.6816292941 1.1673739542 -0.9171445537
H 0.6323658935 2.4045233471 -1.1784811570
H 1.1265420019 2.4049168832 0.5137357685
H -1.2764503136 2.1448970309 0.3304499642
H -0.5714030542 0.6970891947 1.0392274073
H -1.2763914328 0.9795506090 -1.9110354984
H -0.7949384556 -0.5067968077 -1.0909053490
H -3.3292915926 1.0675588079 -0.4702630407
H -3.2476391377 -0.3348378259 -1.5353164163
H -2.3961966558 -1.7085319869 0.3811695442
H -2.6133969459 -0.3174012676 1.4448910937
H -4.5624217658 -1.8361631475 1.5915447927
H -5.0472643923 -0.2829324981 0.9090363309
H -4.8346649848 -1.6806229135 -0.1449343602
32
CONF288
C 4.4176289135 -0.7432229039 -0.6957522206
C 3.5706951283 -0.5827069533 0.5620309083
C 2.4256915994 0.4189459162 0.3994810344
C 1.3241674216 -0.0751009972 -0.5360904977
C 0.2019652598 0.9446923613 -0.7396228282
C -0.5889995404 1.3043508571 0.5204018473
C -1.2573454780 0.1222043154 1.2264482539
C -2.2314361892 -0.6807542428 0.3628775858
C -3.4297295759 0.1326694618 -0.1217117914
C -4.4320866700 -0.7378862389 -0.8708698428
H 4.8073006414 0.2205987159 -1.0159564597
H 3.8350665001 -1.1668356256 -1.5094351736
H 5.2578025706 -1.4057045043 -0.5012772138
H 4.2156005555 -0.2429964115 1.3761190732
H 3.1604924621 -1.5535376364 0.8498806863
H 2.8247913948 1.3629439129 0.0202689647
H 1.9980553226 0.6114300443 1.3851378530
H 0.9120058432 -1.0076179706 -0.1465339448
H 1.7565910555 -0.2924550659 -1.5147007837
H -0.4855948440 0.5576441239 -1.4942079501
H 0.6357568557 1.8647331003 -1.1403580843
H -1.3524694720 2.0347614603 0.2449904037
H 0.0759808343 1.7947835452 1.2341766251
H -0.4863935637 -0.5536040322 1.6016672350
H -1.7978371685 0.5088867716 2.0945941018
H -1.7066573155 -1.0980180190 -0.4981812965
H -2.5988927716 -1.5216933996 0.9571813528
H -3.9212610883 0.5953920168 0.7374017190
H -3.0906575512 0.9323346067 -0.7821608098
H -4.8072447481 -1.5296882408 -0.2260909481
H -5.2762387694 -0.1434725632 -1.2119632605
H -3.9627613709 -1.1976040619 -1.7379491581
32
CONF178
C 4.5506198468 -0.6612383410 0.1427307023
C 3.1613930740 -1.2595462534 0.3351927166
C 2.0813329319 -0.2113647459 0.6106121176
C 1.7605983960 0.6525099681 -0.6074671606
C 0.7317374779 1.7480332112 -0.3196979428
C -0.6512947760 1.2461349060 0.1004116094
C -1.3317195738 0.3924665582 -0.9685860072
C -2.8046884323 0.1140040656 -0.6664154506
C -3.0147623525 -0.7755545035 0.5575820644
C -4.4861973444 -1.1220599820 0.7538161578
H 5.2874009674 -1.4519512100 0.0220397218
H 4.8282231468 -0.0623155750 1.0073234339
H 4.5864649412 -0.0287261128 -0.7401843531
H 3.1944036179 -1.9537027573 1.1783826359
H 2.8868349103 -1.8329101681 -0.5532253877
H 2.4048369416 0.4304713967 1.4336318451
H 1.1754789266 -0.7299609454 0.9297208955
H 1.4036607554 0.0151586692 -1.4183518945
H 2.6748630398 1.1390939878 -0.9524083538
H 0.6220318396 2.3612962792 -1.2179387161
H 1.1209169076 2.3926379519 0.4725967861
H -1.2793600518 2.1173082468 0.3043655079
H -0.5664624879 0.6806197639 1.0284563369
H -1.2650282871 0.9139750874 -1.9268393829
H -0.8075942408 -0.5594756140 -1.0704365404
H -3.3291321199 1.0610606143 -0.5175541387
H -3.2522718937 -0.3768952003 -1.5344392288
H -2.4388709825 -1.6959955883 0.4355962153
H -2.6463770370 -0.2667891133 1.4497512379
H -4.6178312772 -1.7508687736 1.6310449866
H -5.0749345479 -0.2172098505 0.8877732803
H -4.8717318698 -1.6551810765 -0.1125905798
32
CONF238
C 4.3202020601 -1.0628027718 0.2332399157
C 3.9321538655 0.3602119632 -0.1524247266
C 2.7355433616 0.4240458546 -1.1039075018
C 1.4277030432 -0.1409203325 -0.5453154750
C 0.8947450726 0.6411927127 0.6535806297
C -0.4339396188 0.0989387175 1.1840674166
C -1.6142881532 0.3490811924 0.2472071760
C -2.9289389307 -0.1274218573 0.8621083498
C -4.1518835868 0.1848161194 -0.0017025166
C -4.1898811122 -0.6114602389 -1.3014703155
H 4.4843162110 -1.6661332713 -0.6570034487
H 3.5421873636 -1.5317566201 0.8296102061
H 5.2368858940 -1.0573327546 0.8183584342
H 4.7823460901 0.8351659684 -0.6482606865
H 3.7200162734 0.9368827012 0.7491885280
H 2.9878124868 -0.1269429127 -2.0135826882
H 2.5723576697 1.4673052846 -1.3861280536
H 1.5674642141 -1.1853439145 -0.2619643227
H 0.6870998446 -0.1164584849 -1.3469217652
H 0.7700700738 1.6902246327 0.3740791400
H 1.6266797159 0.5982975964 1.4620744420
H -0.6458006274 0.5759405630 2.1445914688
H -0.3381323069 -0.9744107015 1.3650713128
H -1.6837792143 1.4187435659 0.0344585337
H -1.4467244050 -0.1706267383 -0.6959679785
H -2.8764472074 -1.2050427341 1.0347235567
H -3.0560176958 0.3555421928 1.8344717490
H -5.0512801988 -0.0422234207 0.5755838550
H -4.1672655182 1.2529803121 -0.2298812770
H -5.1152980353 -0.4136099996 -1.8372099174
H -3.3600481158 -0.3418441731 -1.9491434975
H -4.1341482277 -1.6779152890 -1.0944754403
32
CONF239
C 4.8554619271 -0.3423379535 0.2808001505
C 3.7420684533 -0.7974715349 -0.6564012202
C 2.4882885060 0.0757041613 -0.5797882182
C 1.7549024384 -0.0408387371 0.7552501799
C 0.4849846055 0.8097435921 0.8206952749
C -0.6484430747 0.2852867966 -0.0592875320
C -1.9240737629 1.1045589224 0.1267537291
C -3.0520991883 0.7038133191 -0.8257313681
C -3.5682862477 -0.7259269229 -0.6511295528
C -4.1782007522 -0.9829209688 0.7222837041
H 5.1035505620 0.7006777065 0.0968190076
H 5.7491401118 -0.9410605386 0.1213347660
H 4.5593831455 -0.4482135552 1.3209638810
H 3.4741001498 -1.8311458791 -0.4260689857
H 4.1171061536 -0.7749554380 -1.6824290097
H 1.8148659425 -0.2214915921 -1.3857300502
H 2.7662807838 1.1190857848 -0.7470372172
H 2.4223191010 0.2789075852 1.5573048923
H 1.4970315563 -1.0874477611 0.9346300052
H 0.7240869709 1.8358899111 0.5312899264
H 0.1351863101 0.8340718522 1.8560381203
H -0.8380594833 -0.7583964276 0.1974382477
H -0.3532248062 0.3243893935 -1.1093950023
H -2.2646218499 1.0169388402 1.1597685126
H -1.6901714785 2.1579765875 -0.0483839247
H -3.8868791172 1.3945535454 -0.6822167279
H -2.7003200638 0.8221920024 -1.8537717846
H -4.3299205472 -0.9052846170 -1.4140159019
H -2.7582861121 -1.4350253373 -0.8286130396
H -4.9511862073 -0.2484533502 0.9379724759
H -4.6264411038 -1.9732081618 0.7555748998
H -3.4229493289 -0.9278781262 1.5016515605
32
CONF212
C 4.1078642567 0.1949953718 1.4274631411
C 3.9613563382 -0.2846117377 -0.0122684807
C 2.9978578346 0.5694874321 -0.8388777343
C 1.5481782101 0.5767890027 -0.3486215740
C 0.8749201244 -0.7915062966 -0.4338864349
C -0.5874470694 -0.7704004612 0.0150363264
C -1.5012601539 0.0032370033 -0.9349895688
C -2.9872156396 -0.1993925000 -0.6357049659
C -3.4266785455 0.4035162627 0.6972036679
C -4.9302255339 0.2651128291 0.9068925732
H 4.8780849939 -0.3780874686 1.9384178608
H 3.1775845843 0.0742152252 1.9759814606
H 4.3888185728 1.2457280978 1.4507982083
H 3.6326990196 -1.3250000929 -0.0179470620
H 4.9407908632 -0.2516523184 -0.4959051617
H 3.0144716946 0.2105063746 -1.8711227695
H 3.3652995676 1.5988806017 -0.8429725387
H 0.9929773187 1.2864350553 -0.9648176730
H 1.5075180205 0.9362083727 0.6808789497
H 1.4150947408 -1.4970984749 0.1999701839
H 0.9321525773 -1.1579706365 -1.4619196738
H -0.6437500200 -0.3384497004 1.0158081221
H -0.9452709987 -1.8013434515 0.0770793532
H -1.2735910666 1.0694021069 -0.8835018094
H -1.3040830029 -0.3301365430 -1.9570084190
H -3.5705760405 0.2629613804 -1.4361134603
H -3.2138903521 -1.2684121414 -0.6391641261
H -2.9051994404 -0.0946018545 1.5159310083
H -3.1527266761 1.4608327387 0.7206427090
H -5.2201630576 -0.7833381077 0.8959282069
H -5.2249556588 0.6933004312 1.8618892744
H -5.4747152534 0.7781726712 0.1170678647
32
CONF246
C 4.8134434732 -0.2330638057 0.2689429791
C 3.5807109944 -1.0968505253 0.0256110074
C 2.4122187751 -0.3278474874 -0.5937724998
C 1.8005451816 0.7019585387 0.3541359263
C 0.6314649427 1.4718248935 -0.2647211382
C -0.6232372233 0.6419349360 -0.5468019876
C -1.3120542689 0.1416071485 0.7215828885
C -2.5715596522 -0.6793729312 0.4395779921
C -3.7311291666 0.1459873375 -0.1151542257
C -4.9879241016 -0.6993101969 -0.2876854217
H 4.6137657718 0.5337102729 1.0126076509
H 5.1240575906 0.2530193868 -0.6533108030
H 5.6368538343 -0.8458907032 0.6282032443
H 3.2576914444 -1.5419226359 0.9695755783
H 3.8532208546 -1.9133568004 -0.6474735727
H 1.6458103239 -1.0489500895 -0.8835259411
H 2.7537767188 0.1761279393 -1.5012218432
H 2.5660719049 1.4281808969 0.6332410654
H 1.4750172381 0.2027757753 1.2683369740
H 0.9708200316 1.9178324210 -1.2030653481
H 0.3592929703 2.2894782443 0.4075393448
H -0.3710915873 -0.2100120395 -1.1804174336
H -1.3187666415 1.2702671291 -1.1062930011
H -0.6166643993 -0.4848504116 1.2830211168
H -1.5718937613 0.9958165431 1.3516765232
H -2.3295794351 -1.4794032725 -0.2642738268
H -2.8968916370 -1.1488678762 1.3715173512
H -3.9410149666 0.9733919201 0.5665962663
H -3.4541922435 0.5719026079 -1.0807122193
H -4.8008417968 -1.5221305278 -0.9740882875
H -5.3020418183 -1.1156473452 0.6669379944
H -5.8021103103 -0.0983267176 -0.6853144429
32
CONF230
C 4.8766921547 -0.2293732246 -0.2184567799
C 3.7516041920 -0.8261953874 0.6198843558
C 2.4625545522 -0.0032614931 0.5775434395
C 1.7556750616 -0.0643729529 -0.7755009692
C 0.4906689535 0.7936148465 -0.8339365594
C -0.6481310991 0.2658980849 0.0369646095
C -1.9157560183 1.1003472181 -0.1365263110
C -3.0380198866 0.7133704053 0.8284310438
C -3.5705119307 -0.7112040617 0.6618334395
C -4.2099227458 -0.9592488427 -0.6997346886
H 4.6159228682 -0.2177389195 -1.2733150795
H 5.7848916360 -0.8158610924 -0.1013275558
H 5.0838143935 0.7910029639 0.0965619301
H 4.0873525715 -0.8926726409 1.6575421016
H 3.5409738167 -1.8413408630 0.2759793993
H 2.6932944762 1.0376128538 0.8164642635
H 1.7893109656 -0.3799046768 1.3496188642
H 1.4987868397 -1.1023692137 -1.0006835452
H 2.4395299127 0.2836996683 -1.5515804792
H 0.1445720507 0.8333439150 -1.8701058084
H 0.7350376006 1.8145323044 -0.5305890862
H -0.3525995080 0.2873601099 1.0874070599
H -0.8472392379 -0.7720890462 -0.2351498304
H -1.6672494995 2.1506962729 0.0367785183
H -2.2679973877 1.0175296446 -1.1659714653
H -2.6737983400 0.8299596462 1.8523342434
H -3.8670734595 1.4125329035 0.6926767166
H -2.7633360215 -1.4277008880 0.8215476193
H -4.3184016623 -0.8855868722 1.4393600763
H -4.9827176652 -0.2193550656 -0.8965637892
H -3.4704472364 -0.9052215539 -1.4941146595
H -4.6646195612 -1.9467084758 -0.7278581614
32
CONF216
C 4.9171407521 -0.2850284113 -0.9258796151
C 3.4090131287 -0.3801501702 -0.7250179747
C 2.9874647220 0.1717706499 0.6355715251
C 1.5007664449 -0.0219784194 0.9369317998
C 0.5898959413 0.7843405738 0.0116780465
C -0.8685491546 0.8132429051 0.4728418303
C -1.5501039446 -0.5512229144 0.3911221837
C -3.0100965410 -0.5268827404 0.8491132029
C -3.9565370873 0.2897730170 -0.0333492311
C -4.0774051136 -0.2550153035 -1.4521700232
H 5.1990423936 -0.6741845721 -1.9012190404
H 5.4405563797 -0.8571553507 -0.1628880806
H 5.2445062294 0.7502915505 -0.8608852243
H 3.0983731632 -1.4247604292 -0.8008199050
H 2.9076415958 0.1757497762 -1.5187420800
H 3.2308962950 1.2360009172 0.6833362993
H 3.5682448607 -0.3335456730 1.4115312222
H 1.3125901124 0.2869317174 1.9682913839
H 1.2613054075 -1.0839420311 0.8589538681
H 0.6330231175 0.3731312836 -0.9984672743
H 0.9598516065 1.8119603280 -0.0312893989
H -1.4096690610 1.5234842293 -0.1550417033
H -0.9153575304 1.1780739198 1.5020362997
H -1.4898255385 -0.9249938118 -0.6321978754
H -1.0131016083 -1.2556704683 1.0290211437
H -3.3767210813 -1.5558633680 0.8871998915
H -3.0498376175 -0.1261372522 1.8652202538
H -4.9448284405 0.2794990016 0.4328806630
H -3.6266170918 1.3291354642 -0.0695221869
H -3.1391800782 -0.1538318821 -1.9908512759
H -4.3528549803 -1.3072014922 -1.4325098015
H -4.8419643722 0.2900679479 -2.0007652192
32
CONF191
C 4.4535858324 -0.3390881596 1.0157775000
C 3.5717023243 -1.0131171821 -0.0295908542
C 2.0881141815 -0.6688809803 0.1133498023
C 1.7751385281 0.7926319534 -0.2035040872
C 0.2826580241 1.1174152268 -0.1148815381
C -0.5367068171 0.4909471598 -1.2419538177
C -1.9836802263 0.9863016585 -1.2833988356
C -2.8111145335 0.6661812036 -0.0370867990
C -2.9563541035 -0.8302495099 0.2320896714
C -3.9182554781 -1.1019068087 1.3830766161
H 4.4483248618 0.7407501935 0.8945675482
H 5.4802024725 -0.6849723880 0.9207708926
H 4.1028299339 -0.5760161587 2.0177954274
H 3.6859752662 -2.0959885808 0.0611797932
H 3.9110084049 -0.7285770237 -1.0282112882
H 1.7636294440 -0.8932304059 1.1324732695
H 1.5222107360 -1.3106752959 -0.5643531179
H 2.1372650782 1.0294666836 -1.2070294068
H 2.3084619796 1.4325782883 0.5016784447
H 0.1575799126 2.2024207201 -0.1573144044
H -0.0939870495 0.7769113590 0.8510587962
H -0.5300598192 -0.5951428559 -1.1495335096
H -0.0654461729 0.7406739825 -2.1961875847
H -1.9797793145 2.0699024291 -1.4266148024
H -2.4755069021 0.5416354717 -2.1524150463
H -2.3675589246 1.1493849855 0.8351120366
H -3.8077582942 1.0943573772 -0.1730244686
H -3.3220052153 -1.3245474528 -0.6710512318
H -1.9824089756 -1.2575707894 0.4757697516
H -4.9086478785 -0.7154526416 1.1525933533
H -4.0008474901 -2.1700035814 1.5691474305
H -3.5674375513 -0.6203852350 2.2932442834
32
CONF253
C 3.6639887479 -0.1361116841 1.5939879475
C 3.7849719056 -0.1621862849 0.0742438274
C 2.4983324350 0.2588138386 -0.6373903518
C 1.3554321462 -0.7370993436 -0.4478228165
C 0.1497817791 -0.4442339673 -1.3424853685
C -0.5276971815 0.9044721198 -1.0888391814
C -1.0479553501 1.1106919302 0.3356712781
C -2.0713557891 0.0762759777 0.8069489725
C -3.3567374112 0.0706978936 -0.0179465918
C -4.3984540212 -0.8726057739 0.5727349450
H 4.6222477534 -0.3684760203 2.0526683515
H 2.9371819844 -0.8663003415 1.9394884220
H 3.3518045297 0.8494959022 1.9326885709
H 4.0648762012 -1.1672078704 -0.2501295032
H 4.5867553173 0.5165532368 -0.2265541123
H 2.7054611191 0.3536473725 -1.7065217133
H 2.1982446062 1.2412112905 -0.2685218844
H 1.0399595157 -0.7452787747 0.5954560530
H 1.7217700423 -1.7389471639 -0.6878835125
H -0.5823566336 -1.2437789580 -1.2138004416
H 0.4742253357 -0.4686533535 -2.3863259533
H -1.3576817648 1.0066186429 -1.7908912832
H 0.1786986144 1.7063241482 -1.3126541827
H -0.2052015215 1.1074238582 1.0295752967
H -1.5054597437 2.1022954025 0.3879966397
H -1.6270610073 -0.9203993444 0.7895911869
H -2.3259402608 0.2994965890 1.8465518522
H -3.7642365195 1.0837936231 -0.0554016562
H -3.1375783264 -0.2384013059 -1.0412189384
H -5.3033723965 -0.8698175752 -0.0301777109
H -4.0132750793 -1.8893497371 0.6097512045
H -4.6585661873 -0.5691129353 1.5845353054
32
CONF242
C 4.8672753965 -0.2750883379 -0.2203224434
C 3.7305740966 -0.8415076259 0.6234270828
C 2.4594410068 0.0087745822 0.5789069313
C 1.7577534241 -0.0303201870 -0.7775282046
C 0.4926094825 0.8282659461 -0.8266420029
C -0.6463174011 0.2892303755 0.0373257405
C -1.9235740512 1.1063413616 -0.1479159261
C -3.0433227700 0.7143138594 0.8179749897
C -3.5542886531 -0.7199374013 0.6673616596
C -4.1860240216 -0.9943403683 -0.6926665367
H 5.7640431710 -0.8774384560 -0.0957331209
H 5.0935755553 0.7445437652 0.0838376239
H 4.6075979468 -0.2702269609 -1.2755427938
H 4.0659946923 -0.9093565863 1.6610662371
H 3.4969368823 -1.8537842751 0.2857837909
H 2.7101470699 1.0433646454 0.8250906564
H 1.7750868931 -0.3587431518 1.3455857418
H 1.5010474872 -1.0644818204 -1.0200626612
H 2.4444608514 0.3298443966 -1.5455608643
H 0.1474022485 0.8793933563 -1.8625740556
H 0.7359467659 1.8458282083 -0.5114755333
H -0.3589829637 0.3178370598 1.0898997823
H -0.8303046744 -0.7520854223 -0.2328136943
H -1.6889105004 2.1613990917 0.0158630402
H -2.2718544260 1.0090561612 -1.1774715198
H -2.6840885214 0.8483704225 1.8415291724
H -3.8821189486 1.3995306920 0.6714857817
H -2.7371005832 -1.4223595395 0.8382140168
H -4.3018722008 -0.8957074689 1.4448786226
H -4.6220589025 -1.9904807744 -0.7109460563
H -4.9722383705 -0.2712432820 -0.8988650458
H -3.4460416533 -0.9349184673 -1.4862625577
32
CONF205
C 4.4946947396 0.7855701253 1.0574763139
C 3.2869314271 -0.1061863374 0.7932529726
C 2.8717228934 -0.0680132737 -0.6760814691
C 1.7594489814 -1.0588963908 -1.0245119275
C 0.4227971618 -0.8163203653 -0.3197119634
C -0.2280802122 0.5119435515 -0.7005734469
C -1.5911832485 0.7252897924 -0.0396637203
C -2.6698094800 -0.2276109214 -0.5541520909
C -4.0784208487 0.1627644287 -0.1040412626
C -4.2835959932 0.0353382066 1.4013616428
H 4.7719673210 0.7541874357 2.1084222155
H 4.2714907669 1.8165169667 0.7913802836
H 5.3476155985 0.4579078928 0.4669818123
H 2.4575620490 0.2245830503 1.4202823872
H 3.5272680557 -1.1348360364 1.0721795723
H 3.7435367370 -0.3092720521 -1.2899379660
H 2.5628325506 0.9451904403 -0.9386341734
H 2.1025608693 -2.0663097554 -0.7751493577
H 1.5933141902 -1.0265776261 -2.1043421703
H 0.5621196700 -0.8542773208 0.7620048104
H -0.2481405148 -1.6331245005 -0.5920922969
H -0.3419534853 0.5587445579 -1.7865344050
H 0.4275813744 1.3313261792 -0.4003014243
H -1.4819024298 0.6113664902 1.0402039367
H -1.9134126839 1.7513250325 -0.2354649152
H -2.6419836262 -0.2299725758 -1.6467753996
H -2.4608569688 -1.2433729359 -0.2140328019
H -4.2831991476 1.1909088207 -0.4116911767
H -4.7974825985 -0.4831134686 -0.6137125883
H -4.0458707805 -0.9731823310 1.7324914349
H -3.6498504386 0.7341282929 1.9405807785
H -5.3185498254 0.2466415591 1.6600254710
32
CONF293
C 4.3177928576 0.6101734562 -0.1478282685
C 3.1862892837 -0.0716300198 -0.9086838864
C 2.4529238654 -1.1281543794 -0.0806264345
C 1.7526724379 -0.5968257436 1.1725454831
C 0.6957448025 0.4790085575 0.9170349075
C -0.4672257811 -0.0039021432 0.0525986246
C -1.5672950806 1.0513585165 -0.0440906458
C -2.6849717989 0.6800222035 -1.0204722249
C -3.4750128088 -0.5768452525 -0.6503385537
C -4.2173838779 -0.4529778751 0.6754279706
H 4.8680215484 1.2764113303 -0.8083290491
H 5.0099786516 -0.1305055553 0.2469774921
H 3.9322847564 1.1980289717 0.6809415165
H 3.6014322889 -0.5627572842 -1.7924085403
H 2.4782209468 0.6808830821 -1.2590797748
H 3.1747246756 -1.8871366560 0.2324054003
H 1.7185657826 -1.6238199216 -0.7184739851
H 2.5013279554 -0.1939057524 1.8571940442
H 1.2756153713 -1.4417929206 1.6760420781
H 1.1580187417 1.3503049018 0.4497870970
H 0.3010409835 0.8030295132 1.8838999353
H -0.8703702358 -0.9211896125 0.4855526316
H -0.1103903606 -0.2350220621 -0.9527521263
H -1.9870131786 1.2313037919 0.9470363333
H -1.1209627001 1.9907231873 -0.3813565306
H -3.3800776854 1.5209520347 -1.0861506156
H -2.2490157329 0.5354936124 -2.0123168542
H -4.2014757420 -0.7653210617 -1.4447055759
H -2.8042751677 -1.4366001306 -0.6135267443
H -3.5218714189 -0.3751793906 1.5067533273
H -4.8533760408 0.4296376673 0.6735469694
H -4.8433478489 -1.3270781170 0.8392964353
32
CONF296
C 4.4697096592 -0.6644052905 -0.6939773995
C 3.6025974505 -0.5771061506 0.5572398033
C 2.4304297641 0.3961684238 0.4155218692
C 1.3400594282 -0.1112728606 -0.5261641953
C 0.2134783428 0.9003255956 -0.7458142016
C -0.5839441768 1.2704153437 0.5069884713
C -1.2688199572 0.0963936302 1.2104655128
C -2.2649461188 -0.6821963145 0.3495992490
C -3.4514966072 0.1574144043 -0.1194054899
C -4.4863770841 -0.6915854271 -0.8488694237
H 5.3215452882 -1.3168054246 -0.5168671597
H 4.8425263108 0.3206975824 -0.9659085848
H 3.9076258911 -1.0634717242 -1.5340760318
H 4.2272214302 -0.2496614185 1.3918272567
H 3.2180358379 -1.5696236989 0.8031016392
H 2.8035038805 1.3566427768 0.0515892337
H 1.9999377880 0.5605517580 1.4050247272
H 0.9305746522 -1.0440011197 -0.1342219720
H 1.7819771953 -0.3324953519 -1.4996547755
H -0.4688698411 0.5019302484 -1.4991920773
H 0.6450648904 1.8178731344 -1.1545725504
H -1.3386465019 2.0070689999 0.2242974609
H 0.0805881965 1.7562030263 1.2242689654
H -0.5080666534 -0.5963364034 1.5754232753
H -1.7955590514 0.4874357748 2.0850882759
H -1.7553284857 -1.1041892672 -0.5182999948
H -2.6436851930 -1.5195760765 0.9418461966
H -3.9182723844 0.6346916200 0.7455533556
H -3.1042924795 0.9464083568 -0.7884203401
H -4.8716620628 -1.4703563565 -0.1942184296
H -5.3204077254 -0.0776536113 -1.1803449881
H -4.0420419625 -1.1673210349 -1.7204752264
32
CONF247
C 4.9775885730 0.7277565433 -0.3112602762
C 3.7291410549 -0.1315444421 -0.1470446856
C 2.5745423511 0.6662131048 0.4563247812
C 1.3295381887 -0.1747931552 0.7431679510
C 0.6249762704 -0.6597948748 -0.5225597394
C -0.6358405157 -1.4781310662 -0.2334541098
C -1.8019838059 -0.6900114519 0.3679257604
C -2.4157913763 0.3127687409 -0.6073296980
C -3.5786047238 1.1039012643 -0.0054150185
C -4.8151083846 0.2531437364 0.2632525064
H 5.7891210126 0.1460297685 -0.7415351366
H 5.3042829689 1.1141759409 0.6517162319
H 4.7742801925 1.5717267284 -0.9666932237
H 3.9560295847 -0.9809622453 0.5014560497
H 3.4376516714 -0.5249980196 -1.1221101433
H 2.3093513538 1.4830545903 -0.2193099914
H 2.9159443252 1.1128824123 1.3937360196
H 0.6367380501 0.4325965446 1.3283104455
H 1.6096031269 -1.0375922964 1.3525756120
H 1.3098008494 -1.2910015757 -1.0919054044
H 0.3754915897 0.1987947246 -1.1481493350
H -0.3713057010 -2.2869272305 0.4523682891
H -0.9749208496 -1.9365151945 -1.1658601647
H -2.5675226431 -1.4065805714 0.6708943406
H -1.4724889780 -0.1646157522 1.2659119301
H -1.6487233300 1.0222230099 -0.9230163259
H -2.7638012783 -0.2172087433 -1.4973453573
H -3.2508212417 1.5717695334 0.9257905547
H -3.8486816438 1.9039756266 -0.6989134831
H -4.6163558290 -0.4977060140 1.0232502767
H -5.6332796138 0.8788855845 0.6121228635
H -5.1328448687 -0.2519685094 -0.6462837680
32
CONF295
C 4.3327562332 0.6087792347 0.1133374023
C 3.2141787739 -0.0718369976 0.8942258989
C 2.4616886843 -1.1236031056 0.0772532329
C 1.7430241481 -0.5864555742 -1.1628877780
C 0.6873860715 0.4853563909 -0.8863821310
C -0.4739064378 -0.0119205640 -0.0278536817
C -1.5685090510 1.0458839247 0.0972076365
C -2.7009473424 0.6444192578 1.0441800981
C -3.4958192635 -0.5901494496 0.6138585074
C -4.2078885346 -0.4128333899 -0.7224881011
H 5.0081995833 -0.1335101977 -0.3065243524
H 4.9050511060 1.2625387851 0.7673461975
H 3.9326251716 1.2094335878 -0.6991728063
H 2.5154756505 0.6817964149 1.2605864420
H 3.6447701624 -0.5669846762 1.7682290347
H 1.7362824619 -1.6171908384 0.7268298448
H 3.1746864952 -1.8851714297 -0.2494398703
H 1.2607225792 -1.4291923749 -1.6651194842
H 2.4816607871 -0.1779113094 -1.8549998165
H 0.2900707118 0.8257144589 -1.8465603904
H 1.1510787766 1.3485629694 -0.4058121565
H -0.1143510323 -0.2681556873 0.9704228337
H -0.8830454682 -0.9169890322 -0.4804090392
H -1.1205158829 1.9684851997 0.4759706206
H -1.9750708720 1.2669985796 -0.8910859882
H -2.2792448601 0.4568301450 2.0349736631
H -3.3904874437 1.4876572113 1.1344766690
H -2.8336567128 -1.4557745280 0.5617303821
H -4.2411357417 -0.7975625952 1.3857164299
H -4.8316156372 0.4783164200 -0.7053013281
H -3.4936797423 -0.3184603048 -1.5360549156
H -4.8420476722 -1.2721351958 -0.9278517497
32
CONF207
C 4.4658589176 0.7995133214 1.0681145505
C 3.2525209479 -0.0842640719 0.8023788628
C 2.8729699118 -0.0867327961 -0.6770681543
C 1.7619206037 -1.0800734198 -1.0228629054
C 0.4204676980 -0.8280986504 -0.3308063512
C -0.2205103576 0.5025565720 -0.7198424277
C -1.5795074449 0.7308764405 -0.0554331667
C -2.6681171216 -0.2137193596 -0.5635627090
C -4.0688329703 0.1753664729 -0.0882698292
C -4.2524955527 0.0282557456 1.4181944288
H 4.2632302277 1.8246006218 0.7653929714
H 5.3280208508 0.4426499772 0.5088574350
H 4.7173532921 0.7968604034 2.1259847293
H 2.4132485302 0.2776586857 1.3982387029
H 3.4714664353 -1.1066926232 1.1191878061
H 3.7570239202 -0.3517850872 -1.2629978918
H 2.5777629512 0.9203256210 -0.9766160710
H 2.1012455508 -2.0851197697 -0.7591417767
H 1.6047820200 -1.0597986637 -2.1043107668
H 0.5509552001 -0.8638261712 0.7520924939
H -0.2524245330 -1.6423347968 -0.6060976380
H -0.3369762499 0.5428830526 -1.8057589401
H 0.4425586652 1.3185369346 -0.4268764396
H -1.4673824459 0.6184651202 1.0243231807
H -1.8933775154 1.7592789966 -0.2524436893
H -2.6563337247 -0.2049202221 -1.6564524189
H -2.4568687533 -1.2334271783 -0.2369267567
H -4.2746872597 1.2080779500 -0.3793850862
H -4.7970551579 -0.4617244952 -0.5959596088
H -3.6115764826 0.7202113473 1.9577508525
H -5.2837277642 0.2356242771 1.6941876598
H -4.0098407973 -0.9843896390 1.7327793631
32
CONF251
C 2.8177197919 -0.0210653226 -2.0500769458
C 3.4044661515 0.0156263444 -0.6431049772
C 2.3627403559 0.3246309059 0.4332888723
C 1.3312880617 -0.7890675687 0.6046265966
C 0.4245517103 -0.5875276809 1.8199283962
C -0.4244228480 0.6861465178 1.7869600202
C -1.3326774755 0.8235355738 0.5639047075
C -2.3676329121 -0.2947223191 0.4552998253
C -3.4039714387 -0.0467788056 -0.6419081305
C -2.8124887663 -0.1022590575 -2.0462890483
H 2.3081758066 0.9139653438 -2.2730234200
H 2.1063154134 -0.8357850306 -2.1546112850
H 3.6070041805 -0.1644650483 -2.7843421512
H 4.1813996044 0.7830939678 -0.6057906774
H 3.8781025072 -0.9438891076 -0.4225837898
H 1.8596418790 1.2587512237 0.1774002345
H 2.8775314683 0.4741927424 1.3859252026
H 1.8589979817 -1.7386964897 0.7279038602
H 0.7201871679 -0.8695521448 -0.2942433545
H 1.0449804331 -0.5568111568 2.7195991448
H -0.2337192079 -1.4538033807 1.9107790080
H 0.2341753786 1.5558060580 1.8310491032
H -1.0436034972 0.7030547813 2.6878557935
H -1.8575111298 1.7800279827 0.6356854213
H -0.7228291322 0.8528369224 -0.3389065093
H -1.8671770728 -1.2442425590 0.2575841521
H -2.8864183360 -0.3852618468 1.4131935386
H -4.1862201016 -0.8052679561 -0.5595056497
H -3.8717573724 0.9277614112 -0.4835627005
H -3.5982278058 0.0012341267 -2.7909810734
H -2.0942808308 0.6988122582 -2.1987878579
H -2.3096744348 -1.0532768841 -2.2086900882
32
CONF244
C 4.5569481156 1.0682330240 -0.7120812971
C 3.3934150806 0.6429028812 0.1762735344
C 2.8647910961 -0.7362705824 -0.2126616692
C 1.8013363718 -1.2767579878 0.7451848760
C 0.5178199630 -0.4478013034 0.8318626308
C -0.2612597944 -0.4029339842 -0.4811469340
C -1.5637155488 0.3945910531 -0.3865048471
C -2.6349272242 -0.2909486693 0.4600319211
C -3.9529253873 0.4850551501 0.5037075820
C -4.7114950504 0.4611618083 -0.8188018032
H 5.3817650179 0.3642619082 -0.6241616716
H 4.9153109608 2.0547220006 -0.4277692656
H 4.2469036684 1.1020390440 -1.7542654054
H 2.5949041029 1.3816549800 0.0921685478
H 3.7209658869 0.6216705645 1.2183388105
H 3.7012578174 -1.4401301561 -0.2205052194
H 2.4661650521 -0.6978573061 -1.2278901370
H 2.2373569206 -1.3418254349 1.7454656698
H 1.5395229587 -2.2914870927 0.4345646332
H 0.7553024820 0.5697936079 1.1464966096
H -0.1105312403 -0.8907748393 1.6068279178
H -0.4863630213 -1.4230045970 -0.8018773061
H 0.3629534296 0.0561256960 -1.2498784982
H -1.3519805905 1.3818255763 0.0315684000
H -1.9486585083 0.5387107096 -1.3975935835
H -2.8211562194 -1.2920725264 0.0638822569
H -2.2681234947 -0.4015483903 1.4821101931
H -4.5879417319 0.0479194532 1.2779604749
H -3.7508606356 1.5200503150 0.7886525681
H -4.1503235404 0.9633952794 -1.6022583648
H -4.8965038438 -0.5643883259 -1.1308321901
H -5.6689865323 0.9655983509 -0.7125704949
32
CONF273
C 4.2324543037 -0.8785559716 -0.2778311134
C 2.7963829979 -1.2647144396 -0.6138443844
C 1.8388235131 -0.0721132724 -0.6499165074
C 1.5773308205 0.5292303330 0.7295824416
C 0.6319776898 1.7326308772 0.6982546730
C -0.7797237523 1.4349207181 0.1885786773
C -1.5298099812 0.4237611552 1.0529426968
C -2.9980470252 0.2633479853 0.6545971866
C -3.2238187389 -0.2944546646 -0.7524377331
C -2.6527389253 -1.6949895736 -0.9450217017
H 4.5987567560 -0.1331535302 -0.9802410026
H 4.8793605416 -1.7508366060 -0.3344968312
H 4.3033766341 -0.4699063188 0.7265172284
H 2.4358619301 -1.9923122386 0.1171121166
H 2.7849549616 -1.7486048419 -1.5935004198
H 0.8935910466 -0.4086626335 -1.0795635767
H 2.2465232863 0.6982972272 -1.3087964633
H 2.5236439757 0.8617038695 1.1604216139
H 1.1720168264 -0.2409755514 1.3882131167
H 1.0726224980 2.5060023583 0.0638149242
H 0.5597992195 2.1395139307 1.7102638704
H -0.7241943236 1.0764839068 -0.8392432953
H -1.3426927733 2.3720751531 0.1771152588
H -1.0366887132 -0.5466327852 1.0018463914
H -1.4917086645 0.7567605989 2.0935200166
H -3.4808009557 -0.4031808208 1.3739395422
H -3.4909823787 1.2363701920 0.7253341060
H -4.3008101102 -0.3254689075 -0.9350382358
H -2.7893700971 0.3809440874 -1.4911178613
H -3.0358436556 -2.3698551438 -0.1826521959
H -2.9327201425 -2.0846284225 -1.9209904195
H -1.5675770634 -1.6878034102 -0.8842494984
32
CONF256
C 2.7715902976 -0.0132789311 -2.0584727907
C 3.3843150098 -0.0123519685 -0.6620574970
C 2.3701101020 0.3095970290 0.4367196253
C 1.3287496555 -0.7911219302 0.6293393010
C 0.4255481237 -0.5601888114 1.8419863543
C -0.4205260042 0.7145915546 1.7829145010
C -1.3232317219 0.8323188363 0.5536976098
C -2.3555399938 -0.2894258469 0.4562516247
C -3.3885501935 -0.0579588534 -0.6476698107
C -2.7909664560 -0.1227814116 -2.0490629910
H 3.5423245017 -0.1738557454 -2.8086982083
H 2.2893879163 0.9406551729 -2.2614727438
H 2.0316875592 -0.8027093597 -2.1594602110
H 4.1822912060 0.7333819450 -0.6290417006
H 3.8356643869 -0.9872017425 -0.4630473043
H 1.8737176993 1.2500988435 0.1915236207
H 2.9061269908 0.4521503035 1.3786581429
H 1.8481884939 -1.7431757081 0.7681323228
H 0.7154983147 -0.8818840569 -0.2670045715
H 1.0478781946 -0.5115653260 2.7395356862
H -0.2350101167 -1.4223808472 1.9530278501
H 0.2393535450 1.5838502863 1.8146309772
H -1.0434248548 0.7484448795 2.6807589308
H -1.8500796725 1.7887841252 0.6089503920
H -0.7090534285 0.8496428465 -0.3464750507
H -1.8524278107 -1.2404239601 0.2726693386
H -2.8775406524 -0.3687279563 1.4134230112
H -4.1666059661 -0.8202851172 -0.5613494697
H -3.8627594980 0.9151743649 -0.5004370396
H -3.5746008279 -0.0346393002 -2.7979403963
H -2.0797684846 0.6832979888 -2.2072228671
H -2.2787087100 -1.0706461194 -2.1993286090
32
CONF289
C 4.4424194303 -0.7388324818 0.6484119777
C 3.5750297002 -0.5598743630 -0.5928587287
C 2.4200669251 0.4228421084 -0.3893939003
C 1.3300148832 -0.1158072049 0.5349174881
C 0.2088200994 0.8912299525 0.7983612804
C -0.5857677875 1.3205109074 -0.4372698305
C -1.2559936090 0.1794685093 -1.2061630928
C -2.2394708549 -0.6609026731 -0.3902437358
C -3.4337259831 0.1353188996 0.1317201373
C -4.4604707096 -0.7691106658 0.8035002063
H 5.2850279764 -1.3899940319 0.4276664512
H 3.8759397068 -1.1836352793 1.4622146453
H 4.8289038894 0.2217544335 0.9820893220
H 3.1727279023 -1.5287352523 -0.8977260880
H 4.2037129053 -0.1928878355 -1.4077193571
H 1.9838886554 0.6445043798 -1.3650921178
H 2.8112824339 1.3574753125 0.0198304654
H 1.7736280497 -0.3777804938 1.4974392766
H 0.9146134905 -1.0300334345 0.1073160468
H 0.6444910615 1.7876809515 1.2475855576
H -0.4761396063 0.4631843473 1.5329418590
H 0.0775714784 1.8499862038 -1.1241499812
H -1.3486787323 2.0341320859 -0.1196735669
H -1.7897871857 0.6129334098 -2.0561678136
H -0.4865511989 -0.4805021618 -1.6113520745
H -2.6106066732 -1.4658952696 -1.0303394319
H -1.7217404528 -1.1277081174 0.4494421841
H -3.0937259020 0.8822976341 0.8508459288
H -3.9050022387 0.6634937990 -0.7006384758
H -4.0113226344 -1.2981366718 1.6412560793
H -5.2992426174 -0.1857388507 1.1755640904
H -4.8399787719 -1.5057940426 0.0986526925
32
CONF243
C 4.5509966749 1.0640239073 0.7244106096
C 3.3902739884 0.6464264119 -0.1712143780
C 2.8634533110 -0.7378578617 0.2015319325
C 1.7990925637 -1.2677883876 -0.7611997819
C 0.5195921920 -0.4324926764 -0.8432889978
C -0.2421340776 -0.3610782984 0.4788576760
C -1.5703239580 0.3915972033 0.3685513873
C -2.6509268100 -0.3978865417 -0.3684176324
C -3.9605971403 0.3766964318 -0.5262691979
C -4.6904410511 0.6059415867 0.7927474672
H 5.3767294823 0.3618750962 0.6317464839
H 4.2380268657 1.0871716393 1.7660263334
H 4.9090159578 2.0536765671 0.4510309678
H 3.7202045312 0.6371666740 -1.2127105653
H 2.5901142080 1.3826695301 -0.0809411444
H 2.4652227652 -0.7122199978 1.2172654601
H 3.7005051206 -1.4410235597 0.2000350484
H 1.5328868533 -2.2831833566 -0.4567179479
H 2.2351575328 -1.3285307397 -1.7616973237
H -0.1212333957 -0.8824135786 -1.6041324544
H 0.7591740667 0.5786694128 -1.1768210363
H 0.3785853480 0.1470798866 1.2188785737
H -0.4313840912 -1.3737934708 0.8429170733
H -1.9219897255 0.6168260255 1.3768579336
H -1.4033613664 1.3415201449 -0.1451876508
H -2.2880505230 -0.6619310126 -1.3634961335
H -2.8464022018 -1.3282387124 0.1702350887
H -3.7532282245 1.3396849356 -0.9985011224
H -4.6164070384 -0.1845168160 -1.1962473963
H -5.6491168834 1.0869184675 0.6133720586
H -4.8704734765 -0.3414391809 1.2960803135
H -4.1110570244 1.2437039343 1.4548273457
32
CONF268
C 4.2926782770 -0.8200259087 0.2304214683
C 2.8692744409 -1.3051193693 0.4822575536
C 1.8572945135 -0.1665053048 0.6252909908
C 1.5803146850 0.5578612610 -0.6906543718
C 0.6337885157 1.7507560457 -0.5384514064
C -0.7738744201 1.4033366283 -0.0500020497
C -1.5324123691 0.4869518238 -1.0079453657
C -3.0110611988 0.3319968232 -0.6474628433
C -3.2757392235 -0.3179149109 0.7122869328
C -2.7455823511 -1.7439098066 0.8120955938
H 4.9784558191 -1.6635631050 0.2037159230
H 4.6088616450 -0.1454147783 1.0230612234
H 4.3662045045 -0.2948780005 -0.7181279755
H 2.8598633530 -1.8959707819 1.4013668485
H 2.5590200401 -1.9610401852 -0.3344696785
H 2.2253641179 0.5511648209 1.3624628683
H 0.9242976796 -0.5848064143 1.0075271264
H 1.1697391670 -0.1496950691 -1.4131696556
H 2.5214670460 0.9313697008 -1.0984537201
H 0.5537172662 2.2526238304 -1.5062672193
H 1.0783001348 2.4606843618 0.1638624039
H -1.3349076044 2.3351112347 0.0611001332
H -0.7105361902 0.9414985489 0.9352857006
H -1.4692454996 0.9051490625 -2.0160605174
H -1.0627622911 -0.4962105126 -1.0317241512
H -3.4808480659 1.3189348663 -0.6573568985
H -3.4946936208 -0.2702632918 -1.4208687688
H -2.8353972301 0.2909125760 1.5034020333
H -4.3560724421 -0.3316544862 0.8762904733
H -3.1361171283 -2.3521055912 -0.0008460016
H -1.6599860392 -1.7625673483 0.7648118816
H -3.0496516628 -2.1936549506 1.7544200406
32
CONF267
C 2.7464167129 1.7438884674 0.8187349169
C 3.2787242671 0.3202178565 0.6998816700
C 2.9994238829 -0.3178965000 -0.6625251390
C 1.5170111850 -0.4774117967 -1.0050745097
C 0.7759145277 -1.4073461765 -0.0464381755
C -0.6326812745 -1.7655754371 -0.5246797659
C -1.5872087615 -0.5791344190 -0.6777500500
C -1.8613221043 0.1505589171 0.6357696935
C -2.8526903878 1.3061505089 0.4853304308
C -4.2795288464 0.8470170392 0.2060045853
H 3.0612140876 2.1859870705 1.7611151298
H 1.6602238386 1.7602729544 0.7851615683
H 3.1253996020 2.3602972034 0.0064215574
H 2.8493394032 -0.2968233280 1.4907029156
H 4.3609543605 0.3354176313 0.8510098537
H 3.4741821572 -1.3021398404 -0.6882105728
H 3.4695672860 0.2943498732 -1.4363995577
H 1.4429676359 -0.8861509150 -2.0163067064
H 1.0419201079 0.5034061173 -1.0129463058
H 0.7173109378 -0.9522953306 0.9423487867
H 1.3465838388 -2.3344947247 0.0539403595
H -1.0685985158 -2.4749897387 0.1835097990
H -0.5552887890 -2.2713563873 -1.4906726366
H -1.1840655465 0.1268421761 -1.4059811606
H -2.5283549434 -0.9600987195 -1.0786982107
H -2.2459005094 -0.5605368417 1.3708811221
H -0.9243470615 0.5540309229 1.0240910571
H -2.8483880058 1.8895383716 1.4092502346
H -2.5183891018 1.9632645932 -0.3208970096
H -4.3464800269 0.3342664135 -0.7497005076
H -4.6188510373 0.1687351285 0.9857479638
H -4.9510583199 1.7019290307 0.1787063679
32
CONF265
C 3.5785357179 0.8163465377 -1.2784335029
C 3.6965732157 0.0806247844 0.0516905604
C 2.8035317599 -1.1587704376 0.1378459610
C 1.3035016563 -0.8789751591 0.0293285133
C 0.7659278950 -0.0202636882 1.1729041284
C -0.7600996910 0.0826747850 1.1732134983
C -1.3025745230 0.8765676447 -0.0140636907
C -2.8024610447 1.1607806963 0.0843858652
C -3.6952585890 -0.0815187992 0.0584117742
C -3.5870633132 -0.8735109087 -1.2398573910
H 4.3092419320 1.6201474862 -1.3299768395
H 2.5897726459 1.2511453044 -1.3980038613
H 3.7587044448 0.1346215363 -2.1068715941
H 3.4586652673 0.7638827349 0.8683865658
H 4.7327628840 -0.2392312671 0.1868989456
H 2.9993563527 -1.6621357326 1.0881761064
H 3.0857718141 -1.8468874530 -0.6631554360
H 0.7780693395 -1.8377210626 0.0365089407
H 1.0936667392 -0.3982025920 -0.9259772799
H 1.1873795476 0.9847069088 1.1120753676
H 1.0882821023 -0.4592706669 2.1207148029
H -1.0784026596 0.5739380926 2.0964263790
H -1.1818496792 -0.9240025923 1.1703629950
H -0.7779543293 1.8345943302 -0.0615252506
H -1.0955279707 0.3440222921 -0.9420956712
H -2.9961981647 1.7081574930 1.0105087156
H -3.0869568805 1.8104293444 -0.7473491606
H -3.4506461799 -0.7290823069 0.9017644928
H -4.7306241712 0.2434329540 0.1876438441
H -3.7771217700 -0.2285465894 -2.0950879925
H -2.5980780512 -1.3102843799 -1.3499880608
H -4.3156192458 -1.6808504271 -1.2499591532
32
CONF342
C 4.1780173776 0.1726719764 -0.9855790683
C 3.4234859516 0.5411395432 0.2867557219
C 2.6437166930 -0.6302304209 0.8862926958
C 1.5418691272 -1.2014541002 -0.0099231108
C 0.4672127008 -0.2023805937 -0.4435983698
C -0.3118008590 0.3922559260 0.7274743158
C -1.4160526702 1.3577863511 0.2907510090
C -2.5655096814 0.7235995301 -0.4949505674
C -3.3563472646 -0.3088564780 0.3059622724
C -4.5766854005 -0.8008541349 -0.4637187112
H 4.8292791598 -0.6803332411 -0.8071256884
H 4.7902299208 1.0087262062 -1.3158621585
H 3.4900715307 -0.0807804462 -1.7877297804
H 2.7448069588 1.3702101691 0.0806470138
H 4.1413258677 0.8878795576 1.0344291652
H 2.2062652543 -0.3097816888 1.8338114049
H 3.3461911439 -1.4370203835 1.1114882974
H 1.0587256878 -2.0194989171 0.5310369601
H 1.9970140031 -1.6308030188 -0.9045704510
H -0.2239643187 -0.7283016412 -1.1050858248
H 0.9208063798 0.6044752144 -1.0220514724
H 0.3761864171 0.9448733851 1.3701589580
H -0.7402560762 -0.4143127696 1.3248629008
H -1.8297442665 1.8347588574 1.1830820833
H -0.9684877928 2.1433750841 -0.3235637289
H -3.2464828671 1.5220681489 -0.8012663448
H -2.1832354633 0.2589334482 -1.4054521868
H -2.7181691897 -1.1620486006 0.5409616578
H -3.6780937415 0.1379128412 1.2496603576
H -4.2743629939 -1.2578143894 -1.4035196283
H -5.1236459608 -1.5395119097 0.1172830718
H -5.2470111576 0.0264943985 -0.6865189208
32
CONF248
C 4.3747047596 -0.6208192438 1.0169262427
C 3.2529563988 -1.2636717339 0.2086918285
C 2.4331930736 -0.2562153052 -0.5990467829
C 1.6221510837 0.7000044914 0.2739767906
C 0.7224199688 1.6314537899 -0.5423998871
C -0.5077516432 0.9550815948 -1.1518907420
C -1.5767423394 0.6093589509 -0.1168869305
C -2.7929470960 -0.0516279029 -0.7628546495
C -3.9500748080 -0.2779961362 0.2112557286
C -3.6284970128 -1.2913703010 1.3042049675
H 3.9755611396 0.0321540580 1.7883576376
H 5.0214649871 -0.0341033210 0.3682538189
H 4.9768001129 -1.3868290785 1.5000188801
H 2.5884197473 -1.8098829665 0.8821526120
H 3.6895168731 -1.9884382123 -0.4828187322
H 1.7551989580 -0.8115515033 -1.2500017492
H 3.1037244527 0.3228031964 -1.2388185262
H 2.3076376667 1.3155406336 0.8589400651
H 1.0178387188 0.1231111901 0.9759901630
H 1.3189846249 2.0713501099 -1.3452391805
H 0.3833938518 2.4482773469 0.0994059787
H -0.2097409741 0.0474111965 -1.6794667467
H -0.9446763477 1.6312450838 -1.8911462038
H -1.1551630314 -0.0619003960 0.6312709832
H -1.8917126526 1.5235545580 0.3925512014
H -3.1450735975 0.5839017072 -1.5795965744
H -2.4950842827 -1.0092786552 -1.1965961660
H -4.2245574945 0.6746403688 0.6700643412
H -4.8147695580 -0.6328249665 -0.3546112774
H -4.5095259652 -1.4804276010 1.9130233975
H -3.3055913633 -2.2330138205 0.8656641584
H -2.8398005026 -0.9249597127 1.9557445567
32
CONF346
C 4.1685636081 0.1698998294 -0.9980733099
C 3.4213518107 0.5432067169 0.2772007739
C 2.6461626374 -0.6262313841 0.8863766685
C 1.5395785725 -1.2021561197 -0.0009619059
C 0.4615497934 -0.2060186899 -0.4331318622
C -0.3133968183 0.3907030418 0.7395195007
C -1.4162177404 1.3591134795 0.3056296142
C -2.5622952191 0.7312747966 -0.4900213097
C -3.3466223499 -0.3191176889 0.2938043394
C -4.5705448749 -0.7971294795 -0.4790221388
H 3.4760569323 -0.0860887449 -1.7954949875
H 4.8203896108 -0.6827992433 -0.8202040297
H 4.7793851195 1.0044169621 -1.3347561124
H 2.7407832968 1.3708549859 0.0716071908
H 4.1432619525 0.8937298720 1.0191724275
H 2.2141566257 -0.3022257472 1.8351924721
H 3.3506574841 -1.4315078472 1.1107188923
H 1.0602150935 -2.0181637478 0.5463983848
H 1.9900217599 -1.6351275502 -0.8962398595
H -0.2316610020 -0.7350050301 -1.0900268666
H 0.9114199847 0.5998418004 -1.0158347923
H 0.3772178403 0.9417044497 1.3808008606
H -0.7426604048 -0.4147543597 1.3378595776
H -1.8335657482 1.8285698728 1.2002510223
H -0.9666820830 2.1499197103 -0.3005007135
H -3.2478853627 1.5309518641 -0.7826416609
H -2.1776969420 0.2843384152 -1.4083964859
H -2.7054864078 -1.1758185963 0.5070710737
H -3.6636548591 0.1071956443 1.2485061728
H -4.2731403557 -1.2329520817 -1.4303643707
H -5.1124116816 -1.5493697858 0.0891683621
H -5.2439351184 0.0333755602 -0.6797069051
32
CONF140
C 4.7377997784 0.4771369018 0.4375477559
C 4.0391058957 -0.2795592787 -0.6868030262
C 2.5229205438 -0.0788904890 -0.6944961806
C 1.8294756746 -0.6951099602 0.5197994382
C 0.3050374377 -0.7046264417 0.3968301521
C -0.3032314300 0.6972231111 0.3944484264
C -1.8275488934 0.6896160971 0.5181802314
C -2.5227748326 0.0712468695 -0.6940362802
C -4.0376313884 0.2820514092 -0.6894645594
C -4.7428041657 -0.4604817994 0.4401708952
H 4.4934992841 1.5361048079 0.3907286064
H 5.8164215903 0.3695811053 0.3508649215
H 4.4361252153 0.0958233036 1.4092944991
H 4.2615322539 -1.3456044138 -0.5990278166
H 4.4396594112 0.0632305711 -1.6438874534
H 2.1152884890 -0.5372135106 -1.5991427556
H 2.3088000430 0.9903684727 -0.7375957724
H 2.1085370846 -0.1475139947 1.4216952979
H 2.1761507321 -1.7253713877 0.6348511748
H -0.1087619447 -1.2638484130 1.2398649548
H 0.0259550379 -1.2287872208 -0.5189838978
H -0.0244637518 1.2178997504 -0.5234350842
H 0.1113075595 1.2593190095 1.2352006122
H -2.1069669071 0.1450614968 1.4217910680
H -2.1725544020 1.7207511201 0.6303851466
H -2.1111745504 0.5222978833 -1.6005566133
H -2.3152006356 -0.9995251082 -0.7313152319
H -4.2526450583 1.3502954368 -0.6104504164
H -4.4397216475 -0.0654833655 -1.6441663919
H -5.8205078206 -0.3432816428 0.3533380026
H -4.5084675307 -1.5220100136 0.4004499892
H -4.4369669064 -0.0754867878 1.4091673264
32
CONF263
C 3.6330156182 0.8278581439 -1.2375576201
C 3.7085017144 0.0663712886 0.0810039258
C 2.7998165649 -1.1638616580 0.1209944092
C 1.3050597790 -0.8633881061 -0.0049073413
C 0.7599150465 -0.0247758662 1.1500620476
C -0.7662982056 0.0743184575 1.1467460933
C -1.3086033330 0.8687312547 -0.0402863157
C -2.8043358423 1.1707174832 0.0690128009
C -3.7103297278 -0.0621574849 0.0806607697
C -3.6177996644 -0.8894914248 -1.1965342900
H 4.3703948210 1.6270622552 -1.2534312618
H 2.6509971509 1.2719111268 -1.3765027171
H 3.8317655515 0.1604740732 -2.0733239393
H 3.4570627877 0.7368813818 0.9040987382
H 4.7373153496 -0.2677323684 0.2363725643
H 2.9733681772 -1.6928560026 1.0616999100
H 3.0879438717 -1.8353259187 -0.6919346310
H 0.7688265631 -1.8158575323 -0.0279143615
H 1.1153933132 -0.3582045332 -0.9518504049
H 1.1791634672 0.9820720198 1.1071452775
H 1.0790908492 -0.4781015707 2.0922054945
H -1.0874850848 0.5627744402 2.0704793907
H -1.1854843885 -0.9334544952 1.1408371561
H -0.7739623860 1.8207205783 -0.0967730565
H -1.1147600092 0.3291721573 -0.9672203024
H -2.9817370196 1.7397535520 0.9853187703
H -3.0915542014 1.8055125503 -0.7731742946
H -3.4676111254 -0.6895017807 0.9397072504
H -4.7414629201 0.2771831766 0.2068820496
H -4.3552956572 -1.6886110011 -1.1814239286
H -3.8051670143 -0.2654841756 -2.0677396128
H -2.6341934639 -1.3398936371 -1.2997244781
32
CONF383
C 2.9304531757 1.7923319403 -0.1154408707
C 3.1370645934 0.4493477322 -0.8068661080
C 2.9382594357 -0.7476389499 0.1253547327
C 1.5295027935 -0.8827440218 0.7063698689
C 0.4606344667 -1.1199082661 -0.3586068483
C -0.9010208285 -1.4918403212 0.2307729682
C -1.5328534289 -0.4170749026 1.1187273672
C -1.7576806806 0.9357952165 0.4394835638
C -2.6536720189 0.8960597247 -0.7996315078
C -4.0740502656 0.4306027706 -0.4998105807
H 3.1815220819 2.6063293021 -0.7915114725
H 3.5651707194 1.8682595288 0.7647999846
H 1.8963900927 1.9187559729 0.1945083629
H 4.1567630942 0.4082544276 -1.1978034633
H 2.4596855587 0.3697001371 -1.6584940454
H 3.6478901566 -0.6656599245 0.9527188799
H 3.1799064226 -1.6601086855 -0.4259192159
H 1.2891117743 0.0112598510 1.2816015874
H 1.5265561767 -1.7285012422 1.3992202241
H 0.7872897792 -1.9382440565 -1.0061074521
H 0.3542484258 -0.2323365054 -0.9824510812
H -0.7881031216 -2.4004474714 0.8283987456
H -1.5827267953 -1.7277504335 -0.5888145935
H -2.4890799681 -0.7961202790 1.4846291806
H -0.8984401982 -0.2579318148 1.9930385296
H -2.2067465607 1.6116001802 1.1722220870
H -0.7929524228 1.3620090735 0.1571048501
H -2.6947308593 1.9040098634 -1.2204186869
H -2.2104448219 0.2465185418 -1.5560689066
H -4.6935977192 0.5142473378 -1.3897811291
H -4.0850036018 -0.6069334925 -0.1765970609
H -4.5159832586 1.0410256822 0.2848486937
32
CONF393
C 4.4755881708 0.5203842729 -0.8161124249
C 3.3160549659 -0.3473053615 -0.3402926171
C 2.3600353133 0.4362697120 0.5567563181
C 1.2552378462 -0.4242843357 1.1718322072
C 0.3048262541 -1.0766153053 0.1649933851
C -0.4362746948 -0.1015210433 -0.7520951696
C -1.2964986058 0.9383853869 -0.0310449046
C -2.3847811846 0.3620769861 0.8775993311
C -3.4012413722 -0.5409016828 0.1765343583
C -4.2113746334 0.1823510865 -0.8934562148
H 5.1419391239 -0.0495740065 -1.4590022287
H 5.0486592488 0.8903168847 0.0313140830
H 4.1052164001 1.3757375983 -1.3769764542
H 3.7071571844 -1.2044966644 0.2129694952
H 2.7780029911 -0.7289230024 -1.2095044103
H 1.9186312344 1.2549712959 -0.0142375314
H 2.9352915874 0.8835426378 1.3719319651
H 0.6777121572 0.1937783827 1.8620408744
H 1.7203086566 -1.2191062576 1.7612541329
H -0.4238303576 -1.6696269249 0.7214976642
H 0.8690040145 -1.7715729214 -0.4604957776
H -1.0665917883 -0.6830307399 -1.4281020522
H 0.2888917441 0.4284560890 -1.3730818034
H -0.6523018947 1.5783506670 0.5753414432
H -1.7615757247 1.5776029566 -0.7842776082
H -1.9164460582 -0.2029825488 1.6858575961
H -2.9204650413 1.1980331873 1.3354011625
H -2.8910479738 -1.3960662978 -0.2696074859
H -4.0865548639 -0.9305913101 0.9336342511
H -4.6921923851 1.0638715020 -0.4746807546
H -3.5772297345 0.4949185114 -1.7188339760
H -4.9829753934 -0.4739392578 -1.2894761029
32
CONF262
C 3.6585301815 0.8678169463 1.1732154363
C 3.7193980598 0.0436305702 -0.1078809871
C 2.7980168091 -1.1775998295 -0.0851796076
C 1.3080256670 -0.8567493480 0.0471028479
C 0.7620215071 -0.0397580004 -1.1228795989
C -0.7640288105 0.0605877630 -1.1197965877
C -1.3066560052 0.8529949708 0.0685503717
C -2.7956648541 1.1815684089 -0.0554224078
C -3.7207170004 -0.0359230424 -0.1085611274
C -3.6589214424 -0.8947441133 1.1495280080
H 2.6818930240 1.3285667540 1.2951522022
H 4.4044362039 1.6588230153 1.1474772652
H 3.8543052734 0.2390290047 2.0391108477
H 4.7439230456 -0.3082285108 -0.2523308800
H 3.4702847081 0.6767730316 -0.9608233600
H 3.0895864150 -1.8184481371 0.7509157401
H 2.9542139718 -1.7462989869 -1.0055467712
H 1.1330855121 -0.3261281996 0.9829504564
H 0.7614122268 -1.8021811234 0.0986726509
H 1.0793449078 -0.5105351508 -2.0570609259
H 1.1820780148 0.9674228142 -1.0989783660
H -1.1842506540 -0.9468005498 -1.1158479440
H -1.0837076947 0.5508570903 -2.0430826747
H -1.1327825760 0.3011197713 0.9922456578
H -0.7570569614 1.7953376632 0.1407933058
H -3.0851200612 1.8022070362 0.7965060396
H -2.9503113203 1.7735700209 -0.9612547426
H -4.7445287798 0.3228033103 -0.2406684202
H -3.4757245849 -0.6464305326 -0.9790249830
H -4.4075719463 -1.6823015600 1.1045410286
H -2.6834888659 -1.3618523646 1.2559788108
H -3.8500688583 -0.2890446240 2.0327459353
32
CONF306
C 4.4021329700 -0.1660794341 0.6425755027
C 3.1419886991 -0.9837374783 0.3825063327
C 2.3570702896 -0.5094146644 -0.8417742762
C 1.8156644906 0.9189754491 -0.7485718990
C 0.8766500891 1.1819383595 0.4312788572
C -0.3627086714 0.2867442570 0.4916710357
C -1.2953032247 0.4655079392 -0.7047049197
C -2.5548541485 -0.3986501743 -0.6203189810
C -3.5373509724 0.0522168234 0.4590544649
C -4.8142972943 -0.7800995646 0.4372104508
H 4.9724057753 -0.6024853515 1.4594153962
H 4.1550770168 0.8574408927 0.9117763291
H 5.0321521260 -0.1469820111 -0.2441947341
H 2.5020536125 -0.9561656389 1.2657848708
H 3.4263265265 -2.0264305913 0.2194244363
H 1.5271726145 -1.1978254557 -1.0126112643
H 3.0096818273 -0.5669105658 -1.7170157344
H 1.2937639504 1.1462949788 -1.6803101357
H 2.6536345633 1.6151085289 -0.6766571108
H 0.5508706500 2.2241849725 0.3777958146
H 1.4329528894 1.0658354402 1.3635259850
H -0.9044102854 0.5307422830 1.4077061300
H -0.0610155621 -0.7598850976 0.5598858186
H -1.5838558370 1.5165793828 -0.7837753341
H -0.7596023960 0.1990769044 -1.6175862936
H -3.0651117089 -0.3660546974 -1.5864227393
H -2.2675674093 -1.4366364766 -0.4354576680
H -3.0733071376 -0.0348658589 1.4427514409
H -3.7870255438 1.1038731409 0.3001281085
H -5.3126771305 -0.6892343617 -0.5255123977
H -4.5861549812 -1.8302567941 0.6058640614
H -5.5008597805 -0.4486177967 1.2124569341
32
CONF245
C 5.1376074806 0.3121082192 0.5220754777
C 3.7279491711 -0.2669783644 0.4851774245
C 2.8745993213 0.3994557994 -0.5924724575
C 1.4871079995 -0.2246693847 -0.7497504296
C 0.5801293262 0.0086943388 0.4574533273
C -0.8300940600 -0.5560707448 0.2688368241
C -1.6881752166 0.2779656242 -0.6806927618
C -3.0550153765 -0.3468012605 -0.9679767944
C -3.9671279447 -0.5045097030 0.2503793497
C -4.3232725050 0.8217892060 0.9124286985
H 5.7287270579 -0.1687796832 1.2976557080
H 5.1043202281 1.3798049495 0.7272900836
H 5.6367847502 0.1632504691 -0.4329168665
H 3.2622079438 -0.1304498639 1.4623094301
H 3.7816130823 -1.3400912777 0.2876821641
H 3.4006369747 0.3221877833 -1.5474651403
H 2.7674508824 1.4619745976 -0.3613563746
H 1.5927997078 -1.2994271716 -0.9165386195
H 1.0192485545 0.2027750100 -1.6385983592
H 0.5143247168 1.0807122344 0.6583336668
H 1.0268010269 -0.4662739015 1.3326815285
H -1.3169599026 -0.5960692497 1.2448079486
H -0.7600507266 -1.5788338801 -0.1093467289
H -1.8192934847 1.2778884562 -0.2638688306
H -1.1671229777 0.3890692710 -1.6336669137
H -3.5683994175 0.2728760102 -1.7077041789
H -2.9011502113 -1.3324360109 -1.4146793954
H -4.8878160945 -0.9926160931 -0.0788274492
H -3.4956350479 -1.1622525342 0.9821748826
H -3.4457250203 1.2852901219 1.3550901559
H -4.7462377393 1.5090507911 0.1829167024
H -5.0557029318 0.6639755461 1.7006622164
32
CONF281
C 4.1685543073 -1.1077622710 0.4914165631
C 3.0816536772 -1.1242119958 -0.5778528804
C 2.2130719813 0.1355492595 -0.5780864357
C 1.2806315355 0.2204935175 0.6286859030
C 0.4779450877 1.5217624969 0.6828372591
C -0.4671835687 1.7556467508 -0.4986047976
C -1.5072433669 0.6561911554 -0.7199955008
C -2.4552611001 0.4792252850 0.4648877321
C -3.6367494472 -0.4410894744 0.1546563271
C -3.2212841414 -1.8897775716 -0.0770394321
H 4.7995538021 -0.2291300467 0.3764504940
H 4.7942082026 -1.9931144238 0.4058349364
H 3.7379358953 -1.0937645202 1.4890978421
H 2.4444325108 -1.9999663347 -0.4347463918
H 3.5573129641 -1.2191345376 -1.5569848819
H 1.6161823112 0.1404774634 -1.4918890957
H 2.8587392341 1.0168629667 -0.5983454176
H 1.8719321017 0.1577615019 1.5442606085
H 0.6019515562 -0.6342023943 0.6203109646
H 1.1774823755 2.3607095684 0.7265080347
H -0.1002232867 1.5346179980 1.6088833398
H 0.1205230843 1.8687581074 -1.4117289037
H -0.9881685691 2.7020426598 -0.3306650097
H -2.0960380729 0.9185517247 -1.6031408140
H -1.0003527170 -0.2848626490 -0.9333441018
H -1.9087803805 0.0748228243 1.3187241775
H -2.8428942223 1.4600984853 0.7520763468
H -4.3353911011 -0.4052371240 0.9940797298
H -4.1623900169 -0.0689918428 -0.7279249163
H -4.0993373076 -2.5161547385 -0.2159394111
H -2.5981486329 -1.9792758008 -0.9627760510
H -2.6636255345 -2.2660649676 0.7779825950
32
CONF261
C 3.6571929831 1.4716273675 0.4468703268
C 2.9589471850 0.7440740972 -0.6964459421
C 2.8290769289 -0.7621924154 -0.4635304526
C 1.9966541186 -1.1584748376 0.7585055624
C 0.5569375192 -0.6417102527 0.7532616224
C -0.2663632553 -1.1680838129 -0.4210268747
C -1.7563249628 -0.8456955478 -0.2983305967
C -2.0532777872 0.6502976645 -0.3946537605
C -3.5464052172 0.9598848087 -0.5118859599
C -4.3318770087 0.6067096275 0.7462680464
H 3.8127132604 2.5167265878 0.1890858108
H 4.6261036382 1.0199247397 0.6487127187
H 3.0625822616 1.4321767312 1.3556395292
H 3.5328995275 0.8962122058 -1.6140252656
H 1.9716313129 1.1802608449 -0.8561127577
H 3.8305961386 -1.1829096992 -0.3409127839
H 2.3940067606 -1.2170065213 -1.3555409140
H 2.4929630378 -0.7985142903 1.6617189065
H 1.9768629769 -2.2501722910 0.8134897455
H 0.5613639536 0.4482515515 0.7421830212
H 0.0793557760 -0.9576214288 1.6845884559
H -0.1469239640 -2.2534368736 -0.4733024637
H 0.1105917922 -0.7472431859 -1.3550263563
H -2.2914797799 -1.3603067369 -1.1006580202
H -2.1262947188 -1.2353859245 0.6516296293
H -1.6547944252 1.1627617797 0.4826784648
H -1.5446273327 1.0514390780 -1.2751788706
H -3.6651515522 2.0272755861 -0.7131902418
H -3.9617613152 0.4155949028 -1.3632690823
H -3.9063820663 1.1088559305 1.6123634976
H -5.3685800486 0.9186955120 0.6435343813
H -4.3166963777 -0.4647551955 0.9264769998
32
CONF318
C 3.5613244519 1.2768753645 0.9883803453
C 3.6137659898 -0.2207164134 0.7077901841
C 3.1165960555 -0.5915659205 -0.6908975457
C 1.6540764004 -0.2388796944 -0.9687133287
C 0.6738822479 -0.9822262293 -0.0625759066
C -0.7858812907 -0.8213315592 -0.4916668612
C -1.3236682766 0.5899419667 -0.2628181027
C -2.7586118790 0.7804435865 -0.7588447397
C -3.8100029608 -0.0842861346 -0.0603203733
C -3.9178852648 0.1888557268 1.4357000274
H 4.0215619521 1.4958619474 1.9491020367
H 2.5350507911 1.6332512426 1.0166953177
H 4.0969604674 1.8267840436 0.2174900924
H 3.0291434331 -0.7530956371 1.4595984463
H 4.6483493704 -0.5605261765 0.7997443731
H 3.2513418119 -1.6670541997 -0.8325825318
H 3.7413640806 -0.0818490187 -1.4288605707
H 1.4342012270 -0.4981884964 -2.0076690649
H 1.5161657629 0.8373077569 -0.8650447524
H 0.7788899034 -0.6303773301 0.9652760665
H 0.9265044977 -2.0456752321 -0.0773278683
H -1.3893717595 -1.5307824174 0.0775044341
H -0.8823299618 -1.0773981721 -1.5497328500
H -1.2654523869 0.8306291633 0.8000721066
H -0.6920993990 1.3039538125 -0.7948511336
H -3.0312049121 1.8308279349 -0.6276387864
H -2.7890190576 0.5644251343 -1.8298738515
H -4.7771055157 0.1192431537 -0.5267688749
H -3.5881965411 -1.1401652593 -0.2229555646
H -3.0134225850 -0.1170203879 1.9546523060
H -4.0790536522 1.2492176749 1.6175467870
H -4.7534614065 -0.3632523980 1.8595868186
32
CONF280
C 4.1197069189 -1.1566782808 0.5192191201
C 3.0613092976 -1.1250429137 -0.5779108418
C 2.2207248274 0.1534021939 -0.5741681821
C 1.2788626600 0.2481155681 0.6244085994
C 0.4747649162 1.5492239851 0.6605815010
C -0.4719315499 1.7657159457 -0.5231135301
C -1.5049896330 0.6575473181 -0.7336955750
C -2.4520425680 0.4862746583 0.4526636519
C -3.6163656782 -0.4606682206 0.1579164891
C -3.1755939007 -1.9069903138 -0.0394504554
H 4.7671420755 -0.2856068345 0.4464984803
H 4.7334711489 -2.0493626926 0.4242798090
H 3.6626931584 -1.1645255755 1.5050634944
H 2.4015440110 -1.9891823154 -0.4707155904
H 3.5600913081 -1.2095552821 -1.5464185143
H 1.6331213872 0.1788591674 -1.4936584950
H 2.8853118395 1.0208223440 -0.5805172559
H 1.8633761508 0.1940478343 1.5448801835
H 0.6007587035 -0.6070313498 0.6183628388
H 1.1730881073 2.3897085964 0.6924098656
H -0.1028992274 1.5740228194 1.5866987915
H 0.1147135338 1.8733990397 -1.4375979675
H -0.9985519418 2.7105982750 -0.3644803829
H -2.0953970358 0.9069639456 -1.6195036581
H -0.9918845367 -0.2822039444 -0.9376208558
H -1.9002969850 0.1071656204 1.3146342984
H -2.8569077352 1.4655445743 0.7210021970
H -4.3194305768 -0.4180668290 0.9933123227
H -4.1440752425 -0.1173562067 -0.7349851137
H -2.5469712349 -2.0059718219 -0.9202917424
H -2.6154946107 -2.2541965336 0.8262083052
H -4.0421962089 -2.5513372239 -0.1677597242
32
CONF385
C 4.2674826172 -0.1356446119 0.5267520440
C 3.2934667863 -0.2890273664 -0.6359013468
C 2.0062012217 -1.0213283869 -0.2528791120
C 1.1570457963 -0.3219478158 0.8109211259
C 0.6868226761 1.0864866660 0.4416463137
C -0.1485334616 1.1756684582 -0.8376563971
C -1.4199317577 0.3251713380 -0.8368533193
C -2.4088225669 0.7241358423 0.2571327422
C -3.7678605355 0.0371163287 0.1154302777
C -3.7042013383 -1.4681796507 0.3500697705
H 4.4861793753 -1.1050566158 0.9694951041
H 3.8566668809 0.5107022698 1.2978155278
H 5.2009954646 0.3021397151 0.1806808510
H 3.7820131739 -0.8568544030 -1.4318289609
H 3.0529100156 0.6952605714 -1.0407310948
H 2.2696606732 -2.0136613699 0.1230060687
H 1.4068737217 -1.1653453112 -1.1539516603
H 1.7283273225 -0.2579794243 1.7391615321
H 0.2867230298 -0.9482524123 1.0167704462
H 1.5562127790 1.7369576544 0.3261436618
H 0.1039706443 1.4809729543 1.2765309462
H 0.4667728187 0.8805070493 -1.6899753790
H -0.4274160198 2.2223318981 -0.9870972928
H -1.9077014595 0.4419902765 -1.8084488698
H -1.1531533983 -0.7261926422 -0.7293137233
H -1.9937824598 0.4823843448 1.2371946803
H -2.5579591474 1.8062740316 0.2164010744
H -4.4574100411 0.4773669253 0.8397751418
H -4.1688104277 0.2319526829 -0.8820033471
H -4.7028883513 -1.8974607317 0.3185082976
H -3.1017137149 -1.9560176615 -0.4114476428
H -3.2696910543 -1.6820799036 1.3242696246
32
CONF282
C 3.7369932186 0.6477015022 1.3325426584
C 2.8940441633 -0.5724527517 0.9793139739
C 2.7816129900 -0.8128868393 -0.5271834704
C 2.1086274440 0.3145450622 -1.3141028551
C 0.6846106896 0.6513013868 -0.8682798067
C -0.2855956735 -0.5184627925 -1.0255518341
C -1.7492128827 -0.1210750179 -0.8252493812
C -2.0745581210 0.2626407787 0.6172877229
C -3.5391804315 0.6554139062 0.8202857826
C -4.5059282787 -0.5145197474 0.6722546472
H 3.2616298025 1.5630757271 0.9902682745
H 4.7198895351 0.5763809549 0.8716879684
H 3.8673030333 0.7163884753 2.4101165756
H 1.8982164323 -0.4643927618 1.4119529380
H 3.3491177305 -1.4579918136 1.4301493419
H 2.2322097569 -1.7416799054 -0.6923242428
H 3.7868430635 -0.9543066824 -0.9328618642
H 2.0862172948 0.0238460269 -2.3677858433
H 2.7193258958 1.2164184863 -1.2408143084
H 0.3271969535 1.4864138190 -1.4766740415
H 0.6986021160 0.9863006802 0.1689552971
H -0.0341022828 -1.3064547690 -0.3134355859
H -0.1719363302 -0.9309018315 -2.0315023634
H -1.9894311710 0.7177048508 -1.4833858028
H -2.3757441196 -0.9645706914 -1.1206161633
H -1.8330546965 -0.5753172534 1.2758085095
H -1.4498624102 1.1079434620 0.9115948471
H -3.6494747789 1.0755777878 1.8229523568
H -3.8032786371 1.4372858470 0.1044773437
H -4.2340379074 -1.3194325896 1.3517049885
H -5.5194457348 -0.1964242874 0.9050899090
H -4.4988663130 -0.9029774402 -0.3426978926
32
CONF317
C 3.8464345503 1.1806057945 -0.8947001516
C 3.8134535988 0.2697108727 0.3275864811
C 2.3954489632 -0.1208934787 0.7467316545
C 1.6871810974 -0.9997548686 -0.2831118630
C 0.3891126410 -1.6162295794 0.2424184282
C -0.6948646893 -0.6110371721 0.6384264030
C -1.2320584769 0.1929744316 -0.5434729768
C -2.2818451565 1.2316116642 -0.1422380923
C -3.5618592839 0.6626252480 0.4732428408
C -4.3280558669 -0.2564832413 -0.4713367905
H 3.2409763618 2.0679787192 -0.7229101270
H 3.4651725901 0.6668832763 -1.7730796038
H 4.8662063835 1.4962070822 -1.1024738434
H 4.2934865430 0.7841911556 1.1635857182
H 4.3910296409 -0.6344759623 0.1214943050
H 1.8170362418 0.7888685439 0.9169028456
H 2.4487857114 -0.6644594154 1.6936023757
H 2.3576507972 -1.8153078983 -0.5669903204
H 1.4780519311 -0.4211247780 -1.1828791523
H 0.6252444089 -2.2299228608 1.1157374699
H -0.0149953091 -2.2805781544 -0.5258997596
H -0.3058674638 0.0721911213 1.3952810164
H -1.5146865755 -1.1703899803 1.0931995434
H -0.4069744484 0.7258932923 -1.0197352419
H -1.6508955172 -0.4895270019 -1.2849651842
H -1.8322187051 1.9236327209 0.5746030265
H -2.5517046334 1.8084104327 -1.0307247702
H -3.3232620363 0.1240388652 1.3916697601
H -4.2055030661 1.5020807055 0.7478848529
H -5.2784071021 -0.5440594713 -0.0276036626
H -4.5277512412 0.2485280819 -1.4139699828
H -3.7640036896 -1.1621743369 -0.6775027598
32
CONF283
C 3.7387830942 0.6624651562 -1.3215014583
C 2.8975937069 -0.5632601519 -0.9837185927
C 2.7805408936 -0.8189410356 0.5199101097
C 2.1079184062 0.3018577781 1.3165414562
C 0.6844471129 0.6437990923 0.8729367041
C -0.2879293395 -0.5248011293 1.0251015474
C -1.7503778774 -0.1251120652 0.8205991285
C -2.0725359041 0.2510345348 -0.6245462422
C -3.5327340444 0.6586378869 -0.8301446235
C -4.5139534302 -0.4957452231 -0.6581616298
H 3.2572715029 1.5736494868 -0.9764941484
H 3.8769805982 0.7392793078 -2.3975483862
H 4.7184647128 0.5915453936 -0.8536149022
H 3.3566813502 -1.4430655963 -1.4415745921
H 1.9030529193 -0.4535509227 -1.4189496460
H 3.7843577103 -0.9668450817 0.9268322575
H 2.2287390735 -1.7482622658 0.6737236763
H 2.7196097990 1.2037139202 1.2518799121
H 2.0843524789 0.0016787876 2.3675258242
H 0.6988069860 0.9837380913 -0.1626551596
H 0.3287821013 1.4766804832 1.4854396085
H -0.1777753519 -0.9387352653 2.0308330661
H -0.0352105414 -1.3121087141 0.3126460576
H -2.3790601422 -0.9657636722 1.1192733785
H -1.9897894784 0.7175816844 1.4739437836
H -1.4388580174 1.0870450749 -0.9260117354
H -1.8407840968 -0.5946573457 -1.2766475867
H -3.7845503139 1.4565781102 -0.1278546476
H -3.6405052367 1.0620378158 -1.8398940657
H -5.5234229270 -0.1697505657 -0.8972583300
H -4.2525639615 -1.3177140251 -1.3208914326
H -4.5113077079 -0.8631296687 0.3644922528
32
CONF284
C 4.4977714140 0.4539116050 -0.6906328160
C 3.4983253065 -0.6891597734 -0.8297666500
C 2.0465570795 -0.2558609921 -0.6184288027
C 1.7428204912 0.1519066470 0.8223192374
C 0.2843297505 0.5629679320 1.0331368654
C -0.6915537504 -0.6081701892 0.9339218461
C -2.1189608275 -0.2387898813 1.3412569843
C -2.7768783811 0.8425421507 0.4801822091
C -2.8552510509 0.5211134080 -1.0133685156
C -3.6815902396 -0.7230651803 -1.3187976017
H 4.2395492480 1.2674125664 -1.3648410922
H 5.4994526352 0.1093687291 -0.9364022440
H 4.5129546142 0.8393438235 0.3251064818
H 3.7452957787 -1.4766423986 -0.1140772477
H 3.5901905849 -1.1142244773 -1.8321726364
H 1.3980625854 -1.0877978144 -0.8990163889
H 1.8210722074 0.5810119145 -1.2840616754
H 2.3794174821 0.9950908899 1.0961437791
H 1.9849554669 -0.6782590238 1.4905531307
H 0.0242173511 1.3254715839 0.2968782575
H 0.1874962385 1.0119896694 2.0250615144
H -0.3457523121 -1.4079227601 1.5943459166
H -0.6958052868 -1.0038406710 -0.0817410454
H -2.7330224291 -1.1409401465 1.3134852772
H -2.1085176710 0.1137407682 2.3760149670
H -3.7910720764 1.0022573660 0.8557483030
H -2.2335820122 1.7810109225 0.6067516754
H -3.3067697931 1.3775999521 -1.5203039152
H -1.8495737655 0.3985534816 -1.4185044720
H -3.2071999727 -1.6149852631 -0.9181226435
H -4.6747533221 -0.6355356252 -0.8833579617
H -3.7879785568 -0.8500058680 -2.3937357484
32
CONF372
C 4.3145323765 0.4672558977 -0.9547184300
C 3.2121515153 -0.5825994891 -1.0402216305
C 2.3023557550 -0.6111459944 0.1894653617
C 1.4266721683 0.6337048817 0.3157294901
C 0.5123990420 0.6097789979 1.5422340384
C -0.5130437825 -0.5273551862 1.5723636963
C -1.4261044875 -0.6172270865 0.3480132570
C -2.2988731767 0.6206165701 0.1519207692
C -3.2111690999 0.5237126229 -1.0724328579
C -4.3186153245 -0.5135483138 -0.9227845507
H 3.8988571720 1.4711332573 -0.9369425421
H 4.9747661920 0.3900863128 -1.8154279814
H 4.9066001160 0.3228381893 -0.0536772888
H 3.6740694602 -1.5664743370 -1.1525754111
H 2.6060885944 -0.3998208902 -1.9307216334
H 2.9144422441 -0.7147789655 1.0887119681
H 1.6629810793 -1.4929348469 0.1198342647
H 0.8277590576 0.7465192316 -0.5896744526
H 2.0657224108 1.5152471451 0.3955683296
H -0.0121710816 1.5656306574 1.6006763918
H 1.1322889236 0.5272653639 2.4388578441
H -1.1338225129 -0.3965877365 2.4626118454
H 0.0112713430 -1.4787535031 1.6827537851
H -0.8265213000 -0.7813765637 -0.5490698117
H -2.0671420961 -1.4916451256 0.4758485551
H -2.9089618943 0.7774645536 1.0447906557
H -1.6573341664 1.4951969373 0.0305360542
H -3.6684642995 1.5014731975 -1.2423190317
H -2.6077599468 0.2852724442 -1.9514944453
H -4.9088421339 -0.3120810457 -0.0315370074
H -4.9795317298 -0.4851104611 -1.7859547975
H -3.9079299047 -1.5166131505 -0.8448522244
32
CONF181
C 4.6965410356 -0.0879379295 -0.8330609738
C 4.0210490346 -0.7324765758 0.3723429465
C 2.4941335689 -0.6728778556 0.3083321831
C 1.9443288472 0.7489792737 0.4140194608
C 0.4258326653 0.7915791747 0.5913641060
C -0.3328612715 0.2769462615 -0.6313958684
C -1.8372558171 0.5470256188 -0.5687543902
C -2.5469287466 -0.2582363915 0.5182716909
C -4.0548328089 -0.0042868018 0.5679824364
C -4.8024455662 -0.5615311577 -0.6385263781
H 4.3358917648 -0.5380466527 -1.7553578722
H 5.7737398190 -0.2278012866 -0.7810983944
H 4.4946334463 0.9791897209 -0.8677562606
H 4.3632436984 -0.2402687485 1.2857124520
H 4.3257980995 -1.7802805075 0.4283632674
H 2.0874360382 -1.2666450486 1.1309085640
H 2.1619583714 -1.1276837893 -0.6264359855
H 2.2125138447 1.3159357235 -0.4791553883
H 2.4090046066 1.2405275649 1.2726932318
H 0.1262419988 1.8258904232 0.7789057023
H 0.1557747272 0.2030198022 1.4700368760
H -0.1709810129 -0.7967823802 -0.7406724711
H 0.0704424857 0.7667239169 -1.5214039180
H -2.0062020671 1.6126754255 -0.3949127499
H -2.2695275366 0.2965978320 -1.5391287023
H -2.3673851203 -1.3231979886 0.3524921670
H -2.1230908809 0.0031056537 1.4895077788
H -4.4549003553 -0.4692448431 1.4721862162
H -4.2354082112 1.0704828552 0.6425389339
H -4.5016647451 -0.0575669485 -1.5530789463
H -4.6037703113 -1.6252635127 -0.7493959801
H -5.8738513149 -0.4236476182 -0.5134889377
32
CONF183
C 4.6807843863 -0.1207377323 -0.8484940653
C 4.0095641687 -0.7461250184 0.3692896181
C 2.4828488217 -0.6719292785 0.3176918384
C 1.9473650947 0.7555183469 0.4212150873
C 0.4291701484 0.8132185807 0.5972465539
C -0.3329787669 0.3165975207 -0.6306364812
C -1.8380556563 0.5796884219 -0.5575822294
C -2.5393131324 -0.2437941428 0.5212226411
C -4.0526676800 -0.0217034067 0.5589840746
C -4.7796053817 -0.6076133372 -0.6465229072
H 5.7574108073 -0.2668664302 -0.8021727708
H 4.4854517498 0.9471224908 -0.8948889968
H 4.3110047996 -0.5796586839 -1.7628015697
H 4.3646011299 -0.2484577428 1.2747541686
H 4.3043051123 -1.7963552653 0.4330448015
H 2.0770467875 -1.2578192564 1.1463683089
H 2.1389084745 -1.1280285766 -0.6121498982
H 2.2218800277 1.3189119262 -0.4722752599
H 2.4164912897 1.2430838421 1.2797272707
H 0.1399589458 1.8490111908 0.7927339869
H 0.1515787988 0.2203014009 1.4705620429
H -0.1681593282 -0.7546308210 -0.7582875186
H 0.0652392515 0.8222584209 -1.5140431643
H -2.0112324419 1.6420060831 -0.3684680261
H -2.2733211398 0.3406886413 -1.5295060242
H -2.3364350140 -1.3042330267 0.3535463362
H -2.1285393642 0.0231523425 1.4965476095
H -4.4489790266 -0.4861757607 1.4650693244
H -4.2568714840 1.0495911487 0.6213346526
H -4.4779156691 -0.1121794113 -1.5654514743
H -4.5629428541 -1.6695212388 -0.7403104998
H -5.8542335691 -0.4852241591 -0.5337878282
32
CONF320
C 3.9386672036 1.3865100263 -0.2541424614
C 3.2593835775 0.5031165711 0.7863035132
C 2.8961051047 -0.8848071571 0.2554961881
C 1.9099715183 -0.8925944672 -0.9154367188
C 0.5597724374 -0.2282821000 -0.6384680571
C -0.2478629690 -0.9311851931 0.4507730621
C -1.6038900504 -0.2726462207 0.7114248535
C -2.5827489941 -0.4210041476 -0.4527516317
C -4.0036406708 0.0227530136 -0.1014287102
C -4.1147426644 1.5198479521 0.1654489242
H 4.8062082243 0.8811374687 -0.6730663096
H 4.2701042977 2.3171532538 0.2006990454
H 3.2569288939 1.6300869512 -1.0646053634
H 2.3638979835 1.0024410976 1.1594718320
H 3.9357013638 0.3738438690 1.6350453374
H 2.4855680680 -1.4757083691 1.0765885596
H 3.8123718264 -1.3821549015 -0.0734156193
H 1.7338152356 -1.9328922455 -1.2014171159
H 2.3712234386 -0.3963518450 -1.7713892693
H -0.0116886207 -0.2377452473 -1.5686395449
H 0.7102891022 0.8157345836 -0.3584891195
H 0.3210047058 -0.9194591020 1.3823349879
H -0.4009611908 -1.9759122758 0.1685856753
H -2.0477995017 -0.7317847760 1.5986057796
H -1.4458488346 0.7851893687 0.9285001087
H -2.2341435633 0.1617749821 -1.3071199448
H -2.6101452759 -1.4711004354 -0.7547648448
H -4.6637630423 -0.2368709654 -0.9325889049
H -4.3471421731 -0.5285266533 0.7770477275
H -3.7369713183 2.0853930573 -0.6835499791
H -5.1534429042 1.7977500896 0.3282178509
H -3.5464648497 1.8010161659 1.0479217746
32
CONF312
C 4.3040074314 0.2467500275 -0.6000484998
C 3.5867653010 -0.6293994750 0.4207889731
C 2.2796686940 -1.2253340076 -0.1059868638
C 1.1993583631 -0.2061768240 -0.4749498245
C 0.6820010631 0.5849499365 0.7243447939
C -0.3909082756 1.6118816599 0.3550757827
C -1.6802035189 1.0262669977 -0.2244121669
C -2.3991025699 0.0837182703 0.7394192878
C -3.8062092926 -0.2916375923 0.2723811630
C -3.8095395617 -1.1363984183 -0.9969956475
H 5.2725204967 0.5571719172 -0.2149093724
H 3.7270085771 1.1405066048 -0.8217611595
H 4.4621371976 -0.3011962434 -1.5264678862
H 3.3928473118 -0.0504202815 1.3250366868
H 4.2452017700 -1.4556570629 0.7002301959
H 1.8766484211 -1.9013340514 0.6526316735
H 2.5060616729 -1.8236725474 -0.9923156041
H 0.3701877180 -0.7533940336 -0.9272398558
H 1.5834543485 0.4851248592 -1.2268785423
H 1.5121255218 1.1254152942 1.1832584349
H 0.2894542023 -0.1063442683 1.4721788904
H 0.0296240112 2.3098624080 -0.3736063758
H -0.6409769602 2.1849321341 1.2518511949
H -2.3492738941 1.8562930823 -0.4666302130
H -1.4566369519 0.5051493371 -1.1553042008
H -1.8162000350 -0.8302348161 0.8661488951
H -2.4730998082 0.5704240791 1.7153542072
H -4.2991268067 -0.8525589517 1.0701209685
H -4.3855010962 0.6190688563 0.1031968745
H -3.4144188245 -0.5747990597 -1.8392071232
H -3.2019493287 -2.0284379877 -0.8605240959
H -4.8229795178 -1.4459734057 -1.2414536636
32
CONF236
C 4.5946907927 -1.1509823556 0.2140528718
C 4.2302589442 0.3291025967 0.1776269468
C 2.7359303913 0.5848828341 0.3799171826
C 1.8790173073 0.0770972913 -0.7790327358
C 0.4180109480 0.5225583689 -0.6915691794
C -0.3429508696 -0.1400586224 0.4556502753
C -1.8026584191 0.3083654667 0.5548196859
C -2.6758045387 -0.2136881661 -0.5849502267
C -4.1369355867 0.2260000742 -0.4725464295
C -4.8797856477 -0.4339709653 0.6840209502
H 4.2554924738 -1.6020427779 1.1440321146
H 5.6728374356 -1.2756026931 0.1452659513
H 4.1381951847 -1.6848253443 -0.6150186552
H 4.5433836095 0.7563232956 -0.7779057475
H 4.7811332732 0.8467233226 0.9666315710
H 2.5775247481 1.6611632985 0.4853539155
H 2.4210410054 0.1097352423 1.3105400911
H 1.9133478188 -1.0129874898 -0.8151045814
H 2.3018394751 0.4546610801 -1.7136121596
H -0.0711034404 0.2763835789 -1.6358510888
H 0.3779664183 1.6079161432 -0.5705802520
H 0.1531672533 0.1029333649 1.3969242554
H -0.3076895720 -1.2251166468 0.3319956855
H -2.2054338079 -0.0503255822 1.5036227835
H -1.8431037893 1.4002879993 0.5686251822
H -2.2812450029 0.1508821430 -1.5350890072
H -2.6296809680 -1.3051970413 -0.6030236418
H -4.1772706674 1.3116127020 -0.3580760139
H -4.6475838428 -0.0263763983 -1.4049547550
H -4.4604597588 -0.1348745658 1.6408477349
H -5.9285349570 -0.1466878212 0.6700249029
H -4.8194587344 -1.5171759891 0.6043238554
32
CONF233
C 4.5965084357 -1.1579286685 0.1756131641
C 4.2320694730 0.3225296449 0.1847271619
C 2.7383973729 0.5725097393 0.3986420458
C 1.8779010969 0.0944496871 -0.7703361607
C 0.4192382749 0.5451522879 -0.6717663007
C -0.3446851210 -0.1405282462 0.4597674536
C -1.8060643211 0.3021418276 0.5607132564
C -2.6742369122 -0.2083187227 -0.5881939569
C -4.1363645082 0.2280448181 -0.4763055460
C -4.8829235553 -0.4472943679 0.6689375643
H 5.6741858491 -1.2803965304 0.0965969947
H 4.1348329253 -1.6673010801 -0.6658958522
H 4.2629671791 -1.6360063218 1.0940555280
H 4.5425296238 0.7781650442 -0.7584428683
H 4.7853691465 0.8162589841 0.9872559097
H 2.5804123306 1.6457316689 0.5322759722
H 2.4263350191 0.0735298142 1.3177011552
H 1.9065479386 -0.9947903478 -0.8299751569
H 2.3018775106 0.4899186784 -1.6969389725
H -0.0714602096 0.3242024870 -1.6214063820
H 0.3846843683 1.6274855220 -0.5248764928
H 0.1472354289 0.0860581934 1.4073598823
H -0.3062623854 -1.2229920841 0.3160391024
H -2.2105554349 -0.0698717918 1.5036298107
H -1.8499496626 1.3936779629 0.5883362992
H -2.2766617830 0.1673136669 -1.5327434842
H -2.6264833566 -1.2995380504 -0.6183731703
H -4.1786523264 1.3121463467 -0.3486010917
H -4.6430150693 -0.0133503904 -1.4138280726
H -4.4652179980 -0.1625858298 1.6308205250
H -5.9311321514 -0.1582165704 0.6567069943
H -4.8240201898 -1.5293265959 0.5738801470
32
CONF314
C 3.7806422014 1.0347629273 -1.1364364563
C 3.8106171980 0.3076969464 0.2035390254
C 2.4160671319 -0.0168954557 0.7411171449
C 1.6759128479 -1.0519723872 -0.1042725131
C 0.3913084112 -1.5597402391 0.5535440930
C -0.6727591116 -0.4912957539 0.8149233811
C -1.1877021470 0.1727630497 -0.4602151332
C -2.2842079291 1.2084065463 -0.2010459948
C -3.5991054905 0.6443938700 0.3413028632
C -4.2950259489 -0.3018379134 -0.6305768304
H 3.1849761484 1.9420744169 -1.0623660274
H 3.3544455377 0.4042016975 -1.9120463340
H 4.7882639311 1.3099813472 -1.4390581716
H 4.3272600137 0.9358576360 0.9332389915
H 4.3825594563 -0.6175325090 0.1013913903
H 1.8349371269 0.9056641947 0.7886474749
H 2.5143499495 -0.4021256346 1.7593106836
H 2.3355578249 -1.9089957974 -0.2645520721
H 1.4415043926 -0.6331790519 -1.0828733227
H 0.6492969319 -2.0282553914 1.5069840333
H -0.0410563880 -2.3337940477 -0.0859166095
H -0.2730927532 0.2722051816 1.4847395595
H -1.5052526969 -0.9739923366 1.3304877191
H -0.3604796606 0.6840759085 -0.9559864469
H -1.5559322471 -0.5931960147 -1.1446280915
H -1.9043874469 1.9477158738 0.5088818124
H -2.4943407517 1.7304105019 -1.1381374025
H -3.4205403102 0.1286438662 1.2860608842
H -4.2652525933 1.4847693474 0.5518531381
H -5.2666290648 -0.5949058914 -0.2397604417
H -4.4437824225 0.1837277810 -1.5926233221
H -3.7083988063 -1.2031964804 -0.7860689473
32
CONF235
C 4.8778823954 0.4942758718 0.6291873652
C 4.1290258817 -0.2191928034 -0.4912235524
C 2.6615211907 0.1986666959 -0.6018813372
C 1.8117125051 -0.2730228913 0.5768661971
C 0.3407468538 0.1337586382 0.4625567149
C -0.4232768655 -0.6542799102 -0.6002398721
C -1.8768063957 -0.2027245549 -0.7530696363
C -2.7396183324 -0.5189296143 0.4679041623
C -4.2302613802 -0.2747675418 0.2276729771
C -4.5721577639 1.1987974624 0.0365760967
H 4.4779563137 0.2228235534 1.6024066219
H 4.7978358034 1.5727270303 0.5117357443
H 5.9310347390 0.2240930623 0.6092516715
H 4.1840693495 -1.2989075687 -0.3347835337
H 4.6247872440 0.0022798313 -1.4394009222
H 2.2561931614 -0.2167043510 -1.5263960136
H 2.6030209987 1.2873662835 -0.6740442908
H 2.2140480832 0.1540877815 1.4970080105
H 1.8789184817 -1.3606062005 0.6582922938
H 0.2801256626 1.2004606509 0.2337845617
H -0.1356329793 -0.0256621305 1.4314807684
H -0.3993629921 -1.7168859069 -0.3461857627
H 0.0744259496 -0.5336731931 -1.5642629927
H -1.8929113381 0.8706857944 -0.9490508786
H -2.3074189896 -0.7064180527 -1.6223976882
H -2.5965173462 -1.5692889433 0.7341106805
H -2.4166993018 0.0864782218 1.3165265007
H -4.5512430070 -0.8385325088 -0.6513516514
H -4.7876604822 -0.6569641982 1.0862250831
H -4.1080707983 1.5924330029 -0.8636359704
H -5.6482893659 1.3277380172 -0.0524215716
H -4.2255915435 1.7817310381 0.8871243983
32
CONF232
C 4.5918383387 -1.1747896441 0.0231375596
C 4.2294103970 0.2908879121 0.2357403313
C 2.7350417864 0.5114578104 0.4755920838
C 1.8784780331 0.1932233184 -0.7493176759
C 0.4215392255 0.6350809759 -0.6002122146
C -0.3423112991 -0.1629297890 0.4552011010
C -1.8103784362 0.2508154099 0.5812878687
C -2.6670947859 -0.1911250300 -0.6039287221
C -4.1293162070 0.2428779141 -0.4848139511
C -4.8867448387 -0.4811805083 0.6229696061
H 4.1400561301 -1.5591862516 -0.8872665447
H 4.2460021109 -1.7761344867 0.8610466202
H 5.6702380088 -1.2884636987 -0.0590837970
H 4.5449523068 0.8721580648 -0.6338164157
H 4.7793352164 0.6676764995 1.1014835088
H 2.5767123845 1.5574206998 0.7504108458
H 2.4196472832 -0.1055526827 1.3186955651
H 1.9026390293 -0.8793961572 -0.9487682362
H 2.3085241931 0.7028496575 -1.6154620648
H -0.0714510541 0.5168075883 -1.5669551481
H 0.3904639519 1.6961383674 -0.3404402139
H 0.1387888778 -0.0187307163 1.4241791231
H -0.2883587696 -1.2268162545 0.2122065856
H -2.2129714652 -0.1917075267 1.4940211378
H -1.8699936000 1.3370127884 0.6844938944
H -2.2577928428 0.2352320227 -1.5216249231
H -2.6215777691 -1.2790595351 -0.6946336381
H -4.1705980496 1.3202432456 -0.3088203829
H -4.6284108368 0.0448933967 -1.4364561278
H -4.8282182216 -1.5581598656 0.4810797882
H -4.4772698037 -0.2393164013 1.6000332107
H -5.9345623524 -0.1902243959 0.6141184707
32
CONF249
C 4.9050978714 0.8849377159 -0.3271066356
C 3.7020771313 -0.0470526398 -0.2378710279
C 2.5698186054 0.5753268232 0.5768971037
C 1.3819377089 -0.3630811382 0.7929352037
C 0.6317538917 -0.6958936742 -0.4960584304
C -0.6449078951 -1.5032124788 -0.2460864636
C -1.8050221979 -0.6891453773 0.3329161939
C -2.4643157254 0.2198741705 -0.7032776422
C -3.5328070434 1.1382733341 -0.1082802731
C -4.7544211874 0.3873979794 0.4098431028
H 5.2939090027 1.1024845717 0.6652888350
H 4.6232011080 1.8246672130 -0.7969001718
H 5.6987254765 0.4309603944 -0.9154562823
H 4.0053116290 -0.9874241059 0.2281443770
H 3.3506304813 -0.2721648794 -1.2459090935
H 2.2246024713 1.4837938426 0.0773224480
H 2.9646449976 0.8672105143 1.5534890460
H 0.6949458128 0.1136841399 1.4947772736
H 1.7326585476 -1.2895859920 1.2542152030
H 1.2846290358 -1.2791348324 -1.1476819642
H 0.3872106614 0.2300713925 -1.0193199944
H -0.4067812807 -2.3207012608 0.4386156143
H -0.9736419798 -1.9496002018 -1.1875934109
H -2.5504975078 -1.3843096981 0.7225207690
H -1.4511798461 -0.0836231536 1.1691617363
H -1.7005941701 0.8434244183 -1.1721506413
H -2.9138076944 -0.3950603045 -1.4867834780
H -3.0933764701 1.7200558758 0.7053355329
H -3.8541947326 1.8418110168 -0.8801542559
H -4.4928026417 -0.2516739653 1.2488863549
H -5.5145084197 1.0901299811 0.7432906167
H -5.1805154120 -0.2318085458 -0.3765383359
32
CONF378
C 4.3190916640 0.8296340534 -0.6442604605
C 3.8121400569 -0.5920977177 -0.4296323721
C 2.8987201096 -0.7306361762 0.7900451112
C 1.6026361080 0.0802859135 0.7279013028
C 0.6705798332 -0.3557667121 -0.4010566087
C -0.6684448696 0.3860157775 -0.3980151395
C -1.5998586938 -0.0589154710 0.7280645751
C -2.9076527806 0.7336804168 0.7815126682
C -3.8183129197 0.5699501063 -0.4371736504
C -4.3094514997 -0.8598370738 -0.6342007042
H 5.0482210201 0.8514275869 -1.4508526739
H 4.7953942744 1.2032902543 0.2596244129
H 3.5046796362 1.4992555084 -0.9073696706
H 4.6697700394 -1.2538197636 -0.2850159631
H 3.2885373699 -0.9313835628 -1.3247223538
H 3.4570009850 -0.4210230890 1.6773066811
H 2.6437005120 -1.7862595789 0.9140223007
H 1.8347515756 1.1405439741 0.6150996053
H 1.0902233741 -0.0403867756 1.6843520210
H 0.4865382785 -1.4301943569 -0.3235482124
H 1.1618425746 -0.1719710647 -1.3583123536
H -1.1598578237 0.2085783139 -1.3563187035
H -0.4850971329 1.4599667056 -0.3130236993
H -1.8167271290 -1.1226366254 0.6176963091
H -1.0934986341 0.0718770948 1.6864143574
H -3.4621079781 0.4245324870 1.6713355196
H -2.6681332795 1.7940192394 0.8954492978
H -4.6833695313 1.2238783806 -0.3017341043
H -3.2977761000 0.9035835542 -1.3361593205
H -5.0330871153 -0.9006322553 -1.4449848128
H -3.4867006641 -1.5248838398 -0.8825502922
H -4.7877143293 -1.2253272653 0.2719912339
32
CONF375
C 4.2931633039 0.8251714435 -0.6908097597
C 3.8100159795 -0.5946065269 -0.4170400237
C 2.9062809250 -0.6991743974 0.8131863264
C 1.6043460048 0.1007189625 0.7337963648
C 0.6781004714 -0.3599760324 -0.3901269199
C -0.6711104535 0.3633378509 -0.3905540027
C -1.6020529655 -0.1036649954 0.7269727806
C -2.9025170640 0.6984673074 0.8073872647
C -3.8084101996 0.5932337646 -0.4211799405
C -4.3068656958 -0.8236813821 -0.6822327154
H 5.0138716837 0.8269388575 -1.5051900098
H 4.7724505756 1.2402305029 0.1931258800
H 3.4660620130 1.4719447957 -0.9706758439
H 4.6785268347 -1.2371559596 -0.2527162817
H 3.2858404534 -0.9766502121 -1.2943240872
H 3.4680617874 -0.3567846950 1.6861158521
H 2.6598727180 -1.7520213599 0.9730858545
H 1.8291117530 1.1605946227 0.6039351631
H 1.0903855311 -0.0071382208 1.6909726074
H 0.5095260813 -1.4361232611 -0.3027730947
H 1.1658328041 -0.1775522981 -1.3493424379
H -1.1550571201 0.1870254208 -1.3528701798
H -0.5025941083 1.4389348855 -0.2959482103
H -1.8283758594 -1.1622049620 0.5888156077
H -1.0909677356 -0.0035459995 1.6865629111
H -3.4637100429 0.3586787239 1.6816858579
H -2.6536763046 1.7510115005 0.9653092224
H -4.6701783337 1.2460139229 -0.2614521892
H -3.2811955207 0.9623763352 -1.3021985184
H -4.7904384943 -1.2256342273 0.2055037462
H -5.0277882104 -0.8249398058 -1.4964594724
H -3.4868851676 -1.4819249703 -0.9565219250
32
CONF208
C 4.7914635184 0.7293700672 -1.2164067815
C 3.9153809430 -0.1227280707 -0.3056223351
C 2.4572239659 0.3300770927 -0.3312605731
C 1.5742405772 -0.5198459835 0.5794769942
C 0.1147144614 -0.0704178617 0.5478557755
C -0.7622204848 -0.9344320832 1.4505726417
C -2.2133157019 -0.4597587036 1.5531591142
C -2.9951500429 -0.5346515769 0.2337146741
C -3.0991988982 0.8079389481 -0.4893415232
C -3.8482910097 0.6780267252 -1.8107042352
H 5.8230315457 0.3874526213 -1.1845179679
H 4.7642858492 1.7710820173 -0.9046178251
H 4.4411259943 0.6710683491 -2.2445168089
H 4.2918715925 -0.0651559732 0.7182360413
H 3.9728449475 -1.1673328400 -0.6200619665
H 2.0809199271 0.2722304845 -1.3554813954
H 2.3991879967 1.3750601191 -0.0172562416
H 1.9496783661 -0.4596432534 1.6039999754
H 1.6359953292 -1.5654977754 0.2679396334
H -0.2480276837 -0.1253462867 -0.4797037114
H 0.0516609661 0.9710355827 0.8724256553
H -0.3305834230 -0.9388991170 2.4549931636
H -0.7479811536 -1.9641033818 1.0848141869
H -2.7108756141 -1.0836465141 2.2987713131
H -2.2299005944 0.5664906749 1.9260603660
H -2.5243709845 -1.2656394878 -0.4268526028
H -4.0091905071 -0.8884835882 0.4338359597
H -3.6234696371 1.5186210387 0.1540145514
H -2.1020785050 1.2075513365 -0.6776118044
H -4.8532628832 0.2966042266 -1.6432653670
H -3.9247926594 1.6438033705 -2.3042365703
H -3.3296538100 -0.0082110315 -2.4767135009
32
CONF211
C 4.7916195182 0.7317401367 -1.2160717918
C 3.9172065718 -0.1225260242 -0.3057357631
C 2.4585555662 0.3286320600 -0.3308622306
C 1.5756312630 -0.5229487818 0.5783960344
C 0.1170698769 -0.0702792654 0.5499270026
C -0.7619247803 -0.9354588638 1.4494770916
C -2.2118129187 -0.4572151171 1.5523390519
C -2.9949388302 -0.5336281634 0.2336609800
C -3.0996982569 0.8078771369 -0.4913483920
C -3.8561615140 0.6770505652 -1.8083864859
H 5.8238711720 0.3919363137 -1.1844446345
H 4.7623275758 1.7732280412 -0.9036767050
H 4.4413094605 0.6733183582 -2.2441955989
H 4.2939319562 -0.0652674144 0.7180345360
H 3.9761064505 -1.1667517136 -0.6211050542
H 2.0824893345 0.2718849048 -1.3552180409
H 2.3994583585 1.3731254134 -0.0154494389
H 1.9525335250 -0.4668174061 1.6025919642
H 1.6349522054 -1.5676657413 0.2633563810
H -0.2464673952 -0.1198900983 -0.4776059950
H 0.0567592091 0.9699651181 0.8788603910
H -0.3308559565 -0.9439956806 2.4540997348
H -0.7498685304 -1.9640374820 1.0805875350
H -2.7103304109 -1.0779557533 2.2999019207
H -2.2254734517 0.5700017971 1.9227267221
H -2.5250050527 -1.2655237166 -0.4265476705
H -4.0088628327 -0.8869945461 0.4352834558
H -3.6190234075 1.5210306287 0.1532650050
H -2.1026750442 1.2049641032 -0.6856048042
H -3.3415903043 -0.0100547677 -2.4766735046
H -4.8603596163 0.2961359617 -1.6349161187
H -3.9351440654 1.6423948561 -2.3024399544
32
CONF612
C 4.2394245744 0.4511440965 0.5945217867
C 3.2905648656 -0.7074562865 0.3089258493
C 2.3377403228 -0.4345265961 -0.8562028124
C 1.3816819337 0.7422336660 -0.6480577582
C 0.4538910609 0.6183050583 0.5624568649
C -0.4516818879 -0.6150792346 0.5605812825
C -1.3794577080 -0.7355177507 -0.6502254931
C -2.3385832958 0.4398045073 -0.8521984600
C -3.2937386760 0.7025067683 0.3134370261
C -4.2398037493 -0.4606876008 0.5896483619
H 4.9590274544 0.1685523685 1.3594691594
H 3.6957554126 1.3234126959 0.9476297142
H 4.7852061798 0.7257925324 -0.3057061251
H 2.7185311481 -0.9392039500 1.2087931317
H 3.8811425418 -1.5935648538 0.0624836550
H 1.7579886953 -1.3389536639 -1.0508027670
H 2.9323584752 -0.2326524381 -1.7512798326
H 0.7790893811 0.8534583292 -1.5518385073
H 1.9631525047 1.6599800866 -0.5391964118
H -0.1644919735 1.5171910905 0.6098668463
H 1.0544028601 0.5979799152 1.4743801443
H -1.0520608900 -0.5975608178 1.4726551303
H 0.1667543038 -1.5140753716 0.6052342547
H -0.7767492680 -0.8407297576 -1.5546383798
H -1.9586624056 -1.6552097828 -0.5458133027
H -1.7613208060 1.3470913924 -1.0406602663
H -2.9316693260 0.2415911305 -1.7490803465
H -2.7235418599 0.9296103204 1.2156216977
H -3.8862496443 1.5887386586 0.0722050776
H -3.6946573546 -1.3326761891 0.9411547596
H -4.9638492826 -0.1843125466 1.3526931984
H -4.7806023161 -0.7331182672 -0.3142220505
32
CONF237
C 4.5985716671 -1.1539240700 -0.1421426170
C 4.2265153450 0.2618508388 0.2840207859
C 2.7303240425 0.4353361578 0.5495433067
C 1.8777295179 0.2930470869 -0.7107967602
C 0.4209637964 0.7114948929 -0.5049476264
C -0.3421933196 -0.2142593304 0.4410760604
C -1.8159665281 0.1677318239 0.5987970074
C -2.6623988683 -0.1815823544 -0.6241170269
C -4.1179851504 0.2716405087 -0.4985307224
C -4.8950365112 -0.4789230184 0.5775131078
H 4.2555278813 -1.8747800556 0.5967558437
H 5.6777722618 -1.2475346323 -0.2378384478
H 4.1504575215 -1.4021036825 -1.1003745025
H 4.5400227406 0.9673194667 -0.4890185704
H 4.7722537476 0.5097047276 1.1975507060
H 2.5646999390 1.4291092853 0.9732975871
H 2.4176019445 -0.2998985535 1.2929643313
H 1.9017231871 -0.7410757580 -1.0584997704
H 2.3104707431 0.9186213957 -1.4958645990
H -0.0732177611 0.7185379881 -1.4783492204
H 0.3902448924 1.7306143381 -0.1115430523
H 0.1291939451 -0.1801337004 1.4247180253
H -0.2741362129 -1.2414016379 0.0750211120
H -2.2159267661 -0.3572683855 1.4678758913
H -1.8896102087 1.2400569797 0.7952196847
H -2.2317879473 0.2934218672 -1.5075870937
H -2.6349429402 -1.2622484370 -0.7828580383
H -4.1429030289 1.3423533533 -0.2834895667
H -4.6128745729 0.1169397688 -1.4602852901
H -4.8444202583 -1.5514271732 0.4035621672
H -4.4947576738 -0.2702357434 1.5657963320
H -5.9399729005 -0.1781755058 0.5655005396
32
CONF204
C 3.6032890925 1.0470609496 1.8484752697
C 3.5164479925 0.0901473512 0.6651787058
C 2.1495347977 0.1497817718 -0.0141867478
C 2.0563485282 -0.8219126723 -1.1877304963
C 0.7585778544 -0.7117434247 -1.9910417204
C -0.5055346426 -1.0863009246 -1.2041408203
C -1.2631591399 0.1232410350 -0.6573554361
C -2.4942351563 -0.2930436064 0.1447105199
C -3.2657961271 0.9100511591 0.6824695426
C -4.4931637385 0.4871700652 1.4810604322
H 4.5826953044 0.9890866188 2.3170053427
H 2.8504204962 0.8002954065 2.5938557596
H 3.4382199554 2.0714869007 1.5219987649
H 3.7031556967 -0.9300166674 1.0087077902
H 4.2926347513 0.3405485684 -0.0617645262
H 1.9708278260 1.1666354330 -0.3720813860
H 1.3809767881 -0.0885453779 0.7227197249
H 2.1607643228 -1.8442567970 -0.8158500851
H 2.8947842598 -0.6335506492 -1.8637637816
H 0.8500184558 -1.3756623531 -2.8533977007
H 0.6581107593 0.3057899223 -2.3743595675
H -0.2368011434 -1.7495506389 -0.3794079484
H -1.1841780299 -1.6420195804 -1.8554034577
H -0.6073244946 0.7200509553 -0.0223296617
H -1.5762694445 0.7551044476 -1.4923164568
H -3.1541801918 -0.8897162423 -0.4897641278
H -2.1838462057 -0.9239366846 0.9811923674
H -2.6064477630 1.5054080538 1.3181761763
H -3.5764933342 1.5408976681 -0.1534916847
H -5.1718450170 -0.0907567933 0.8577989660
H -4.2016055574 -0.1276869851 2.3296255394
H -5.0261503598 1.3581987278 1.8542431235
32
CONF373
C 4.1143778508 1.1686018295 0.3379917511
C 3.3242143938 0.0082561116 0.9323639780
C 2.8722878633 -1.0130654773 -0.1129499476
C 1.9430490297 -0.4618085925 -1.1977082847
C 0.6559029540 0.1881336397 -0.6863803403
C -0.2523034764 -0.7801389732 0.0689984978
C -1.5582915513 -0.1363276922 0.5407089309
C -2.5442716282 0.1320720132 -0.5949693453
C -3.8185530171 0.8397424525 -0.1307354272
C -4.6971654866 -0.0233487348 0.7681796999
H 4.9590393425 0.7971655482 -0.2382791279
H 4.4945111488 1.8099961999 1.1298338162
H 3.4898825412 1.7717824728 -0.3155886744
H 2.4571572381 0.3956332549 1.4696321656
H 3.9522999833 -0.5096424749 1.6616103776
H 2.3769496457 -1.8402082172 0.3992974029
H 3.7581310016 -1.4224732916 -0.6055872594
H 1.6766672499 -1.2860272041 -1.8645588370
H 2.4884075609 0.2723708217 -1.7938548555
H 0.1193775047 0.5861934590 -1.5501014816
H 0.8992405391 1.0319737794 -0.0384421834
H 0.2797668700 -1.1549302914 0.9451884819
H -0.4820427274 -1.6355638246 -0.5708993811
H -2.0269109363 -0.8031135538 1.2665907236
H -1.3313182379 0.8031673630 1.0507756337
H -2.0627708605 0.7567563438 -1.3496038482
H -2.8113252575 -0.8148775298 -1.0702447206
H -3.5472510770 1.7558295420 0.3989815473
H -4.3956506632 1.1276699279 -1.0127667813
H -4.9417149454 -0.9604010980 0.2727993207
H -4.1954597293 -0.2490539137 1.7052674464
H -5.6246862602 0.4958782932 0.9977618765
32
CONF330
C 4.2779614793 0.2934029602 -0.7987393738
C 3.6257769870 -0.5785641573 0.2684959856
C 2.2925132314 -1.1811203587 -0.1793964122
C 1.1612853694 -0.1694847284 -0.3780769467
C 0.6453085186 0.4151661878 0.9352429546
C -0.4079164613 1.5080477305 0.7399627277
C -1.6739858443 1.0645287923 0.0043803369
C -2.4301598823 -0.0500821877 0.7250442771
C -3.8041290986 -0.3319025694 0.1151921449
C -3.7253722592 -0.9235826211 -1.2879616774
H 4.4038349887 -0.2675482891 -1.7223610109
H 5.2568814504 0.6289543889 -0.4644534938
H 3.6742551874 1.1720852442 -1.0094311871
H 3.4825999860 0.0067901993 1.1780728910
H 4.3045272176 -1.3990496805 0.5135780860
H 1.9733322208 -1.9173753200 0.5627075277
H 2.4554781476 -1.7126431943 -1.1203593971
H 0.3415418893 -0.6796281798 -0.8870642631
H 1.4976789663 0.6397378708 -1.0280640841
H 1.4789956543 0.8539095086 1.4870249892
H 0.2348767703 -0.3871592016 1.5510794926
H 0.0434361151 2.3325643963 0.1819348484
H -0.6904615915 1.8932042372 1.7232775994
H -2.3334021686 1.9316546455 -0.0882807743
H -1.4125250771 0.7437807742 -1.0039715189
H -1.8420280552 -0.9691940099 0.7040954163
H -2.5634416148 0.2367903472 1.7713269968
H -4.3353870790 -1.0328875687 0.7635937855
H -4.3832461727 0.5940841161 0.0860050556
H -3.1201779893 -1.8275595451 -1.2850774710
H -4.7200359846 -1.1780641388 -1.6465281038
H -3.2853364764 -0.2154965832 -1.9848489948
32
CONF210
C 3.8563629908 -0.7671760087 1.7708315337
C 3.0962187634 -0.8327928497 0.4510088248
C 3.0021557924 0.5406138055 -0.2131526434
C 2.2106879325 0.5320615207 -1.5288551843
C 0.7631666859 1.0097297330 -1.3945769471
C -0.1144560284 0.1064770662 -0.5317490487
C -1.5739490741 0.5569205420 -0.5429806944
C -2.4588421074 -0.3418497969 0.3177247364
C -3.9189878724 0.1051636919 0.3063318483
C -4.7974232988 -0.8011648654 1.1608627178
H 4.8639408728 -0.3889112918 1.6119932701
H 3.9265839249 -1.7538493786 2.2221578315
H 3.3496871872 -0.1048518279 2.4694664081
H 2.0962146255 -1.2293824856 0.6299697698
H 3.6078899240 -1.5210493980 -0.2260062154
H 4.0188382233 0.8913529751 -0.4053507898
H 2.5442746172 1.2476056105 0.4817131790
H 2.2185786803 -0.4756189896 -1.9496345463
H 2.7071155788 1.1874085678 -2.2477762008
H 0.3264815848 1.0667580906 -2.3952126147
H 0.7571122083 2.0199658330 -0.9779957959
H 0.2482569636 0.1141087239 0.4972375739
H -0.0521437386 -0.9190606122 -0.9036506532
H -1.6373381581 1.5842977301 -0.1760270173
H -1.9464146467 0.5514455035 -1.5703405198
H -2.3943927545 -1.3689669048 -0.0495654775
H -2.0888035029 -0.3355714581 1.3458274980
H -3.9842592378 1.1301939929 0.6784045582
H -4.2875537697 0.1032227859 -0.7220475992
H -5.8307356661 -0.4636021674 1.1396089167
H -4.7616105853 -1.8236332468 0.7913837415
H -4.4555289371 -0.7986780801 2.1934956270
32
CONF374
C 4.4109959564 -0.0851742590 -0.6831409898
C 3.7339202738 -0.0660396414 0.6826534661
C 2.5371671728 0.8849162768 0.7514267913
C 1.3793679330 0.5467605052 -0.1903832942
C 0.7088021517 -0.7867735960 0.1318727435
C -0.4433872322 -1.1290925526 -0.8155441568
C -1.6380731773 -0.1737123832 -0.7725834735
C -2.3431762804 -0.1475485106 0.5820203478
C -3.5814913744 0.7509533167 0.5969203852
C -4.7413695803 0.1964910286 -0.2229670285
H 5.3130259384 -0.6916228612 -0.6473307273
H 4.6864659482 0.9231180391 -0.9847159035
H 3.7527122380 -0.5040900965 -1.4394793055
H 4.4618048512 0.2540840044 1.4323331721
H 3.4202317967 -1.0769364769 0.9475958193
H 2.8852324297 1.8949353743 0.5200030463
H 2.1607582016 0.8942762867 1.7776503218
H 1.7332585411 0.5340597554 -1.2225965075
H 0.6421120859 1.3475414707 -0.1074969463
H 0.3507141897 -0.7723316976 1.1627859187
H 1.4470082706 -1.5873117251 0.0547398023
H -0.7970826552 -2.1356308730 -0.5774921989
H -0.0566158592 -1.1506913457 -1.8377879142
H -1.3160285081 0.8365002796 -1.0313916047
H -2.3459172536 -0.4960017582 -1.5385455595
H -2.6332852014 -1.1642984883 0.8578763075
H -1.6478111450 0.2171269055 1.3401558682
H -3.9114128066 0.8699238326 1.6317701371
H -3.3115317322 1.7406484535 0.2212894346
H -5.0039622465 -0.8021678061 0.1191702870
H -5.6149437146 0.8357574621 -0.1189591304
H -4.4859114922 0.1429824871 -1.2778603725
32
CONF206
C 3.6162302843 0.9996867176 -1.8690107960
C 3.5261849977 0.0754581820 -0.6602658159
C 2.1541971568 0.1462025940 0.0075925537
C 2.0576747476 -0.7908290912 1.2087651056
C 0.7565301853 -0.6570450381 2.0028259514
C -0.5039684875 -1.0561539812 1.2218900761
C -1.2637361687 0.1375644450 0.6442898549
C -2.5005034255 -0.2987103044 -0.1382144404
C -3.2706046242 0.8913347665 -0.7063690190
C -4.5093905930 0.4519642080 -1.4779492822
H 4.6001410840 0.9366721788 -2.3273013965
H 3.4402534502 2.0313905907 -1.5725577913
H 2.8719115467 0.7263448504 -2.6136602186
H 4.2955186590 0.3507233930 0.0649573777
H 3.7213605817 -0.9527406401 -0.9737500749
H 1.3920618050 -0.1180307605 -0.7271922151
H 1.9670718291 1.1720394715 0.3341617310
H 2.8931720402 -0.5816440652 1.8822550772
H 2.1643864649 -1.8236178310 0.8678552694
H 0.6542349717 0.3722434592 2.3528887550
H 0.8442067447 -1.2928161452 2.8864685791
H -1.1822602664 -1.5986030131 1.8845844831
H -0.2307222416 -1.7379749659 0.4139730916
H -1.5713545447 0.7937852954 1.4623543669
H -0.6103901658 0.7146671147 -0.0113504884
H -2.1972269053 -0.9552471814 -0.9574920592
H -3.1589040769 -0.8738453591 0.5175696368
H -3.5681906681 1.5505895027 0.1122958897
H -2.6143635424 1.4617618118 -1.3676667361
H -5.1854554376 -0.1002827800 -0.8290394781
H -5.0400586050 1.3146329234 -1.8732772456
H -4.2315556653 -0.1920760042 -2.3093083768
32
CONF454
C 4.5201540495 0.2107436716 -0.6655403428
C 3.5552836667 -0.8394739907 -0.1259792934
C 2.3537501385 -0.2406316900 0.6079183737
C 1.3862995674 0.4887930492 -0.3219343305
C 0.2066298224 1.1285278901 0.4128064288
C -0.7281830616 0.1487278487 1.1260866523
C -1.3648061001 -0.9118478280 0.2253283676
C -2.1796350287 -0.3625869504 -0.9479631962
C -3.3473594429 0.5442507816 -0.5555908128
C -4.4102981688 -0.1682151285 0.2730748445
H 5.3909900501 -0.2693970799 -1.1056942711
H 4.8568643384 0.8638516148 0.1365151621
H 4.0480989009 0.8205748842 -1.4310959629
H 4.0968359618 -1.4879899573 0.5669415648
H 3.1989809764 -1.4622499310 -0.9498640390
H 2.7093770221 0.4522508464 1.3745106068
H 1.8235869109 -1.0504449537 1.1125447990
H 1.0191492942 -0.2077156736 -1.0778089790
H 1.9225296470 1.2840299183 -0.8434363291
H -0.3710385063 1.7143425492 -0.3049970614
H 0.5980519976 1.8258428804 1.1584076391
H -1.5164681573 0.7266249493 1.6129564822
H -0.1765727327 -0.3633246543 1.9173276873
H -0.5812441479 -1.5568941833 -0.1775277905
H -2.0073736560 -1.5419946182 0.8435463863
H -1.5180321374 0.1915898891 -1.6165454574
H -2.5738927761 -1.2115803794 -1.5129447012
H -2.9755046094 1.4088423489 -0.0036070317
H -3.8085043997 0.9185196568 -1.4731720811
H -4.0158796959 -0.4675103431 1.2405253736
H -5.2592670250 0.4900645597 0.4427832356
H -4.7633913901 -1.0570265372 -0.2455003322
32
CONF250
C 4.9922979595 0.3592629104 -0.4268129805
C 4.1295244496 -0.5322365081 0.4597096741
C 2.7040616433 -0.0078536432 0.6427358943
C 1.8653412565 -0.0866825133 -0.6319040050
C 0.4358771934 0.4280298507 -0.4464660455
C -0.4429361881 -0.5167885376 0.3718094507
C -1.8521105444 0.0259706079 0.6186848065
C -2.7150054879 0.0698397127 -0.6411420741
C -4.1254260148 0.6044322564 -0.3841882673
C -4.9917227931 -0.3452905477 0.4360555480
H 6.0121506493 -0.0167872251 -0.4591901305
H 5.0130265386 1.3747198725 -0.0372889965
H 4.6102931717 0.3878250835 -1.4437044187
H 4.5999891884 -0.6074163283 1.4430127840
H 4.0903643427 -1.5379736397 0.0352222593
H 2.7444294397 1.0298169046 0.9825896205
H 2.2219761590 -0.5944642282 1.4269431463
H 1.8326156376 -1.1220593275 -0.9795590462
H 2.3456937489 0.5094272792 -1.4096501107
H -0.0102710287 0.5646385854 -1.4332120317
H 0.4671083161 1.4051430738 0.0415425588
H 0.0281489221 -0.6925649478 1.3406497584
H -0.5123940745 -1.4787854555 -0.1416435395
H -2.3375077849 -0.6115609716 1.3597242819
H -1.7808252681 1.0311631413 1.0413313077
H -2.2353673673 0.7117616559 -1.3821682978
H -2.7835116506 -0.9345139107 -1.0658963749
H -4.0563724397 1.5668723550 0.1278452046
H -4.6117323547 0.7774164962 -1.3471822102
H -6.0031194725 0.0454916817 0.5194497259
H -5.0392465238 -1.3220412762 -0.0404345447
H -4.5942740308 -0.4704213272 1.4397088285
32
CONF371
C 4.7251585199 0.0984414395 0.7121164670
C 3.8538001834 -0.8118976776 -0.1464330811
C 2.5432997278 -0.1571642393 -0.5872158378
C 1.5674181069 0.0715085801 0.5657655931
C 0.2549011025 0.7244622502 0.1259558902
C -0.6562721238 -0.2200853003 -0.6555214241
C -1.9233011942 0.4586705549 -1.1796675791
C -2.8552970970 1.0223297698 -0.1039582764
C -3.3602921615 -0.0006267965 0.9150665396
C -4.1861708847 -1.1176935588 0.2873525199
H 4.2429852931 0.3224726536 1.6598385657
H 4.9202100717 1.0349735767 0.1942580534
H 5.6776499518 -0.3821008465 0.9227978362
H 3.6301417181 -1.7273657161 0.4059605479
H 4.4170175017 -1.0946610019 -1.0390107400
H 2.0737466718 -0.8003928533 -1.3337820482
H 2.7638332092 0.7998157806 -1.0662692578
H 2.0400371124 0.7188061970 1.3064868383
H 1.3501532284 -0.8838058324 1.0499019238
H 0.4775806514 1.6013066394 -0.4869649475
H -0.2719997630 1.0685500586 1.0177994714
H -0.9238143383 -1.0679545445 -0.0225139459
H -0.1122882517 -0.6157325974 -1.5155858223
H -1.6304065791 1.2817101156 -1.8368248902
H -2.4753343085 -0.2597067048 -1.7887005749
H -2.3430434091 1.8243096068 0.4310229085
H -3.7178515881 1.4683313789 -0.6060623476
H -2.5163433450 -0.4316518822 1.4558491442
H -3.9784017057 0.5268187708 1.6459780400
H -3.5765639351 -1.7311194378 -0.3707159099
H -4.6009142625 -1.7598211911 1.0610157313
H -5.0083800691 -0.7024732702 -0.2915405917
32
CONF376
C 4.3943920027 0.0571229837 -0.7817208667
C 3.7642844071 -0.0636217480 0.6012498737
C 2.5394654289 0.8343514742 0.7872394164
C 1.3462086929 0.5011795693 -0.1111971459
C 0.6920816828 -0.8363823474 0.2284626605
C -0.4453053913 -1.2132445938 -0.7237464454
C -1.6298341084 -0.2448022515 -0.7507901061
C -2.3620782239 -0.1460504631 0.5857734602
C -3.5616918939 0.8025503710 0.5441617050
C -4.7159419418 0.2835472273 -0.3062743946
H 5.3182050318 -0.5149016344 -0.8255643380
H 4.6231507991 1.0967864495 -1.0054194146
H 3.7264411276 -0.3221228036 -1.5503165016
H 4.5067228599 0.2186400420 1.3517410176
H 3.4945943211 -1.1041203297 0.7881532958
H 2.8391288203 1.8678425358 0.5955108128
H 2.2178462632 0.7737228115 1.8301131292
H 1.6597701533 0.4963680280 -1.1562769857
H 0.6096795260 1.2982402212 0.0062183274
H 0.3239060633 -0.8082286581 1.2556354100
H 1.4419767195 -1.6279135204 0.1742578508
H -0.8130693793 -2.2043457602 -0.4456582989
H -0.0392322748 -1.2863637271 -1.7360593100
H -1.2896809214 0.7479820583 -1.0504034614
H -2.3257686797 -0.5955448586 -1.5151809975
H -2.6995467372 -1.1407134393 0.8869893573
H -1.6689829489 0.2146818865 1.3478354937
H -3.9201566942 0.9529586777 1.5653365992
H -3.2380092218 1.7735991560 0.1622887739
H -5.0282671382 -0.6999493480 0.0378916913
H -5.5665615368 0.9575706390 -0.2371783750
H -4.4293197301 0.2079012527 -1.3517293591
32
CONF381
C 4.4817380435 -0.4506634160 -0.2760463066
C 3.6695727891 0.3616329571 0.7261989593
C 2.5390782506 1.1640164751 0.0790075509
C 1.4727911794 0.3267273510 -0.6299149823
C 0.7299555549 -0.6255469022 0.3056403894
C -0.4487206122 -1.3253250217 -0.3762337574
C -1.6722185467 -0.4330443949 -0.6006796069
C -2.4433177781 -0.1512618047 0.6879253444
C -3.5923433721 0.8402669835 0.4993746280
C -4.7199222000 0.2991161404 -0.3723868880
H 4.8551536758 0.1909874964 -1.0712170382
H 3.8781485551 -1.2367299153 -0.7217701974
H 5.3317170310 -0.9160376051 0.2175784014
H 4.3356496753 1.0648250743 1.2323548604
H 3.2604543743 -0.3035258768 1.4881934581
H 2.9747664936 1.8549337949 -0.6473912551
H 2.0539752383 1.7641247410 0.8532459950
H 1.9288419855 -0.2451008491 -1.4399101298
H 0.7575623840 1.0158899285 -1.0835913881
H 0.3782053015 -0.0722359331 1.1781670345
H 1.4227970644 -1.3908075867 0.6598556743
H -0.7536073453 -2.1813022617 0.2306722035
H -0.1091405850 -1.7116421161 -1.3403556577
H -1.3635309332 0.5128891624 -1.0492693503
H -2.3343373707 -0.9327015177 -1.3098422714
H -2.8390622490 -1.0901577016 1.0827551829
H -1.7591532887 0.2570435916 1.4342470787
H -3.9982162290 1.0915061284 1.4822672836
H -3.2033016537 1.7610039572 0.0584723727
H -5.5455054127 1.0064121299 -0.4015644602
H -4.3805102957 0.1330313552 -1.3911112925
H -5.0888848329 -0.6429343356 0.0271551516
32
CONF225
C 3.7095211069 0.7818431759 1.3781657853
C 4.2982716006 -0.0968623086 0.2810560108
C 3.4225975366 -0.1948073704 -0.9699998143
C 2.0650035076 -0.8729228311 -0.7338909038
C 0.9125084349 0.1191044462 -0.5807860345
C -0.4118394801 -0.5847048529 -0.2929552771
C -1.5692333010 0.4031838423 -0.1661060390
C -2.8933911738 -0.2949774189 0.1345066616
C -4.0501816784 0.6943621020 0.2566941979
C -5.3690638821 -0.0070082803 0.5591304896
H 2.7915102409 0.3518042689 1.7691591024
H 3.4933993893 1.7764666912 0.9941979344
H 4.4148976320 0.8779189986 2.2006993064
H 4.4685052960 -1.1011035314 0.6764243809
H 5.2697728914 0.3090646861 -0.0118737276
H 3.9800298671 -0.7607585210 -1.7194901566
H 3.2613397810 0.8068650891 -1.3737947829
H 2.1225770900 -1.5022103135 0.1567003118
H 1.8362186879 -1.5296445357 -1.5763596257
H 0.8168315211 0.6991813743 -1.5020143912
H 1.1277716890 0.8191919472 0.2272765587
H -0.3229809089 -1.1567113567 0.6339183084
H -0.6277396904 -1.2929396755 -1.0966521730
H -1.3486776740 1.1163166199 0.6319070786
H -1.6631735947 0.9690069589 -1.0961573347
H -3.1134370284 -1.0098461428 -0.6619520320
H -2.8010978771 -0.8579947686 1.0663484107
H -3.8288308684 1.4096176029 1.0519909606
H -4.1429113502 1.2556960451 -0.6757167519
H -5.3029237393 -0.5533640757 1.4973230387
H -6.1774862640 0.7156804201 0.6381059208
H -5.6144128038 -0.7131529185 -0.2309778141
32
CONF209
C 4.9372461331 0.4313158336 1.1552412584
C 3.8678024920 -0.4282305309 0.4914278736
C 2.5861791798 0.3593306395 0.2283456829
C 1.5131848875 -0.4944800385 -0.4431864883
C 0.2285183677 0.2910205200 -0.6981239612
C -0.8320676438 -0.5633247315 -1.3917523221
C -2.1608966730 0.1738661563 -1.6127710533
C -3.2387760954 -0.1513524125 -0.5766065854
C -2.8983488844 0.2952670441 0.8431032314
C -4.0614417283 0.0534514037 1.7989129029
H 5.8386123395 -0.1497033081 1.3341239433
H 4.5797518028 0.8146494466 2.1083525755
H 5.1931885341 1.2770949939 0.5208649405
H 3.6393952042 -1.2828184628 1.1324917078
H 4.2508044997 -0.8182206718 -0.4544370589
H 2.8150864770 1.2171470299 -0.4085163767
H 2.2001659226 0.7452494798 1.1749039921
H 1.2892568222 -1.3557691400 0.1911290095
H 1.8976165767 -0.8767243213 -1.3921058742
H 0.4557540323 1.1563368795 -1.3256720959
H -0.1562560524 0.6658383344 0.2511600706
H -1.0107663038 -1.4663569261 -0.8044051048
H -0.4302878753 -0.8820649072 -2.3563477829
H -1.9807128930 1.2508989628 -1.6184917953
H -2.5578857114 -0.0936857212 -2.5943950418
H -4.1671812096 0.3387234280 -0.8819310689
H -3.4224199370 -1.2286979560 -0.5782386531
H -2.0256208289 -0.2525759021 1.2012635164
H -2.6505302366 1.3592927769 0.8363869805
H -4.3167797344 -1.0036336791 1.8271090087
H -3.8021904125 0.3714977441 2.8058412442
H -4.9406736238 0.6084002716 1.4787490019
32
CONF382
C 4.3916994984 0.9041766083 -0.3876332854
C 3.8382795846 -0.5136734480 -0.4763059145
C 2.8855010903 -0.8617100045 0.6693273719
C 1.5796442505 -0.0638176225 0.6929704302
C 0.6475684400 -0.4029159505 -0.4687812836
C -0.6451011880 0.4157690826 -0.4701179303
C -1.5791292683 0.0774799493 0.6903420698
C -2.8897577054 0.8671820354 0.6572528568
C -3.8404343094 0.4985974467 -0.4837045868
C -4.3884360437 -0.9199235232 -0.3742645096
H 4.8681121738 1.0659992400 0.5768927803
H 3.6022429307 1.6408116640 -0.5099115821
H 5.1309541851 1.0692219262 -1.1679446242
H 4.6727993428 -1.2185587087 -0.4483174029
H 3.3330156240 -0.6476962220 -1.4339567154
H 3.4098691321 -0.6972702605 1.6140532287
H 2.6414822423 -1.9254085601 0.6099387971
H 1.7985619569 1.0049992109 0.6811265733
H 1.0719234364 -0.2833337777 1.6339954447
H 0.4002349671 -1.4668506882 -0.4326796041
H 1.1676467738 -0.2166976446 -1.4103165924
H -1.1636594158 0.2288486677 -1.4123603983
H -0.3979574479 1.4797643698 -0.4344845484
H -1.7916208627 -0.9926661332 0.6836319155
H -1.0759674663 0.3052404593 1.6318537127
H -3.4131623767 0.7114600059 1.6039778831
H -2.6521960055 1.9315033801 0.5844968648
H -4.6777047101 1.2005317521 -0.4667388126
H -3.3350767084 0.6201956734 -1.4429476682
H -5.1282493708 -1.0986831160 -1.1510258992
H -3.5964919266 -1.6553481238 -0.4873885470
H -4.8627824346 -1.0699411746 0.5931636731
32
CONF377
C 4.4534997160 -0.2775268167 0.5061816635
C 3.6884608334 0.0400744923 -0.7735659882
C 2.5327370690 1.0195921073 -0.5599600015
C 1.4338941921 0.5342543397 0.3878376559
C 0.7266117653 -0.7271557740 -0.1032671134
C -0.4497798499 -1.1416302998 0.7840023228
C -1.6577957196 -0.2024904218 0.7486061100
C -2.3622974942 -0.1787063645 -0.6065733525
C -3.5905529044 0.7330528737 -0.6305234068
C -4.7535753376 0.2034485238 0.2011727820
H 5.3239106918 -0.8897920690 0.2819887427
H 3.8291360298 -0.8225956773 1.2090375534
H 4.7921017277 0.6393755405 0.9837885468
H 3.3120890183 -0.8852323967 -1.2124835383
H 4.3779522919 0.4846797707 -1.4955900175
H 2.0828819544 1.2399664477 -1.5315710187
H 2.9387104346 1.9550598550 -0.1663103253
H 0.7044445967 1.3403833655 0.4866004670
H 1.8528298210 0.3515483301 1.3789019052
H 1.4398267616 -1.5534697260 -0.1182679040
H 0.3830402367 -0.5740363191 -1.1276593996
H -0.0959034287 -1.2144741188 1.8156422976
H -0.7803257158 -2.1379756885 0.4795508232
H -2.3624267427 -0.5385724319 1.5114800629
H -1.3503547396 0.8109930296 1.0123810578
H -1.6632042535 0.1720976772 -1.3678145475
H -2.6630521528 -1.1944452617 -0.8747184340
H -3.3085012532 1.7251538329 -0.2704637352
H -3.9223151983 0.8403916818 -1.6660778057
H -4.4961518157 0.1663425989 1.2562728543
H -5.6216239747 0.8485588379 0.0874626254
H -5.0257287063 -0.7986670334 -0.1229102855
32
CONF270
C 3.2082397644 -1.8552644373 0.9595693761
C 2.3078614641 -0.6272915792 0.8864744749
C 2.7790188269 0.3529321080 -0.1876228395
C 1.9000366602 1.6066367239 -0.3059105440
C 0.9043945779 1.5682465776 -1.4684479253
C -0.1589036262 0.4725753410 -1.3878757541
C -1.1442853443 0.6655836269 -0.2373452899
C -2.2242621779 -0.4139258766 -0.2294071436
C -3.2104311048 -0.2353074328 0.9227076005
C -4.2882942992 -1.3129844986 0.9198199978
H 2.8631714130 -2.5377549269 1.7325242017
H 4.2313979760 -1.5651479836 1.1886849834
H 3.2085817571 -2.3843156235 0.0089732872
H 2.3086113498 -0.1217240468 1.8553517400
H 1.2851828245 -0.9449313314 0.6807244033
H 2.8153658075 -0.1582006040 -1.1520442185
H 3.8013593505 0.6513203021 0.0564589424
H 2.5417111288 2.4768130429 -0.4616407851
H 1.3666197924 1.7680044456 0.6317678039
H 1.4655626114 1.4382400129 -2.3973826874
H 0.4019458406 2.5375551176 -1.5234064131
H 0.3228839546 -0.5020266087 -1.2978052074
H -0.7187372054 0.4705779179 -2.3269941053
H -0.6128664627 0.6415902370 0.7156188475
H -1.6153994492 1.6474435416 -0.3281989823
H -2.7687566241 -0.3879364773 -1.1765090216
H -1.7521036592 -1.3963171173 -0.1487767467
H -2.6670488897 -0.2678979292 1.8698718703
H -3.6798966974 0.7480334774 0.8450436096
H -4.9774152660 -1.1676199031 1.7481275970
H -4.8544961090 -1.2820510638 -0.0084771103
H -3.8400697277 -2.2996697991 1.0138990668
32
CONF447
C 3.8681550763 -1.0037032483 -1.5623802265
C 2.9675378082 -1.1423338624 -0.3405472444
C 2.1956236782 0.1438269567 -0.0533358707
C 1.2890757782 0.0009192912 1.1670008510
C 0.5984465803 1.3046041492 1.5731041491
C -0.3901021378 1.8994139474 0.5641095504
C -1.7894861478 1.2752654850 0.5574718556
C -1.9087475450 -0.0406006918 -0.2092775492
C -3.3669596103 -0.4625214718 -0.3820454900
C -3.4900968378 -1.7862007871 -1.1278118176
H 4.4078377376 -1.9292607748 -1.7474151890
H 4.5931397380 -0.2068011069 -1.4120507680
H 3.2784306105 -0.7670943370 -2.4452605103
H 3.5748425892 -1.4010837752 0.5300105485
H 2.2588125426 -1.9577549427 -0.5028133825
H 1.5994069486 0.3977219408 -0.9314618534
H 2.9031885367 0.9593375344 0.1156709195
H 1.8974764625 -0.3318403853 2.0126896014
H 0.5503650966 -0.7767784123 0.9758043074
H 1.3789010075 2.0476529608 1.7588143665
H 0.0745565286 1.1425518243 2.5182998446
H 0.0302682634 1.8552586039 -0.4410465095
H -0.5078113631 2.9565018067 0.8159549764
H -2.1240341649 1.1268058581 1.5868498851
H -2.4732737397 1.9928077897 0.0950477702
H -1.4492710124 0.0714445242 -1.1942215479
H -1.3788685963 -0.8342570982 0.3178032680
H -3.8330395913 -0.5551058083 0.6017379989
H -3.9055354621 0.3139938100 -0.9304222104
H -3.0436502869 -1.7084285678 -2.1167077842
H -2.9806751257 -2.5788545801 -0.5841845584
H -4.5346341610 -2.0651674782 -1.2430690719
32
CONF275
C 4.3491696168 -1.1675784999 0.9025700075
C 2.9896873185 -1.2029393639 0.2145573986
C 2.3546541401 0.1836806329 0.1360869385
C 0.9866413981 0.1525741039 -0.5418165654
C 0.3652136496 1.5459543327 -0.6338638308
C -1.0206360702 1.5590202386 -1.2954099161
C -2.1883138618 1.6240303544 -0.3071598986
C -2.3315766827 0.4204999296 0.6247640435
C -2.6985720083 -0.8718617432 -0.1014389463
C -2.9063908319 -2.0239773721 0.8748990355
H 4.2517568078 -0.7905496257 1.9182103683
H 5.0329862207 -0.5177744950 0.3611038450
H 4.7825699238 -2.1637811253 0.9453977571
H 2.3232824721 -1.8735381140 0.7619779042
H 3.1042306868 -1.6034932637 -0.7953100764
H 3.0179157469 0.8528551770 -0.4176309229
H 2.2479228929 0.5880504227 1.1457490918
H 0.3294736774 -0.5156382301 0.0159258724
H 1.0952741173 -0.2575026526 -1.5492480587
H 1.0447105948 2.1789777721 -1.2094169713
H 0.2944934902 1.9777060614 0.3667560271
H -1.1271989386 0.6829569748 -1.9363437647
H -1.0971518676 2.4374514397 -1.9401541075
H -2.0716020056 2.5229004943 0.3037694947
H -3.1148741545 1.7347346434 -0.8768517132
H -1.4065310078 0.2759332933 1.1848045893
H -3.1176937740 0.6440451034 1.3511062668
H -3.6143426774 -0.7127881398 -0.6756565769
H -1.9086888783 -1.1392932188 -0.8050896204
H -3.1622907330 -2.9365461678 0.3420037440
H -2.0002805217 -2.2045361388 1.4495638993
H -3.7108066621 -1.7947597380 1.5705302276
32
CONF328
C 2.9084451423 -0.2373473716 -2.1129844058
C 3.4159734983 -0.6601476738 -0.7387064591
C 2.8052022446 0.1489326975 0.4065637744
C 1.3090558683 -0.0982794969 0.5929219059
C 0.7653716712 0.6485705842 1.8083587350
C -0.7046885422 0.3544712261 2.1149682490
C -1.6820737590 0.8336472417 1.0315929487
C -2.1412798493 -0.2803017534 0.0914590471
C -3.0782434927 0.2415512267 -0.9959926800
C -3.5551239634 -0.8740490939 -1.9184907439
H 3.4343919953 -0.7832796939 -2.8927299993
H 3.0737339157 0.8266406612 -2.2675945279
H 1.8459609607 -0.4402147909 -2.2164460551
H 4.5010596556 -0.5350419543 -0.7111194796
H 3.2023473286 -1.7201829850 -0.5834811623
H 2.9751300499 1.2131382502 0.2259245470
H 3.3224215818 -0.1136559783 1.3331334264
H 1.1353310612 -1.1696479874 0.7206800190
H 0.7758967150 0.2292387423 -0.2991055542
H 0.8904170093 1.7232634044 1.6542533682
H 1.3601665011 0.3731898581 2.6835359876
H -0.9486844813 0.8474186342 3.0584621827
H -0.8315454422 -0.7192726165 2.2681172648
H -2.5685155288 1.2596431106 1.5073919100
H -1.2164983080 1.6312381569 0.4487855436
H -1.2773770673 -0.7532728843 -0.3775411342
H -2.6601143784 -1.0465340165 0.6729269802
H -3.9417624095 0.7200388687 -0.5281662251
H -2.5592116122 1.0016989492 -1.5844776095
H -4.2223509362 -0.4811969436 -2.6818305799
H -2.7092849813 -1.3479432328 -2.4116293384
H -4.0896323213 -1.6334306102 -1.3521196758
32
CONF325
C 3.5284745511 0.8299127165 -1.9469245885
C 3.0540660282 -0.2670720524 -1.0010050107
C 2.1400306935 0.2808045705 0.0930703892
C 1.6766392508 -0.8152620034 1.0520810115
C 0.7074769785 -0.3110609415 2.1314365594
C -0.7658234620 -0.5979965896 1.8334931702
C -1.3005855699 0.1197492410 0.5968138788
C -2.7985336996 -0.1175458503 0.4130378969
C -3.3927812335 0.6513586742 -0.7681405975
C -2.8909303503 0.1585685047 -2.1210630287
H 4.0839566169 1.5890721485 -1.4007925888
H 2.6798845860 1.3090168069 -2.4302464354
H 4.1755651496 0.4179626163 -2.7174510027
H 3.9195302981 -0.7488359119 -0.5400181078
H 2.5171466289 -1.0295488117 -1.5703096679
H 1.2770421112 0.7612796618 -0.3698788201
H 2.6777395631 1.0457983295 0.6587504935
H 2.5615709857 -1.2415330013 1.5302808105
H 1.2017361002 -1.6176118573 0.4835688680
H 0.8436196511 0.7639244899 2.2667272008
H 0.9505406380 -0.7907288642 3.0819675974
H -1.3577327762 -0.2919927851 2.7003950960
H -0.9020744438 -1.6752188071 1.7093871328
H -1.1166650159 1.1925534660 0.6946782325
H -0.7689799406 -0.2380615895 -0.2843878399
H -2.9802586859 -1.1860934947 0.2745139233
H -3.3171734670 0.1884213457 1.3253371429
H -4.4800417018 0.5478009407 -0.7378802932
H -3.1595518070 1.7130363561 -0.6594162705
H -3.0780020862 -0.9075196070 -2.2295563897
H -3.4035613312 0.6806085310 -2.9256085953
H -1.8241785696 0.3344958576 -2.2301437899
32
CONF286
C 4.1586864043 0.8240745525 1.5114927659
C 3.3843526004 -0.3139559271 0.8570113771
C 2.3987561114 0.1977184131 -0.1916096554
C 1.6328825256 -0.9438179946 -0.8590923987
C 0.6023636594 -0.4677333255 -1.8930959375
C -0.8325969438 -0.4043743523 -1.3650556110
C -1.0417356482 0.6365699888 -0.2672196446
C -2.5150556447 0.8490086596 0.0847765769
C -3.1620746944 -0.3634674922 0.7516790830
C -4.5940598773 -0.0687904878 1.1833376349
H 4.7251226408 1.3770153823 0.7654476364
H 4.8528980342 0.4379529867 2.2538993052
H 3.4769666425 1.5141675222 2.0036639887
H 2.8382915815 -0.8688544050 1.6235702397
H 4.0854998476 -1.0066441006 0.3855456533
H 2.9467980632 0.7545376565 -0.9558524973
H 1.7008590382 0.8891131131 0.2821004305
H 1.1306568359 -1.5395169425 -0.0939312054
H 2.3599990951 -1.5963268566 -1.3483121177
H 0.6092287375 -1.1537961236 -2.7429399540
H 0.8930332463 0.5158805798 -2.2681302672
H -1.1122438780 -1.3918544858 -0.9932891285
H -1.4953029420 -0.1660314429 -2.2012793727
H -0.5048500684 0.3345189487 0.6335502701
H -0.6253412334 1.5889442754 -0.6049535452
H -2.5914847905 1.7016202260 0.7645189094
H -3.0708972936 1.1006491736 -0.8217980211
H -3.1652574717 -1.2066435798 0.0591864604
H -2.5720361637 -0.6504113497 1.6252819234
H -4.6166844505 0.7530303713 1.8957462969
H -5.2004917358 0.2078264709 0.3236942460
H -5.0403650991 -0.9425154159 1.6519781854
32
CONF299
C 3.5483014484 0.3146419849 -2.0057890162
C 2.4856567080 -0.0884821380 -0.9893930872
C 3.0393836248 -0.0779083561 0.4334164414
C 2.0667760497 -0.6036415258 1.4912641683
C 0.8070266084 0.2549505500 1.6741946416
C -0.4103848194 -0.2827995936 0.9225063615
C -1.6267398693 0.6234981096 1.1037464596
C -2.8918091406 0.0853156753 0.4340157514
C -2.8297962277 0.1104690486 -1.0922102627
C -4.1477164667 -0.3359312355 -1.7147190993
H 4.3898224752 -0.3740004115 -1.9722387826
H 3.9176890639 1.3154736284 -1.7929779734
H 3.1375840317 0.3066557632 -3.0125622287
H 2.1203862037 -1.0905432961 -1.2262447544
H 1.6456894587 0.6038079381 -1.0620968791
H 3.3350880068 0.9412576547 0.6946751363
H 3.9406847189 -0.6962789506 0.4598332901
H 2.6068573724 -0.6484244768 2.4395339983
H 1.7750835499 -1.6246028182 1.2359555952
H 1.0126963323 1.2761223269 1.3464458849
H 0.5545601168 0.3031416278 2.7361463549
H -0.6491766380 -1.2810708687 1.2977611963
H -0.1756744737 -0.3744087619 -0.1372185367
H -1.8190664537 0.7390977906 2.1735301932
H -1.4016868302 1.6145381714 0.7019969027
H -3.0710797155 -0.9383130532 0.7713022559
H -3.7420533275 0.6916656790 0.7565555519
H -2.5972954092 1.1248191664 -1.4247293418
H -2.0311123479 -0.5461008901 -1.4406530620
H -4.9594092037 0.3155006519 -1.3978511649
H -4.0875547966 -0.3072156400 -2.8000244348
H -4.3870233648 -1.3524621084 -1.4101570174
32
CONF305
C 3.8911455456 -0.8421618124 1.3414025585
C 3.4074290168 0.5609149875 0.9917382361
C 2.0567570492 0.5704020942 0.2734678938
C 2.1165398534 -0.0526563664 -1.1195426489
C 0.8422191391 0.1478355115 -1.9427394229
C -0.3939749087 -0.5627462990 -1.3728554790
C -1.3051348552 0.3568780157 -0.5606421136
C -2.5051986294 -0.3938255861 0.0124621844
C -3.4317710967 0.5229825741 0.8079880382
C -4.6263239260 -0.2323749783 1.3785487901
H 4.0892080046 -1.4209727871 0.4433262918
H 3.1422584727 -1.3654938299 1.9319151316
H 4.8100209395 -0.7905682303 1.9207924209
H 4.1529308339 1.0555447039 0.3646938677
H 3.3145603600 1.1409318653 1.9131433641
H 1.7205680761 1.6061497773 0.1797321019
H 1.3297348715 0.0341890045 0.8855869712
H 2.3132975645 -1.1229265998 -1.0352958225
H 2.9512378051 0.3952352864 -1.6655837247
H 1.0378646044 -0.2318137390 -2.9480299870
H 0.6357142159 1.2163356365 -2.0343299705
H -0.0759941139 -1.4007756826 -0.7492231012
H -0.9817219029 -0.9784921701 -2.1946579264
H -0.7443523113 0.8120363848 0.2565970146
H -1.6621613476 1.1645583486 -1.2045997376
H -3.0676688335 -0.8535513486 -0.8039563718
H -2.1512682507 -1.1983410918 0.6618200049
H -2.8693431673 0.9825142873 1.6239936137
H -3.7869245758 1.3262874565 0.1584358263
H -5.2716167852 0.4392029679 1.9394932352
H -5.2098042700 -0.6816813577 0.5780220415
H -4.2924890096 -1.0250902030 2.0443768176
32
CONF303
C 4.1107055063 -0.2561069029 -1.6447429391
C 2.7062366058 -0.1248169212 -1.0667370294
C 2.6542690076 -0.5817460003 0.3899865307
C 1.2484202933 -0.5499628620 0.9919804712
C 0.7150599864 0.8682706688 1.1957176475
C -0.6485039928 0.9110674641 1.9005288608
C -1.8434257791 1.0688136017 0.9578532239
C -2.0587207800 -0.1133234324 0.0164070863
C -3.3536886542 0.0267490979 -0.7818121462
C -3.5694876791 -1.1500731033 -1.7261559098
H 4.4438335553 -1.2910028167 -1.6068290086
H 4.8131328753 0.3495823319 -1.0763678213
H 4.1316439712 0.0742279276 -2.6804434010
H 2.0131822049 -0.7284482647 -1.6574681435
H 2.3878503485 0.9162616312 -1.1392130832
H 3.3171141066 0.0480908723 0.9884541226
H 3.0344105271 -1.6049739258 0.4456553374
H 1.2778443880 -1.0499403009 1.9635551944
H 0.5721083714 -1.1172070783 0.3513804112
H 0.6356591729 1.3777898713 0.2347616899
H 1.4452058981 1.4167813749 1.7956177046
H -0.6633465459 1.7570141482 2.5913101621
H -0.7786565038 0.0047251306 2.4957295982
H -2.7431102830 1.1975379330 1.5657812688
H -1.7164133177 1.9795431467 0.3672939721
H -1.2219952268 -0.1863725783 -0.6802242214
H -2.0946085600 -1.0369919228 0.5990596820
H -4.1973212551 0.0962405257 -0.0910343040
H -3.3224310666 0.9542456815 -1.3582992998
H -4.4969658714 -1.0307207904 -2.2808880686
H -2.7500742998 -1.2229105284 -2.4378106557
H -3.6206905083 -2.0817111943 -1.1669561850
32
CONF301
C 4.1544773621 0.2927191192 -1.7157527433
C 2.8303090946 -0.1265769351 -1.0878163975
C 2.8937741684 -0.0858721307 0.4380393808
C 1.6247874676 -0.6054421801 1.1149577639
C 0.4120909288 0.3000623572 0.9075275637
C -0.8063603203 -0.2052571677 1.6795997366
C -2.0612234801 0.6542754064 1.4692418595
C -3.0396207805 0.0986647101 0.4322466941
C -2.4893699606 0.0549170011 -0.9913139206
C -3.5591841796 -0.3711326050 -1.9907173695
H 4.9547973603 -0.3725442084 -1.3988705414
H 4.4134606347 1.3056365981 -1.4153538658
H 4.0906962208 0.2615300053 -2.8007004712
H 2.5815755026 -1.1406176220 -1.4093959995
H 2.0418393920 0.5388807694 -1.4426721231
H 3.0818989999 0.9398976872 0.7639275791
H 3.7391051295 -0.6958030825 0.7667579488
H 1.8131012300 -0.6966140219 2.1878457009
H 1.3984525781 -1.6049200571 0.7355098161
H 0.1746750612 0.3574624093 -0.1539893143
H 0.6569968936 1.3089788365 1.2488400578
H -0.5521338732 -0.2183338926 2.7421357233
H -1.0184499970 -1.2358562522 1.3874721716
H -2.5990318227 0.7357850541 2.4163610914
H -1.7633835785 1.6637455075 1.1778768900
H -3.3421184173 -0.9084896557 0.7298181748
H -3.9363472850 0.7241947766 0.4385580873
H -2.1142282290 1.0443358623 -1.2633016170
H -1.6568891315 -0.6483648507 -1.0422496070
H -4.3907900585 0.3302510667 -1.9821982905
H -3.1502509077 -0.4071794178 -2.9975939453
H -3.9424916157 -1.3577378275 -1.7396425822
32
CONF316
C 3.5513115042 -1.1893365727 -1.6188011975
C 2.7358362422 -1.0108128349 -0.3431907367
C 2.8655783336 0.4066363585 0.2137107073
C 2.0408087094 0.6432583593 1.4869679734
C 0.7025496034 1.3458528821 1.2480980393
C -0.2897096418 0.5342110226 0.4187187883
C -1.6470835439 1.2307321160 0.3339457823
C -2.6411870359 0.5163148588 -0.5825443132
C -3.1004173264 -0.8380962469 -0.0456281743
C -4.1742344946 -1.4581943746 -0.9323436394
H 4.6034165582 -0.9869234700 -1.4300464973
H 3.2056798170 -0.5052737795 -2.3908632429
H 3.4585961320 -2.2057378372 -1.9936642553
H 3.0836957538 -1.7221941713 0.4096723712
H 1.6890610529 -1.2357964793 -0.5500759755
H 2.5661513395 1.1252298788 -0.5520449734
H 3.9213290939 0.5873668972 0.4291483537
H 2.6188675836 1.2640177216 2.1749830296
H 1.8615303292 -0.3119195266 1.9851253266
H 0.8849473539 2.3038563098 0.7547377203
H 0.2497591985 1.5604121232 2.2198469764
H -0.4084557576 -0.4509619008 0.8730327272
H 0.0991991884 0.3989847516 -0.5917554965
H -2.0756220606 1.3121862417 1.3358510287
H -1.4944208338 2.2459140831 -0.0413776122
H -3.5188743873 1.1551912226 -0.7094300744
H -2.1893863236 0.3789348395 -1.5678763062
H -2.2502350451 -1.5193929422 0.0132087838
H -3.4948369289 -0.7083037520 0.9648497658
H -4.4863476186 -2.4223805141 -0.5384555402
H -5.0461917580 -0.8099179936 -0.9856918097
H -3.7956781238 -1.6050657261 -1.9414959775
32
CONF315
C 3.2317987285 -0.0922030469 -2.1717979769
C 2.6897436884 -0.6145216792 -0.8461097441
C 2.7429718834 0.4545714997 0.2449313032
C 2.1651080331 -0.0139603715 1.5883784446
C 0.7369170639 0.4651319628 1.8574289102
C -0.2996253800 -0.0940313031 0.8859140981
C -1.7145710413 0.3395057706 1.2657085665
C -2.7985243317 -0.2822790625 0.3842369729
C -2.7623231822 0.2036199326 -1.0637043897
C -3.9406193556 -0.3373072799 -1.8654939080
H 4.2622528326 0.2374705086 -2.0586416229
H 2.6400824978 0.7517965265 -2.5193146476
H 3.2009492893 -0.8694692183 -2.9313667300
H 3.2815762922 -1.4764000671 -0.5287974603
H 1.6625394433 -0.9539939827 -0.9847817187
H 2.2043013866 1.3424068739 -0.0925397579
H 3.7872903283 0.7448687153 0.3811169546
H 2.7954630686 0.3594420015 2.3982610167
H 2.1920606193 -1.1047480040 1.6335661655
H 0.7127417139 1.5570122212 1.8176514258
H 0.4606626474 0.1694432690 2.8731714179
H -0.2450455795 -1.1854344145 0.8891732863
H -0.0747228066 0.2547761523 -0.1216287570
H -1.9026827133 0.0516817566 2.3033104174
H -1.7851460009 1.4285468197 1.2093738950
H -2.6973165761 -1.3700975570 0.4018103750
H -3.7750734009 -0.0359306274 0.8088414357
H -2.7856842744 1.2957618762 -1.0767913882
H -1.8330974705 -0.1162678387 -1.5376951714
H -3.8949292604 0.0096006973 -2.8949644530
H -3.9309150441 -1.4250391839 -1.8682967841
H -4.8815902708 -0.0053718166 -1.4321273455
32
CONF279
C 4.4747217531 -0.8157665755 -1.0885294578
C 3.2035907184 -1.1196568092 -0.3042380761
C 2.4692294347 0.1544728191 0.1075013936
C 1.1987218253 -0.1496553625 0.8990327662
C 0.4268364433 1.1140741842 1.2875462282
C -0.3386041217 1.7632401614 0.1253782961
C -1.8298446555 1.4204886627 0.0951250515
C -2.1206308782 -0.0560494174 -0.1617133480
C -3.6174978907 -0.3257184896 -0.3024091533
C -3.9065760676 -1.8029373737 -0.5424558716
H 5.1579512138 -0.2182113330 -0.4892078223
H 4.2396440839 -0.2607061402 -1.9939816323
H 4.9797792000 -1.7362890280 -1.3708747024
H 3.4571286878 -1.6940435638 0.5898546503
H 2.5395614252 -1.7360773680 -0.9147460451
H 2.2196004905 0.7263641823 -0.7886114334
H 3.1336364293 0.7726106601 0.7163459969
H 1.4771024283 -0.6874495211 1.8089747457
H 0.5593896721 -0.8082155277 0.3098809990
H 1.1402378873 1.8316212158 1.6990844244
H -0.2797433941 0.8719949794 2.0839220678
H 0.1114026683 1.4674088129 -0.8234693600
H -0.2500307621 2.8491276611 0.2010342904
H -2.2856416030 1.7167279831 1.0433177063
H -2.3032700789 2.0119095094 -0.6933131999
H -1.6135065525 -0.3697794974 -1.0775293289
H -1.7307070072 -0.6563852131 0.6619968720
H -4.1289378252 0.0015826070 0.6057505516
H -4.0138955857 0.2615898040 -1.1340611944
H -3.5403354487 -2.4022136535 0.2881708880
H -4.9756776055 -1.9728019361 -0.6439892253
H -3.4163772246 -2.1434932815 -1.4518219553
32
CONF302
C 3.5940858514 0.3516584052 -1.9751447874
C 2.5135703447 -0.0736796965 -0.9870851847
C 3.0484825472 -0.1168674310 0.4421969784
C 2.0485542524 -0.6500935344 1.4702202893
C 0.8069556268 0.2339319997 1.6585125949
C -0.4186945514 -0.2731779704 0.8989592404
C -1.6144383314 0.6614145960 1.0739663954
C -2.8995950086 0.1306002213 0.4376763442
C -2.8512597037 0.0859546201 -1.0884261641
C -4.1872124369 -0.3507970338 -1.6785590879
H 3.1976290937 0.3811230759 -2.9871465141
H 4.4281883509 -0.3463221917 -1.9527482836
H 3.9704071399 1.3409942092 -1.7243109805
H 2.1408264461 -1.0630782639 -1.2622029904
H 1.6816048257 0.6293970594 -1.0471482363
H 3.3630546682 0.8873139784 0.7370447143
H 3.9352608866 -0.7560229616 0.4622715784
H 2.5726999560 -0.7367458138 2.4243740259
H 1.7365006680 -1.6554608009 1.1796882721
H 1.0342490422 1.2531367655 1.3391685827
H 0.5527891811 0.2794639545 2.7201053856
H -0.6831015231 -1.2658861710 1.2716561906
H -0.1791068830 -0.3689084626 -0.1595058906
H -1.7894125572 0.8076042727 2.1430227453
H -1.3761579776 1.6373902146 0.6439951669
H -3.1035332581 -0.8720125575 0.8209392279
H -3.7298066384 0.7737161651 0.7403947984
H -2.5934077813 1.0770431381 -1.4687020468
H -2.0748235007 -0.6083900412 -1.4127963676
H -4.1349674676 -0.3804931327 -2.7642093574
H -4.4549412727 -1.3421659219 -1.3198083522
H -4.9759714594 0.3408855869 -1.3909026862
32
CONF300
C 3.5772554357 0.3772462006 -1.9730729515
C 2.5010939661 -0.0621451120 -0.9864157380
C 3.0448408062 -0.1344088284 0.4384293887
C 2.0465895584 -0.6745109884 1.4645610539
C 0.8103067761 0.2138789332 1.6666055378
C -0.4190322095 -0.2789054922 0.9035321030
C -1.6027988491 0.6726912356 1.0677513240
C -2.8938364693 0.1507183337 0.4360485244
C -2.8416328187 0.0803896640 -1.0890318234
C -4.1815947692 -0.3480473624 -1.6761268281
H 3.9610885806 1.3590821375 -1.7043693431
H 3.1737439101 0.4301686470 -2.9813678771
H 4.4074123849 -0.3258030430 -1.9712005546
H 2.1220835341 -1.0445092044 -1.2779255577
H 1.6721944490 0.6458535721 -1.0280421139
H 3.3707149583 0.8619070196 0.7475721603
H 3.9256657435 -0.7820753222 0.4422898144
H 2.5742729415 -0.7741204070 2.4155251357
H 1.7280896568 -1.6750393357 1.1644583660
H 1.0424002071 1.2354077760 1.3583817203
H 0.5586518662 0.2486787375 2.7291572372
H -0.6987840917 -1.2663578276 1.2791461290
H -0.1756725379 -0.3826370708 -0.1532951143
H -1.7768146173 0.8331264391 2.1349147664
H -1.3519940688 1.6406806497 0.6270186827
H -3.1134525652 -0.8424700194 0.8349575327
H -3.7154944850 0.8106699993 0.7257722559
H -2.5692671334 1.0615858865 -1.4845498237
H -2.0737829627 -0.6296692915 -1.3996157860
H -4.4633098435 -1.3299136337 -1.3021576243
H -4.9620416434 0.3584684835 -1.4021192075
H -4.1265766200 -0.3961703936 -2.7609424806
32
CONF298
C 4.1630579414 0.2908122716 -1.7062799284
C 2.8327991066 -0.1230513589 -1.0875039334
C 2.8930868342 -0.1044544389 0.4388707198
C 1.6157615428 -0.6163702281 1.1058317828
C 0.4145776361 0.3059157477 0.9054873966
C -0.8085817615 -0.1874826640 1.6779839272
C -2.0570973708 0.6794219110 1.4596753581
C -3.0414694291 0.1163018525 0.4324290701
C -2.4915682005 0.0459331513 -0.9901688737
C -3.5614728055 -0.3984365561 -1.9814207128
H 4.4321623376 1.2964499845 -1.3908907299
H 4.1016699240 0.2757465653 -2.7917139932
H 4.9553455879 -0.3874668746 -1.3970748205
H 2.5739312608 -1.1296269786 -1.4241382314
H 2.0524295807 0.5559175802 -1.4344887586
H 3.0940742214 0.9140997936 0.7793864404
H 3.7293849960 -0.7300954044 0.7610343434
H 1.7997674586 -0.7222049117 2.1780999654
H 1.3784386800 -1.6085727314 0.7141666628
H 0.1753090285 0.3712177249 -0.1552259515
H 0.6729907686 1.3100677023 1.2508145391
H -0.5565894010 -0.1974494774 2.7410384406
H -1.0269201928 -1.2180102169 1.3902561936
H -2.5919425509 0.7785931429 2.4067306594
H -1.7521627531 1.6822862811 1.1532596191
H -3.3517974088 -0.8836533512 0.7457468369
H -3.9331147621 0.7490239011 0.4294144595
H -2.1160778147 1.0300122688 -1.2803528723
H -1.6592574685 -0.6582877125 -1.0280713970
H -3.1527018615 -0.4517068088 -2.9875974404
H -3.9437729740 -1.3809159661 -1.7130900066
H -4.3936896763 0.3022134051 -1.9849680422
32
CONF323
C 4.0580606899 -1.0338904286 1.3293102450
C 2.7955577431 -0.7010444711 0.5418862247
C 3.0921655031 0.2480989505 -0.6165283030
C 1.8943167400 0.5197866074 -1.5290088903
C 0.7345994137 1.2592068843 -0.8461431422
C -0.3931798670 0.3335918805 -0.3903156846
C -1.5138115854 1.1111133764 0.2979124078
C -2.6130085714 0.2160432177 0.8714260232
C -3.4304095771 -0.5076332752 -0.1970633545
C -4.5893007367 -1.2858314725 0.4154946772
H 4.7931740657 -1.5144403405 0.6873126719
H 3.8295362022 -1.7059189381 2.1530087746
H 4.5014695998 -0.1281800289 1.7373203378
H 2.0688447037 -0.2436102143 1.2146837393
H 2.3601667109 -1.6229687165 0.1494440001
H 3.8933841453 -0.1832219807 -1.2226910591
H 3.4597871846 1.1964883472 -0.2167790476
H 1.5310462792 -0.4261441541 -1.9362768305
H 2.2518589614 1.1184156168 -2.3696539355
H 0.3112008725 1.9870529854 -1.5423009662
H 1.1151230944 1.8186556755 0.0110736054
H -0.0046153795 -0.4176712050 0.2983721124
H -0.7908030536 -0.1885588072 -1.2623847207
H -1.0819378159 1.6967708360 1.1135699374
H -1.9551688561 1.8143035968 -0.4126068488
H -2.1645038828 -0.5206991406 1.5421879460
H -3.2895410040 0.8343846194 1.4669073277
H -3.8205391162 0.2245322958 -0.9078692559
H -2.7892605973 -1.1981014339 -0.7471506256
H -5.1589415106 -1.7958795612 -0.3574933858
H -4.2186023178 -2.0297750209 1.1171720392
H -5.2586461528 -0.6154732102 0.9502826557
32
CONF336
C 3.6354090179 1.9052238571 -0.7260713403
C 3.5061183247 0.4534561914 -0.2798397808
C 2.0774457233 0.1142183178 0.1410132773
C 1.9427510966 -1.3437539852 0.5726228648
C 0.5676452849 -1.7047616648 1.1387171427
C -0.5803940592 -1.5989404898 0.1245856371
C -1.3679769425 -0.2932285788 0.2303008443
C -2.4840217967 -0.2247145627 -0.8106964132
C -3.2267692484 1.1121793873 -0.8172591048
C -4.0417224357 1.3538837446 0.4484366022
H 4.6595038171 2.1274265232 -1.0157932289
H 3.3527449572 2.5774902944 0.0809738626
H 2.9870898789 2.1013868265 -1.5771410696
H 4.1829366907 0.2694750399 0.5578112571
H 3.8065332830 -0.2059484197 -1.0974300170
H 1.4085398429 0.3125967000 -0.6978609631
H 1.7837358772 0.7643083387 0.9687465763
H 2.6940742335 -1.5510098647 1.3394164865
H 2.1599715325 -1.9918883456 -0.2800486350
H 0.3532500754 -1.0643182660 1.9968192532
H 0.6237637374 -2.7315913032 1.5065925722
H -1.2772883802 -2.4256252704 0.2815667211
H -0.1816109637 -1.7029844287 -0.8867745280
H -1.7955042729 -0.2233031159 1.2320061392
H -0.7000683985 0.5581659591 0.0937455337
H -2.0490111696 -0.3860134325 -1.8004770480
H -3.1975167469 -1.0324133121 -0.6303491656
H -2.5057612266 1.9229614415 -0.9443509750
H -3.8997486933 1.1310821375 -1.6778392178
H -4.6132162008 2.2746659731 0.3580884568
H -4.7363568873 0.5334841527 0.6146998419
H -3.3955122332 1.4404790149 1.3176947271
32
CONF292
C 4.6274782258 -0.1919807109 1.2928494459
C 3.8232090643 -0.4604610163 0.0262114218
C 2.3377316658 -0.1637137812 0.2211688277
C 1.5340408945 -0.4244864870 -1.0511394324
C 0.0263269955 -0.2431769079 -0.8666928358
C -0.3722747114 1.2046834490 -0.5881403415
C -1.8801436997 1.4571213748 -0.6566686203
C -2.6913887942 0.7373541022 0.4300417067
C -3.3288387163 -0.5678368176 -0.0453188148
C -4.1119221059 -1.2489356295 1.0713816218
H 5.6801408479 -0.4108905255 1.1314844294
H 4.2682598172 -0.8132056396 2.1103300533
H 4.5343775342 0.8505024013 1.5891648632
H 3.9470612566 -1.5054772972 -0.2674851459
H 4.2092966422 0.1585977422 -0.7869170811
H 2.2224500420 0.8785994755 0.5232155446
H 1.9489244047 -0.7901059670 1.0277057210
H 1.7241416792 -1.4494990005 -1.3798800161
H 1.8839851717 0.2438406322 -1.8417374651
H -0.3077362159 -0.8816939507 -0.0472622564
H -0.4757302592 -0.5748666974 -1.7789802398
H 0.1156652369 1.8474794822 -1.3256954552
H -0.0120395012 1.5018141975 0.3984683837
H -2.0365972037 2.5338829275 -0.5607963540
H -2.2511314127 1.1621863142 -1.6406756047
H -2.0483411495 0.5341660260 1.2888929863
H -3.4923284232 1.3951782246 0.7759313655
H -4.0026344895 -0.3522154281 -0.8780480613
H -2.5587484146 -1.2473213664 -0.4115697890
H -4.5669325511 -2.1693813083 0.7137572581
H -3.4551849385 -1.4910376612 1.9041205234
H -4.9004988553 -0.5951682684 1.4378332991
32
CONF322
C 4.5840658769 1.2802464146 0.4407049133
C 3.4370267918 0.4965861982 -0.1870691108
C 2.6055396883 -0.2264851567 0.8708595372
C 1.5066843165 -1.1131085956 0.2835858631
C 0.3932555654 -0.3250055908 -0.4041850381
C -0.7343112219 -1.2413875102 -0.8787645892
C -1.8952963157 -0.4868098276 -1.5425502267
C -3.0906073979 -0.2350670852 -0.6210592724
C -2.7900654048 0.6864822630 0.5585601594
C -4.0511909332 1.0069995883 1.3532545088
H 4.2003095538 2.0233448926 1.1363160288
H 5.1623459313 1.7920654633 -0.3247581198
H 5.2487332617 0.6133798714 0.9856506039
H 3.8399628174 -0.2365623462 -0.8896716991
H 2.8023544401 1.1835161114 -0.7489497123
H 2.1545330279 0.5104543699 1.5397776649
H 3.2731041014 -0.8503793059 1.4706971190
H 1.0675887919 -1.7033941625 1.0920035896
H 1.9494922455 -1.8123175387 -0.4299038780
H 0.7983439419 0.2060645778 -1.2673900753
H 0.0017647243 0.4194125781 0.2902265965
H -1.1133876051 -1.8198370887 -0.0336157599
H -0.3118379559 -1.9534659098 -1.5915576783
H -1.5325049496 0.4678664920 -1.9293025590
H -2.2551274862 -1.0662937306 -2.3955352078
H -3.8928936841 0.2110788343 -1.2149162417
H -3.4580956304 -1.1922025463 -0.2426496628
H -2.0654951804 0.2107459419 1.2209365713
H -2.3507439713 1.6152617586 0.1871923056
H -4.4999885015 0.0940970065 1.7387387477
H -3.8194315883 1.6573551663 2.1933098474
H -4.7831394851 1.5073020400 0.7228293986
32
CONF307
C 3.5907506281 1.1091222792 -1.7406604810
C 3.3663126145 -0.0473773258 -0.7734868351
C 2.0656786484 0.1113804138 0.0119303588
C 1.8414428424 -1.0498630758 0.9770018975
C 0.6457115132 -0.8665700642 1.9140714543
C -0.7173038992 -0.8335032761 1.2079425085
C -1.2382768448 0.5818345118 0.9573457224
C -2.6508687892 0.6064045181 0.3710562329
C -2.7285293774 0.0796359049 -1.0607368808
C -4.1354984143 0.2156680397 -1.6315700277
H 2.7768618330 1.1679276203 -2.4599146397
H 4.5222744449 0.9772344005 -2.2856798385
H 3.6387949502 2.0522088304 -1.2006942003
H 4.2047071414 -0.1033663950 -0.0751569536
H 3.3379619558 -0.9867571075 -1.3305507515
H 1.2344396570 0.1704544444 -0.6925057564
H 2.0985825878 1.0473413187 0.5747867691
H 2.7390359609 -1.1707860325 1.5896334354
H 1.7109290924 -1.9719462893 0.4051391990
H 0.7790115239 0.0515917805 2.4901859344
H 0.6560168954 -1.6978443213 2.6225869156
H -1.4520612080 -1.3549457783 1.8261442481
H -0.6428917945 -1.3753832384 0.2644322149
H -1.2512209194 1.1183431791 1.9096087709
H -0.5642134884 1.1176346214 0.2880594058
H -3.3158644958 0.0173285393 1.0074608050
H -3.0141649750 1.6372056211 0.3811831866
H -2.0277540383 0.6366067506 -1.6870969921
H -2.4354011539 -0.9710601052 -1.0842307578
H -4.8463331392 -0.3421311451 -1.0258556225
H -4.4429546335 1.2590860468 -1.6444770760
H -4.1755058433 -0.1672804517 -2.6484221540
32
CONF297
C 4.6477985913 -0.1679601721 1.2717428506
C 3.8299583071 -0.4621803203 0.0196138277
C 2.3463010612 -0.1625478957 0.2240043976
C 1.5320457035 -0.4402955757 -1.0379039158
C 0.0258601343 -0.2560690327 -0.8444448604
C -0.3697566298 1.1939300150 -0.5722695376
C -1.8756493628 1.4532836806 -0.6570813219
C -2.7033139913 0.7420910460 0.4226443277
C -3.3271042105 -0.5713762201 -0.0479115375
C -4.1411253684 -1.2334237912 1.0581076743
H 4.2996343489 -0.7745066693 2.1048044238
H 4.5550654033 0.8796611774 1.5492204633
H 5.6991861796 -0.3870596834 1.1025166593
H 3.9516014319 -1.5127663620 -0.2545347440
H 4.2068636946 0.1408026830 -0.8098184510
H 2.2336041963 0.8838584158 0.5125543205
H 1.9644846598 -0.7776588172 1.0424622174
H 1.7192228236 -1.4696290508 -1.3546148122
H 1.8757752182 0.2173856500 -1.8400771953
H -0.3035993865 -0.8891762990 -0.0189401518
H -0.4819181388 -0.5929415811 -1.7516506156
H 0.1280358541 1.8334134030 -1.3061268720
H -0.0180619759 1.4914861938 0.4173149978
H -2.0276002823 2.5311427727 -0.5658583875
H -2.2377140510 1.1574502783 -1.6441617644
H -2.0755225464 0.5525509701 1.2957701766
H -3.5133896085 1.4007169491 0.7450389242
H -3.9775469247 -0.3704797756 -0.9025498043
H -2.5475111434 -1.2570027543 -0.3806494836
H -4.5869915236 -2.1594908961 0.7034002891
H -3.5077763274 -1.4619488657 1.9125270949
H -4.9389215452 -0.5732923845 1.3917561071
32
CONF335
C 4.0440466462 0.2003311283 -1.8038694014
C 3.6651581266 -0.3325406021 -0.4269695024
C 2.2724656768 0.1296180452 -0.0023608261
C 1.8859160141 -0.4194949709 1.3685290187
C 0.5504423707 0.1061557572 1.8994519346
C -0.6701886014 -0.3249121460 1.0725101301
C -1.1572297181 0.7611607294 0.1127172034
C -2.2707713707 0.2867244181 -0.8224001202
C -3.5837696840 -0.0197072121 -0.1043396773
C -4.6919241660 -0.3756434933 -1.0888709894
H 3.3371407602 -0.1466658224 -2.5543978007
H 5.0382407704 -0.1380348208 -2.0853272641
H 4.0377439633 1.2881377530 -1.8054134505
H 4.3983766268 0.0074224092 0.3082719273
H 3.6933759399 -1.4246579942 -0.4400099999
H 1.5493727393 -0.2018167362 -0.7492683634
H 2.2509662535 1.2217644670 0.0269970551
H 2.6687461860 -0.1533732634 2.0839415931
H 1.8464264735 -1.5105592353 1.3196252201
H 0.5875418545 1.1963576034 1.9492448528
H 0.4365371552 -0.2608283266 2.9217535244
H -1.4860602666 -0.5801047960 1.7503757677
H -0.4249675439 -1.2252983769 0.5054768039
H -1.5163343537 1.6149351665 0.6927947251
H -0.3195099598 1.1066842684 -0.4947179072
H -2.4559734573 1.0660296807 -1.5661196187
H -1.9367576295 -0.6054593541 -1.3577483376
H -3.4411058959 -0.8517285203 0.5869125910
H -3.8847159254 0.8526118305 0.4804783282
H -4.8721550901 0.4489245720 -1.7752060637
H -4.4152967149 -1.2512193896 -1.6720616548
H -5.6176650380 -0.5924488803 -0.5613808912
32
CONF287
C 3.4881222291 1.0461505983 -1.8313885118
C 3.3060506935 -0.0642003103 -0.8031518494
C 2.0266716198 0.1178723755 0.0115440910
C 1.8433987498 -1.0000375711 1.0347349129
C 0.6566829476 -0.7974130148 1.9792795561
C -0.7128099150 -0.8126320309 1.2848224944
C -1.2686932090 0.5862171173 1.0174864589
C -2.6515337281 0.5685530185 0.3638269410
C -2.6334051071 0.0923579202 -1.0876136623
C -4.0165968619 0.1767983882 -1.7227239578
H 2.6541544528 1.0594358701 -2.5296355471
H 4.4061208153 0.8989908710 -2.3951783336
H 3.5381286530 2.0152222053 -1.3397621946
H 4.1648613580 -0.0771600591 -0.1278845321
H 3.2732084982 -1.0297408807 -1.3132748095
H 1.1748694724 0.1360572502 -0.6702851828
H 2.0651755921 1.0790834554 0.5297970730
H 2.7524984873 -1.0726075133 1.6378695876
H 1.7243135566 -1.9508478112 0.5092231377
H 0.7816878733 0.1457049374 2.5154978814
H 0.6881794995 -1.5984202198 2.7211254823
H -1.4302486628 -1.3435555578 1.9150217070
H -0.6314930697 -1.3663169036 0.3488241274
H -1.3424685712 1.1150681283 1.9712637967
H -0.5813202146 1.1475798345 0.3834837794
H -3.3179879724 -0.0729358391 0.9455803240
H -3.0632528775 1.5806370219 0.3904938945
H -1.9344964586 0.7083928519 -1.6584271344
H -2.2832397819 -0.9400315567 -1.1342066672
H -4.3805942566 1.2018125719 -1.7092846085
H -3.9859506538 -0.1638005813 -2.7548335560
H -4.7236446839 -0.4437440080 -1.1766847968
32
CONF291
C 3.5057054786 1.0538589652 -1.8181232451
C 3.3176451702 -0.0619304750 -0.7968058885
C 2.0353916506 0.1178030203 0.0138339521
C 1.8433077659 -1.0080384539 1.0266322994
C 0.6538566194 -0.8084694828 1.9683352374
C -0.7132860931 -0.8139047652 1.2690862920
C -1.2623148153 0.5883101956 1.0052590019
C -2.6510830657 0.5789390164 0.3642117251
C -2.6522272812 0.0836981846 -1.0809716471
C -4.0386757111 0.1825724769 -1.7067309213
H 2.6749341841 1.0718604422 -2.5200437482
H 4.4260953225 0.9088025431 -2.3785202181
H 3.5543898203 2.0201005700 -1.3209314454
H 4.1737980824 -0.0803010426 -0.1182946090
H 3.2850464095 -1.0244831074 -1.3125537072
H 1.1868081581 0.1448182379 -0.6716943944
H 2.0748722436 1.0744673391 0.5403481501
H 2.7497040764 -1.0896860413 1.6326599750
H 1.7223033969 -1.9537726417 0.4924769915
H 0.7802114498 0.1300500892 2.5122269533
H 0.6797860596 -1.6152786005 2.7040981909
H -1.4352358910 -1.3440369827 1.8947796051
H -0.6311492381 -1.3640705964 0.3310966225
H -1.3245014189 1.1187782547 1.9589650929
H -0.5770748838 1.1446489162 0.3645517119
H -3.3198102685 -0.0469929124 0.9601424598
H -3.0502581513 1.5962340326 0.3817679135
H -1.9476466637 0.6801924739 -1.6652485560
H -2.3198979654 -0.9549501467 -1.1162613566
H -4.0224184816 -0.1760347804 -2.7331055692
H -4.7523294414 -0.4157847618 -1.1447133223
H -4.3842773959 1.2141276608 -1.7081210496
32
CONF321
C 4.5882485946 1.2718499950 0.4475014749
C 3.4416431352 0.4906734490 -0.1840323649
C 2.6029137937 -0.2272367610 0.8715744812
C 1.5030646167 -1.1106125155 0.2812968970
C 0.3940409731 -0.3191558697 -0.4097497695
C -0.7355811026 -1.2318599721 -0.8866346376
C -1.8948719152 -0.4724997975 -1.5480084664
C -3.0916939262 -0.2273458979 -0.6266450550
C -2.7915944457 0.6828680748 0.5617944732
C -4.0513335627 0.9877295187 1.3647261873
H 5.2478552487 0.6040094600 0.9973073699
H 4.2036742486 2.0179860813 1.1393941365
H 5.1720309386 1.7797547929 -0.3163262562
H 3.8454055915 -0.2453071855 -0.8831109211
H 2.8118935927 1.1783872684 -0.7503567077
H 2.1520077467 0.5125650677 1.5373118153
H 3.2655873301 -0.8525558362 1.4752349149
H 1.0597867251 -1.6992751949 1.0886050696
H 1.9456841402 -1.8114148784 -0.4307107789
H 0.8029749850 0.2103411286 -1.2721101196
H 0.0032205953 0.4268363269 0.2833931275
H -1.1160027105 -1.8114475797 -0.0428604174
H -0.3149760083 -1.9432966358 -1.6011218773
H -1.5310782704 0.4848487652 -1.9271556497
H -2.2531241492 -1.0457658256 -2.4058441017
H -3.8924161124 0.2251657490 -1.2177614289
H -3.4610048397 -1.1873874800 -0.2574395561
H -2.0621201947 0.2037419016 1.2162219468
H -2.3584562060 1.6179151375 0.1990607809
H -4.4944638846 0.0680321810 1.7404755212
H -3.8194831112 1.6286445719 2.2119871393
H -4.7879532204 1.4923632721 0.7432703251
32
CONF285
C 3.4337168798 1.0728559981 1.8405556150
C 3.2765645683 -0.0480674909 0.8196034333
C 2.0111008869 0.1206280335 -0.0191478255
C 1.8468734651 -1.0083378950 -1.0332708471
C 0.6621151885 -0.8250109401 -1.9842050142
C -0.7079961479 -0.8421648923 -1.2905522829
C -1.2812089482 0.5560412183 -1.0584795922
C -2.6499936648 0.5388549132 -0.3758129656
C -2.5905709880 0.1321886537 1.0956105379
C -3.9624144527 0.2119945812 1.7551958749
H 3.4897153132 2.0373120071 1.3405398244
H 4.3403598344 0.9351562606 2.4245468664
H 2.5855307582 1.0894671376 2.5213486013
H 3.2388620202 -1.0087784409 1.3384182178
H 4.1475851842 -0.0633749724 0.1603350401
H 2.0551598985 1.0763673077 -0.5471424708
H 1.1479548009 0.1434271811 0.6482047047
H 1.7344218630 -1.9556240468 -0.4999490383
H 2.7599625979 -1.0769382277 -1.6307286110
H 0.7012006355 -1.6328888584 -2.7180887481
H 0.7816538612 0.1137230457 -2.5292891644
H -0.6199536884 -1.3706682144 -0.3407219565
H -1.4183368324 -1.3985605739 -1.9065089827
H -0.5901818161 1.1484733446 -0.4573933664
H -1.3816712856 1.0514737276 -2.0276297903
H -3.0855031295 1.5391773953 -0.4402642862
H -3.3131876072 -0.1438235802 -0.9126405017
H -2.2126477554 -0.8876924748 1.1832028903
H -1.8967641817 0.7918745444 1.6221426335
H -4.3522956963 1.2261872798 1.7026265359
H -4.6644274120 -0.4500881478 1.2532069620
H -3.9025038357 -0.0795553612 2.8009938183
32
CONF294
C 4.0369205991 1.2013439312 1.1987427637
C 3.3138784629 0.5737574601 0.0123836154
C 2.6686143618 -0.7597950143 0.3881976598
C 1.8946858047 -1.4141507464 -0.7653938104
C 0.3822960585 -1.1859824361 -0.7132691179
C -0.0271763693 0.2727357056 -0.9042624382
C -1.5382757982 0.4576516074 -1.0537276707
C -2.3153627216 0.1456939354 0.2236807497
C -3.8023717008 0.4620421735 0.0782718171
C -4.5757665168 0.1532929711 1.3549413583
H 4.4975881387 2.1434862595 0.9118346719
H 4.8148279198 0.5358973409 1.5668679694
H 3.3395474968 1.3931492477 2.0113945663
H 4.0273148691 0.4081448325 -0.7984373391
H 2.5542200089 1.2653427052 -0.3533025143
H 1.9973968007 -0.6098170213 1.2363933115
H 3.4609189851 -1.4347370390 0.7204717749
H 2.0654495180 -2.4926733622 -0.7414188242
H 2.2827734666 -1.0457522016 -1.7175037108
H 0.0063412093 -1.5511328110 0.2441857523
H -0.0831547074 -1.7842085665 -1.5011258046
H 0.4606490639 0.6573534547 -1.8034761554
H 0.3163433803 0.8657506824 -0.0551804371
H -1.7357159267 1.4948179013 -1.3368570911
H -1.9030940280 -0.1788285055 -1.8635555269
H -2.2018746586 -0.9098104348 0.4766963564
H -1.9028047277 0.7326965412 1.0479374237
H -3.9235430731 1.5185323162 -0.1724768037
H -4.2152969954 -0.1223952177 -0.7472035732
H -5.6300194605 0.3880047335 1.2304041421
H -4.4855479889 -0.9004328616 1.6093313669
H -4.1885123939 0.7397705186 2.1852393791
32
CONF326
C 2.7543372100 0.8870961235 1.6085896436
C 3.6071793091 0.2983690642 0.4889555333
C 3.0143384782 -0.9779006268 -0.1264076237
C 2.2704917066 -0.7547608712 -1.4459518885
C 1.0230743920 0.1251417312 -1.3594071303
C -0.1045356262 -0.4973773068 -0.5390760259
C -1.3517098798 0.3838464280 -0.5313833912
C -2.4835207725 -0.2266049571 0.2918124866
C -3.7285765707 0.6575380715 0.3023304754
C -4.8568544611 0.0419832881 1.1214821160
H 2.6452199053 0.1678713467 2.4177635265
H 1.7634619727 1.1539677591 1.2531602336
H 3.2254315057 1.7818997736 2.0100879564
H 4.5935564800 0.0720203503 0.8999845076
H 3.7481549367 1.0466035650 -0.2936090098
H 2.3509964839 -1.4559192193 0.5952686125
H 3.8243911349 -1.6818596065 -0.3308250514
H 1.9810264213 -1.7299451807 -1.8463805225
H 2.9639515258 -0.3017963336 -2.1593028292
H 0.6576347030 0.2987928920 -2.3751754231
H 1.2867228269 1.0978810187 -0.9418025220
H 0.2250028310 -0.6522802411 0.4894955393
H -0.3555133215 -1.4753891445 -0.9569040452
H -1.0979462713 1.3649850760 -0.1217994868
H -1.6939331321 0.5359378803 -1.5580658574
H -2.7406344212 -1.2059269149 -0.1188966258
H -2.1418888395 -0.3790335157 1.3184760669
H -3.4714502906 1.6353891064 0.7159292048
H -4.0681253271 0.8124588610 -0.7243176818
H -5.1426642556 -0.9235733905 0.7101695950
H -4.5421120535 -0.1050743982 2.1522258356
H -5.7299770192 0.6898084773 1.1174689345
32
CONF327
C 4.8574177908 -0.0372982702 -1.1215647728
C 3.7291215789 -0.6590659328 -0.3071152264
C 2.4848979587 0.2260695140 -0.2897294501
C 1.3518240873 -0.3884925789 0.5286466897
C 0.1067407843 0.4956123971 0.5412942663
C -1.0230524571 -0.1272951841 1.3582575858
C -2.2679561424 0.7560490084 1.4462140860
C -3.0133383645 0.9789095694 0.1274907160
C -3.6088683967 -0.2973822653 -0.4852957961
C -2.7606543466 -0.8852162520 -1.6089480709
H 4.5433498147 0.1157872368 -2.1516258975
H 5.7313832985 -0.6839900680 -1.1207594921
H 5.1416199591 0.9260613880 -0.7041006107
H 4.0686897326 -0.8222997546 0.7182724532
H 3.4714250047 -1.6334443718 -0.7285063325
H 2.1435330519 0.3866695126 -1.3152445333
H 2.7431530914 1.2019827943 0.1283591089
H 1.6931404142 -0.5482046845 1.5544470929
H 1.0963800007 -1.3662838566 0.1122332596
H -0.2223561815 0.6568565852 -0.4864684790
H 0.3604990653 1.4707449132 0.9641719268
H -0.6591246762 -0.3057494476 2.3737203144
H -1.2889767337 -1.0976706735 0.9366970031
H -2.9614587238 0.3063288454 2.1615287033
H -1.9749643034 1.7310662320 1.8444410077
H -3.8219450512 1.6844482091 0.3321071622
H -2.3501921936 1.4549652503 -0.5956632671
H -3.7458202327 -1.0458525495 0.2977513200
H -4.5972815138 -0.0714030163 -0.8916092684
H -3.2329155203 -1.7803960624 -2.0082583642
H -2.6558516642 -0.1658602725 -2.4186202400
H -1.7678381515 -1.1512905437 -1.2581383480
32
CONF390
C 4.4510403380 0.5465006371 0.9945704039
C 3.5716993805 -0.6809534965 0.7822672488
C 2.6008545856 -0.5365318866 -0.3908793801
C 1.5319172234 0.5306509809 -0.1614933232
C 0.4988756255 0.5923049576 -1.2896963249
C -0.4982042136 -0.5694548389 -1.2995876966
C -1.5299475709 -0.5275695920 -0.1693343880
C -2.5997754222 0.5428492427 -0.3791757123
C -3.5698845504 0.6651859891 0.7970542724
C -4.4562430091 -0.5618935353 0.9800730978
H 5.1794381405 0.3560732426 1.7793683802
H 3.8560189934 1.4074184752 1.2871986064
H 4.9872964873 0.7917751812 0.0804592889
H 3.0052428781 -0.8829691569 1.6944260899
H 4.2141933134 -1.5449690123 0.5953884976
H 2.1169116598 -1.5015871802 -0.5534220640
H 3.1632521434 -0.2931499630 -1.2956749916
H 2.0144279830 1.5067230550 -0.0875829155
H 1.0310287061 0.3390672492 0.7890801817
H 1.0299137368 0.6049662279 -2.2446340715
H -0.0510209820 1.5319618623 -1.2131291790
H 0.0516992957 -1.5103364270 -1.2402669196
H -1.0302044296 -0.5651350909 -2.2540651588
H -2.0117512221 -1.5050979356 -0.1111849461
H -1.0280121482 -0.3516918201 0.7837725599
H -2.1164674572 1.5109478899 -0.5249226178
H -3.1625569739 0.3151449249 -1.2878237767
H -3.0022927789 0.8421427665 1.7135918635
H -4.2074390316 1.5369463179 0.6310102560
H -3.8658957949 -1.4336464266 1.2488697685
H -5.1816026895 -0.3873395924 1.7712874629
H -4.9961408352 -0.7802155869 0.0613510617
32
CONF339
C 3.9632484314 0.1002026078 1.8544343450
C 3.6118202560 -0.3780735603 0.4504617334
C 2.2425831289 0.1309481501 0.0039620926
C 1.8824439180 -0.3598310303 -1.3959407383
C 0.5620247941 0.1974197811 -1.9325331177
C -0.6733359186 -0.2445718665 -1.1337773289
C -1.1642025338 0.8220907008 -0.1537127446
C -2.2315575209 0.3088813206 0.8137179473
C -3.5428752639 -0.0762147981 0.1317592435
C -4.6066931709 -0.4745674724 1.1484181410
H 4.9400266196 -0.2724566408 2.1530135899
H 3.2261890581 -0.2528169562 2.5723337889
H 3.9834775132 1.1871447407 1.8919685631
H 3.6142738674 -1.4703609995 0.4278675625
H 4.3732438517 -0.0320428488 -0.2524495027
H 2.2459079583 1.2237076351 0.0139599227
H 1.4916468517 -0.2103836591 0.7182248829
H 1.8326128997 -1.4516125733 -1.3907037827
H 2.6827339062 -0.0731736940 -2.0834860144
H 0.4593949448 -0.1382923706 -2.9666967057
H 0.6116126644 1.2881274588 -1.9496717530
H -0.4410440096 -1.1599907033 -0.5856879800
H -1.4822484904 -0.4781227637 -1.8276173978
H -0.3195784412 1.1906677131 0.4301396566
H -1.5665304303 1.6671098284 -0.7179626070
H -1.8407257206 -0.5567404726 1.3543935573
H -2.4383897212 1.0898574904 1.5499679058
H -3.9029503690 0.7698849927 -0.4580751929
H -3.3720362102 -0.9102820217 -0.5505608493
H -4.8157303261 0.3508333765 1.8255104556
H -5.5312011426 -0.7510056168 0.6473881730
H -4.2685456381 -1.3232725882 1.7389418575
32
CONF333
C 4.6909285565 0.3516718002 -1.0983645676
C 3.5820320405 0.0231832969 -0.1051855148
C 2.2709282361 -0.3080912395 -0.8157308399
C 1.1582320066 -0.7609496162 0.1309708046
C 0.6706967570 0.3469794499 1.0652010310
C -0.5499570304 -0.0656348321 1.9014310072
C -1.8855168272 0.4480374320 1.3591244890
C -2.2707481023 -0.1273860534 -0.0013208564
C -3.6639875895 0.3253016486 -0.4344405975
C -4.0464036076 -0.2402533010 -1.7972346710
H 4.8767349976 -0.4942288350 -1.7566879328
H 5.6143072589 0.5902862555 -0.5761995341
H 4.4115037861 1.2061572383 -1.7107861061
H 3.4362686694 0.8755198133 0.5602156045
H 3.8841918882 -0.8302021831 0.5063540246
H 2.4597716668 -1.1069446296 -1.5374605013
H 1.9340870016 0.5677033570 -1.3757972114
H 1.5183281124 -1.6004279843 0.7309764325
H 0.3205285159 -1.1214412239 -0.4677372007
H 0.4254322592 1.2340555364 0.4775963135
H 1.4862688510 0.6178016177 1.7373269131
H -0.4362280929 0.3240444038 2.9153546007
H -0.5869788850 -1.1544873410 1.9755364874
H -2.6685164728 0.1945107978 2.0789181974
H -1.8474047858 1.5380387618 1.2895536854
H -1.5478580871 0.1907060848 -0.7542772552
H -2.2480778070 -1.2188008455 0.0486103871
H -4.3958031753 0.0034681506 0.3102390062
H -3.6916421456 1.4167768202 -0.4734889832
H -4.0414529161 -1.3277536807 -1.7726699571
H -5.0407798942 0.0926126566 -2.0846300900
H -3.3407753229 0.0877084465 -2.5573516503
32
CONF324
C 4.7233153083 0.2876022430 -0.0387259200
C 3.8171761572 -0.5791676393 -0.9060777578
C 2.3746830088 -0.0744588665 -0.9645493142
C 1.6385851146 -0.1823948189 0.3695309159
C 0.1686750289 0.2130330570 0.2401943343
C -0.5643774121 0.1114157897 1.5753737882
C -2.0126246343 0.6037650703 1.5335607995
C -2.9380015951 -0.2358156463 0.6410742951
C -3.1790422707 0.3792031359 -0.7372750051
C -4.0728150481 -0.5060084680 -1.5984224549
H 5.7504703972 -0.0644509036 -0.0985458813
H 4.4143853946 0.2546503124 1.0025522974
H 4.6945445069 1.3215932795 -0.3752692522
H 3.8240844667 -1.6035275472 -0.5266792536
H 4.2184026913 -0.6007839359 -1.9221303093
H 1.8315423951 -0.6588246761 -1.7116703453
H 2.3710385495 0.9669244417 -1.2951212694
H 2.1161352371 0.4637289102 1.1080411853
H 1.7038053563 -1.2103891314 0.7346650519
H -0.3088665439 -0.4397413066 -0.4922453022
H 0.1036330570 1.2390728504 -0.1300546178
H -0.0220522627 0.7042121994 2.3168104725
H -0.5497439614 -0.9274575812 1.9141974295
H -2.3941811843 0.5885055858 2.5568030090
H -2.0291845074 1.6424798311 1.1968756639
H -2.5182342874 -1.2368091646 0.5218697154
H -3.9071956300 -0.3500822899 1.1322075988
H -3.6517520283 1.3564139309 -0.6130810641
H -2.2277063326 0.5360460525 -1.2469682827
H -5.0342779141 -0.6627731029 -1.1140772262
H -4.2471117648 -0.0464842156 -2.5682912031
H -3.6083132703 -1.4769619335 -1.7565574230
32
CONF319
C 3.5062924604 -1.3578735711 1.5051314915
C 2.7126535513 -1.0427093253 0.2422902944
C 2.8589948809 0.4236729411 -0.1635422191
C 2.0491208022 0.7978623508 -1.4130349305
C 0.7089118269 1.4735866907 -1.1145858568
C -0.2874512869 0.5829543706 -0.3762419738
C -1.6496012221 1.2610919956 -0.2376172881
C -2.6391966247 0.4657399098 0.6148946726
C -3.0712707046 -0.8530205589 -0.0236639143
C -4.1440133844 -1.5519524137 0.8036614805
H 3.1521145667 -0.7542862545 2.3380884561
H 4.5625908214 -1.1452399984 1.3547449790
H 3.4010717021 -2.4067350206 1.7717405147
H 1.6616558739 -1.2805113983 0.4089910253
H 3.0683817121 -1.6750853168 -0.5746475070
H 3.9182415278 0.6165891962 -0.3491891079
H 2.5571242635 1.0619282921 0.6694587828
H 1.8744590502 -0.0980355138 -2.0126720739
H 2.6355063899 1.4875942248 -2.0240584645
H 0.2624871540 1.7836805352 -2.0632005439
H 0.8874674974 2.3777222036 -0.5271196913
H 0.0929741140 0.3537606184 0.6204093982
H -0.3971478634 -0.3547304269 -0.9237315291
H -1.5052805530 2.2426245947 0.2211532814
H -2.0770101685 1.4222089661 -1.2302685289
H -2.1926629369 0.2634908279 1.5914569289
H -3.5281896412 1.0795936112 0.7805781878
H -3.4569961816 -0.6566991867 -1.0267177646
H -2.2097302439 -1.5153380784 -0.1212738465
H -5.0271998697 -0.9231255144 0.8929256757
H -4.4356463538 -2.4902903021 0.3381731125
H -3.7737995428 -1.7647699450 1.8041295605
32
CONF340
C 3.9528879763 0.1153426671 -1.8587104201
C 3.6094395956 -0.3701647794 -0.4552274878
C 2.2400292527 0.1316197990 -0.0012084839
C 1.8838551315 -0.3717625994 1.3952240219
C 0.5626284415 0.1769677508 1.9386731856
C -0.6721339415 -0.2573315420 1.1348120695
C -1.1622457982 0.8191636598 0.1651267656
C -2.2271633879 0.3153760539 -0.8098803237
C -3.5415405886 -0.0724283523 -0.1354646661
C -4.6018837828 -0.4624473878 -1.1589689593
H 3.9680074061 1.2024999633 -1.8919956065
H 3.2143584762 -0.2381408265 -2.5748845176
H 4.9300351342 -0.2516909918 -2.1629547364
H 4.3724207243 -0.0241237556 0.2459730415
H 3.6162103564 -1.4625236882 -0.4373127866
H 1.4885224091 -0.2058106091 -0.7167033281
H 2.2405574744 1.2244240093 -0.0021773074
H 2.6844393773 -0.0885844386 2.0838662211
H 1.8371771186 -1.4636074922 1.3808301049
H 0.6104251812 1.2674764084 1.9688150164
H 0.4607507271 -0.1712460130 2.9687762276
H -1.4815393627 -0.4980092702 1.8256609000
H -0.4392123811 -1.1672214355 0.5778441171
H -1.5663888696 1.6577993612 0.7375359845
H -0.3168869045 1.1946936417 -0.4131315547
H -2.4300834898 1.1023730270 -1.5407908479
H -1.8360387820 -0.5467597221 -1.3558960552
H -3.3744501677 -0.9111490100 0.5420757056
H -3.9027175301 0.7703117214 0.4584945290
H -4.2630734492 -1.3083488006 -1.7531212562
H -5.5291368777 -0.7398063172 -0.6635746341
H -4.8062036236 0.3674443139 -1.8320137621
32
CONF449
C 3.1440193847 -2.0005191794 -0.7157345236
C 2.3535013552 -1.0764379749 0.2034348342
C 2.5384281603 0.3899222333 -0.1812506200
C 1.8872664689 1.3684076751 0.7980503943
C 0.3672076068 1.2457681358 0.9269603967
C -0.3736811543 1.5402835256 -0.3771147598
C -1.9003735944 1.5774862686 -0.2161410012
C -2.6109533865 0.2799604145 -0.6072502554
C -2.2708622560 -0.9149776425 0.2799463435
C -3.1353808653 -2.1253418027 -0.0549377075
H 2.9941256034 -3.0402490574 -0.4349916378
H 4.2073401398 -1.7784213480 -0.6575948215
H 2.8250758834 -1.8736158128 -1.7480346950
H 2.6812184871 -1.2223641578 1.2353482710
H 1.2967277605 -1.3427282509 0.1491734422
H 2.1437653040 0.5534237072 -1.1855319277
H 3.6091832596 0.6079663448 -0.2152089858
H 2.1297829006 2.3858921092 0.4805099756
H 2.3298716989 1.2183915469 1.7861638479
H 0.0367284935 1.9634715904 1.6826653618
H 0.1093718466 0.2521651510 1.2914165611
H -0.1143003374 0.7944313254 -1.1292388412
H -0.0289899208 2.5093010918 -0.7463200195
H -2.1511500125 1.8258771714 0.8174633324
H -2.3029974021 2.3731891974 -0.8469911132
H -3.6893314882 0.4532165556 -0.5567441545
H -2.3681233604 0.0364740506 -1.6446444330
H -1.2216142995 -1.1831514506 0.1481480498
H -2.4201304959 -0.6411501924 1.3268560983
H -4.1881767765 -1.8951524863 0.0936797450
H -2.9933448196 -2.4188776744 -1.0927799254
H -2.8751619638 -2.9690507252 0.5797516026
32
CONF345
C 3.9511270318 0.1123694394 -1.8596213844
C 3.6071818234 -0.3733052980 -0.4563184697
C 2.2397024158 0.1324285306 -0.0008959785
C 1.8836495150 -0.3693314866 1.3961376255
C 0.5628562986 0.1807917630 1.9392334949
C -0.6722394766 -0.2542443378 1.1362566995
C -1.1628170709 0.8213805872 0.1658380558
C -2.2262719281 0.3160874598 -0.8099670731
C -3.5388987327 -0.0783016210 -0.1359300560
C -4.6003619715 -0.4632923006 -1.1601755262
H 3.2101971391 -0.2369961789 -2.5753403296
H 4.9262938213 -0.2585665014 -2.1654818373
H 3.9709671763 1.1994867310 -1.8916063073
H 4.3718077281 -0.0304014812 0.2446301161
H 3.6104043403 -1.4656949261 -0.4394115831
H 1.4864852896 -0.2032640841 -0.7153979933
H 2.2431804386 1.2252271630 -0.0023470111
H 2.6846303721 -0.0860378477 2.0842680712
H 1.8361906865 -1.4611554131 1.3828288898
H 0.6111226884 1.2713217334 1.9677021464
H 0.4611025637 -0.1658018426 2.9698914710
H -1.4814093795 -0.4943461617 1.8275768468
H -0.4394761630 -1.1645928809 0.5799774854
H -1.5685139552 1.6596292259 0.7377146552
H -0.3174682534 1.1979067069 -0.4118041248
H -2.4323230193 1.1042221077 -1.5387733397
H -1.8322239786 -0.5432120047 -1.3583488724
H -3.3692434662 -0.9211976485 0.5357716260
H -3.9004751047 0.7598935119 0.4641768522
H -4.2606361538 -1.3037512233 -1.7614811505
H -5.5258551525 -0.7468044262 -0.6649727737
H -4.8082401705 0.3711864948 -1.8264225106
32
CONF436
C 3.0535529415 -2.1783867417 0.1392572681
C 2.3834154870 -0.9017780165 0.6340710284
C 2.4578220207 0.2122053964 -0.4082541966
C 1.8996546076 1.5490480569 0.0839398955
C 0.3950248478 1.5586050951 0.3633763986
C -0.4525213737 1.3999477289 -0.8987656604
C -1.9622837407 1.4598092079 -0.6227786957
C -2.6442812445 0.0910808347 -0.5689868650
C -2.1642374865 -0.8014872760 0.5727049106
C -2.9720918648 -2.0919368243 0.6529566506
H 2.5715245194 -2.5335724055 -0.7690367397
H 2.9888465229 -2.9611167181 0.8912220559
H 4.1036876898 -1.9979224487 -0.0800224020
H 2.8710958141 -0.5675765490 1.5528078627
H 1.3409259901 -1.1187314676 0.8725396373
H 1.9304876442 -0.1009642923 -1.3108943648
H 3.5058064911 0.3610337755 -0.6813597310
H 2.1191792452 2.3145541124 -0.6647683646
H 2.4251837581 1.8265206702 1.0012300609
H 0.1435307374 2.5156238810 0.8283048603
H 0.1493362623 0.7767258746 1.0809570325
H -0.2182516184 0.4543735850 -1.3887577655
H -0.1786420071 2.2000037758 -1.5906451904
H -2.1392335756 1.9857632912 0.3179073174
H -2.4471342617 2.0376164302 -1.4126692154
H -3.7207230069 0.2478689272 -0.4594257023
H -2.4847584823 -0.4262163740 -1.5184687512
H -1.1126874409 -1.0514526382 0.4242120976
H -2.2528663460 -0.2588399652 1.5167616062
H -2.8892102722 -2.6508155126 -0.2766906767
H -2.6117397042 -2.7194820847 1.4645872372
H -4.0235026441 -1.8739809486 0.8275970343
32
CONF311
C 2.9599612735 -1.2409258554 -1.7417702471
C 3.5817801627 -0.3852062223 -0.6435542429
C 2.6168896146 0.6524660683 -0.0681380406
C 1.4473178498 0.0347684747 0.6960769189
C 0.5865553122 1.1041504383 1.3683314405
C -0.6450791601 0.5311480742 2.0844807060
C -1.9441972848 0.6443590980 1.2837613216
C -1.9517731065 -0.1650958267 -0.0104912910
C -3.3118017655 -0.1146727841 -0.7041881164
C -3.3156823075 -0.9128491956 -2.0027021368
H 3.7080756910 -1.9022797590 -2.1725185169
H 2.5618041691 -0.6108669004 -2.5341199688
H 2.1528750972 -1.8533505821 -1.3490432179
H 4.4494139599 0.1375836346 -1.0532615168
H 3.9365933292 -1.0315125393 0.1625486555
H 2.2298720901 1.2723790254 -0.8805711182
H 3.1714588377 1.3073307238 0.6090689011
H 1.8365270361 -0.6420121581 1.4609340650
H 0.8334816344 -0.5523954293 0.0142376106
H 0.2657422413 1.8333044096 0.6214412908
H 1.2098839509 1.6372887514 2.0900645726
H -0.7915978831 1.0651318387 3.0258197620
H -0.4651928344 -0.5172731826 2.3313563082
H -2.7680511566 0.3007396373 1.9151525969
H -2.1291749202 1.6958376289 1.0500319143
H -1.1953341863 0.2253081211 -0.6931125110
H -1.7015513584 -1.2052225612 0.2124893738
H -4.0755425138 -0.5120158703 -0.0315524246
H -3.5687732817 0.9257190484 -0.9167450137
H -3.0796145221 -1.9566828505 -1.8080763230
H -4.2916468573 -0.8642470430 -2.4795281556
H -2.5749025924 -0.5181541573 -2.6945246228
32
CONF337
C 4.8363034478 1.0246171088 0.6799069791
C 3.8264710311 -0.0929781408 0.4469736386
C 2.4588956990 0.4510894550 0.0400415600
C 1.4419846904 -0.6632932219 -0.1954011046
C 0.0742361078 -0.1169194206 -0.5991433209
C -0.9356415241 -1.2376232232 -0.8445511078
C -2.3304728610 -0.7325049079 -1.2422808058
C -3.3472857283 -0.7307336902 -0.0977461832
C -3.0341651516 0.2205747239 1.0576834363
C -3.1079716839 1.6905720633 0.6607083915
H 5.8012255248 0.6147649192 0.9679927423
H 4.4938764427 1.6878490443 1.4710907243
H 4.9685307539 1.6125870309 -0.2255961159
H 3.7214177658 -0.6835140384 1.3599907193
H 4.1960319576 -0.7589920976 -0.3361129159
H 2.5639702851 1.0421690141 -0.8729507361
H 2.0892821535 1.1173206475 0.8232995087
H 1.3388926891 -1.2557241250 0.7171484830
H 1.8112337094 -1.3293776595 -0.9791961561
H 0.1803903910 0.4748145579 -1.5119730700
H -0.2874306278 0.5492281344 0.1850832091
H -1.0145892418 -1.8557487909 0.0523182490
H -0.5428656036 -1.8752061714 -1.6400683570
H -2.2486707608 0.2695232450 -1.6649697526
H -2.7310227173 -1.3782745994 -2.0269165216
H -4.3261314588 -0.4678264997 -0.5074657947
H -3.4215081764 -1.7466821682 0.2987199750
H -3.7592194649 0.0369114465 1.8547529957
H -2.0458557471 -0.0037095842 1.4609686464
H -2.3566085405 1.9332360133 -0.0860853176
H -4.0879492731 1.9228674722 0.2493438356
H -2.9410298454 2.3246109133 1.5285283144
32
CONF348
C 5.1076156707 0.5800807651 -0.0732795850
C 3.7155951369 0.1335982953 0.3587183895
C 2.8962474312 -0.3756018124 -0.8256539599
C 1.5268409386 -0.9278775306 -0.4278802048
C 0.5583268880 0.1448381145 0.0664582563
C -0.8254354586 -0.4321760664 0.3580227893
C -1.7928024353 0.6370361008 0.8650228419
C -3.2111992351 0.1052772277 1.1170095407
C -4.2007377734 0.4018277322 -0.0119748865
C -3.8603589637 -0.2871563772 -1.3279902246
H 5.0393290066 1.3835098979 -0.8034178272
H 5.6505461560 -0.2471712922 -0.5253941308
H 5.6767366467 0.9390680735 0.7807796300
H 3.2019867828 0.9736132274 0.8288824727
H 3.8042805381 -0.6620630998 1.1020694769
H 3.4607312414 -1.1686259077 -1.3226134724
H 2.7626938236 0.4344984136 -1.5465642871
H 1.6554892136 -1.6843067086 0.3499533239
H 1.0845044446 -1.4216827479 -1.2967770979
H 0.4704882899 0.9264740442 -0.6922067397
H 0.9488601870 0.6066098618 0.9749501746
H -0.7340528196 -1.2173773226 1.1126519840
H -1.2199458414 -0.8925323010 -0.5485318201
H -1.3889599777 1.0450331529 1.7945256180
H -1.8349463301 1.4578379575 0.1459409328
H -3.1692078345 -0.9731913662 1.2830862627
H -3.6060517110 0.5587690556 2.0287802513
H -5.1935527993 0.0766682762 0.3090191775
H -4.2456139547 1.4817319532 -0.1719515778
H -3.7658681877 -1.3610114256 -1.1819952523
H -4.6460305010 -0.1086500963 -2.0588660786
H -2.9276654125 0.0929653373 -1.7355708113
32
CONF308
C 2.9470118159 -1.1971975087 -1.7791874989
C 3.5761920464 -0.4013362559 -0.6408701356
C 2.6306171679 0.6386629570 -0.0381026826
C 1.4454750925 0.0225320159 0.7029799871
C 0.5898455385 1.0909030823 1.3831991879
C -0.6486518458 0.5201171160 2.0890942752
C -1.9432000343 0.6428322113 1.2823612920
C -1.9505608221 -0.1638233145 -0.0136444262
C -3.3095164192 -0.1085711372 -0.7091042155
C -3.3124941077 -0.8999429145 -2.0118523607
H 2.1168936390 -1.8002744322 -1.4215778545
H 3.6824430514 -1.8633019681 -2.2241930525
H 2.5790387824 -0.5265715442 -2.5526087304
H 4.4625305329 0.1133894392 -1.0194484508
H 3.9031858548 -1.0871515630 0.1439952692
H 2.2600565977 1.2903021654 -0.8331783701
H 3.1952152941 1.2615538263 0.6606052322
H 1.8186236775 -0.6710697735 1.4607703923
H 0.8325784507 -0.5464841746 0.0051456579
H 0.2773227598 1.8303253801 0.6429038244
H 1.2143518184 1.6115917647 2.1130093368
H -0.7978736074 1.0505780265 3.0320225921
H -0.4748272153 -0.5302033859 2.3322341038
H -2.7718315288 0.3028388261 1.9094555131
H -2.1209142785 1.6958643996 1.0501142589
H -1.1922450162 0.2262492917 -0.6943352718
H -1.7032621574 -1.2050212108 0.2074837915
H -4.0745516992 -0.5087705395 -0.0396043497
H -3.5652492991 0.9331709229 -0.9164649575
H -2.5713491568 -0.5014940756 -2.7011745316
H -3.0765299326 -1.9448426014 -1.8226856627
H -4.2881725832 -0.8488065222 -2.4889273978
32
CONF347
C 3.6900521444 1.9129355030 0.6249123531
C 3.5348016339 0.4429012830 0.2532249445
C 2.1012690555 0.1069133873 -0.1538208274
C 1.9446863729 -1.3692584989 -0.5096766225
C 0.5600632585 -1.7395747826 -1.0453884767
C -0.5755563003 -1.5676007814 -0.0259362771
C -1.3695806172 -0.2751749874 -0.2140473352
C -2.4581027566 -0.1256849062 0.8472816987
C -3.2519354148 1.1759194348 0.7243632436
C -4.1439232349 1.2208864316 -0.5113894084
H 4.7167866834 2.1296139998 0.9096000651
H 3.0409860569 2.1650518732 1.4606116881
H 3.4253394692 2.5481806172 -0.2174888806
H 3.8220318923 -0.1789750628 1.1043518197
H 4.2098191986 0.2041893265 -0.5720348679
H 1.8202185821 0.7178966499 -1.0150852309
H 1.4331306623 0.3596053937 0.6710530174
H 2.1601931802 -1.9758990998 0.3734670921
H 2.6871562062 -1.6252762863 -1.2703448684
H 0.5992280437 -2.7835864051 -1.3635289684
H 0.3457592187 -1.1386450059 -1.9316060531
H -0.1637656923 -1.5977649997 0.9850300216
H -1.2707085812 -2.4057466755 -0.1141405572
H -0.7003701806 0.5849147163 -0.1633977676
H -1.8230320341 -0.2856529874 -1.2066899357
H -3.1451839983 -0.9729374285 0.7827461899
H -1.9894802566 -0.1576527727 1.8343315337
H -3.8781976302 1.2862439796 1.6128491849
H -2.5583676662 2.0195407652 0.7025779654
H -4.7372966762 2.1321877535 -0.5147726744
H -3.5513735647 1.1995259701 -1.4219739349
H -4.8215208080 0.3699372598 -0.5207054179
32
CONF313
C 2.9595396696 -1.2075993477 -1.7682095283
C 3.5827389139 -0.3904684578 -0.6417474431
C 2.6265519509 0.6447635749 -0.0476034782
C 1.4498816843 0.0236514654 0.7028315891
C 0.5869644755 1.0901785756 1.3767842657
C -0.6471423676 0.5146157365 2.0867811290
C -1.9448213400 0.6377514556 1.2852413508
C -1.9552569986 -0.1673222087 -0.0117207066
C -3.3137343768 -0.1051807752 -0.7074913540
C -3.3203723744 -0.8959034050 -2.0106240148
H 2.5792581382 -0.5507915755 -2.5475371300
H 2.1391951726 -1.8176908493 -1.4000872648
H 3.7020602291 -1.8687414581 -2.2088771908
H 4.4610851411 0.1309688666 -1.0297023755
H 3.9213242510 -1.0628513540 0.1498075805
H 2.2469474908 1.2839869804 -0.8484831201
H 3.1857467473 1.2811262266 0.6432713470
H 1.8319557031 -0.6600623304 1.4651380970
H 0.8394759556 -0.5567244948 0.0120474911
H 0.2686716748 1.8221379696 0.6315558591
H 1.2080335582 1.6205958160 2.1024485327
H -0.7932849684 1.0412366811 3.0322930892
H -0.4706127925 -0.5363040908 2.3252717444
H -2.7712861665 0.2964665663 1.9144465526
H -2.1238111531 1.6909964702 1.0549400682
H -1.1947992979 0.2200795006 -0.6915642181
H -1.7124393350 -1.2098168137 0.2082733119
H -4.0808999656 -0.5018646221 -0.0383084043
H -3.5642991378 0.9379192564 -0.9144405595
H -2.5750658762 -0.5026494188 -2.6984788581
H -3.0925953863 -1.9426473111 -1.8216125532
H -4.2948263520 -0.8371963030 -2.4893338126
32
CONF366
C 4.1405547577 0.1263820709 1.8418060570
C 3.6362427970 -0.4152442986 0.5092842777
C 2.2717607660 0.1627125975 0.1395002334
C 1.7654096766 -0.3831596173 -1.1942280049
C 0.4532362624 0.2533684351 -1.6549412781
C -0.7430784309 -0.1231657673 -0.7825100960
C -2.0410895100 0.4688849564 -1.3263019432
C -3.2949768572 0.0256264932 -0.5693456894
C -3.3498570714 0.4947613437 0.8920987289
C -2.9214501817 -0.5797574694 1.8866991630
H 5.1121900881 -0.2969995413 2.0842450199
H 3.4469732082 -0.1239842127 2.6415445927
H 4.2377910818 1.2089570106 1.8000438474
H 3.5622574350 -1.5037828407 0.5644368274
H 4.3555151205 -0.1726218322 -0.2764039320
H 2.3470542635 1.2510435493 0.0774765682
H 1.5612006319 -0.0771546702 0.9323142285
H 1.6327853268 -1.4648472299 -1.1149990318
H 2.5273737742 -0.2006415897 -1.9563516011
H 0.2525423164 -0.0662110698 -2.6807813141
H 0.5643528151 1.3403380255 -1.6655432383
H -0.5778273709 0.2404799294 0.2313126665
H -0.8306921086 -1.2117064421 -0.7451163585
H -1.9751032960 1.5594942096 -1.3014176858
H -2.1497477088 0.1724040934 -2.3731385727
H -4.1594754060 0.4245612582 -1.1046593934
H -3.3674281834 -1.0633460129 -0.6020487503
H -2.7188244437 1.3773082029 1.0133295618
H -4.3719207182 0.7933448704 1.1353122294
H -1.9079680757 -0.9172071222 1.6899375418
H -2.9636407638 -0.1925910518 2.9025259456
H -3.5853559714 -1.4392141845 1.8217976397
32
CONF481
C 2.8393254547 -0.8084078590 1.8041221101
C 2.9688839302 0.5025687451 1.0369199024
C 3.0403864800 0.3127581912 -0.4797839745
C 1.8107768065 -0.3470417050 -1.1066959784
C 0.5296524878 0.4660438503 -0.9333618789
C -0.6424334277 -0.1652708908 -1.6843170262
C -1.9670389301 0.5858339258 -1.4879057658
C -2.8843982850 -0.0215677354 -0.4243177544
C -2.3191867535 0.0222322577 0.9934173571
C -3.3409151272 -0.4587105246 2.0178466752
H 2.9011780099 -0.6258723859 2.8744110717
H 3.6379861934 -1.4922575458 1.5253250860
H 1.8866510061 -1.2889667853 1.5984894813
H 3.8828700249 1.0091951101 1.3566932267
H 2.1316040490 1.1554857712 1.2881081644
H 3.9164014677 -0.2976950745 -0.7132766902
H 3.1877558639 1.2909676470 -0.9444897681
H 1.6691087121 -1.3419874649 -0.6813215311
H 2.0020818518 -0.4769575316 -2.1752838420
H 0.6930141039 1.4782887968 -1.3119261314
H 0.2847854042 0.5434878464 0.1250950734
H -0.7622626567 -1.2024251095 -1.3637969292
H -0.3927891761 -0.1848101946 -2.7478746963
H -1.7579109161 1.6264902310 -1.2309493865
H -2.5170318132 0.5893184361 -2.4315430053
H -3.8314106539 0.5247139556 -0.4372902770
H -3.1024204978 -1.0588929124 -0.6905200320
H -1.4321270814 -0.6098364274 1.0551568730
H -2.0229558046 1.0463936408 1.2319461707
H -4.2286791633 0.1696125278 1.9955966176
H -3.6416686832 -1.4819759520 1.8037393768
H -2.9218974803 -0.4261826053 3.0206710047
32
CONF392
C 4.4979024188 0.5335936352 0.9742962953
C 3.6234517131 -0.6927395949 0.7370362835
C 2.6318463704 -0.5163790261 -0.4140951104
C 1.5476403783 0.5205180669 -0.1245099038
C 0.4960295425 0.6044996165 -1.2341959186
C -0.4941075617 -0.5632529421 -1.2476797684
C -1.5430742589 -0.5071727049 -0.1337765069
C -2.6365829386 0.5253659516 -0.4032243354
C -3.6301614267 0.6687419478 0.7508139671
C -4.4932099466 -0.5704836260 0.9619251363
H 5.0205901250 0.8090120549 0.0608437113
H 5.2378937482 0.3247067685 1.7434149472
H 3.9015984899 1.3817325878 1.2998487241
H 3.0741827498 -0.9288435346 1.6513997710
H 4.2685987322 -1.5452118489 0.5108684320
H 2.1618844810 -1.4820025444 -0.6111197594
H 3.1758150223 -0.2249849432 -1.3159510989
H 2.0133362590 1.5016648296 -0.0177819469
H 1.0648957347 0.2801031229 0.8245502945
H 1.0112643611 0.6415270949 -2.1969540334
H -0.0579843747 1.5386928395 -1.1272370396
H 0.0600875541 -1.4997829100 -1.1656823919
H -1.0113914139 -0.5762842689 -2.2099411683
H -2.0004820632 -1.4937296115 -0.0423337678
H -1.0597356354 -0.2787147807 0.8179302692
H -2.1754339349 1.4990568560 -0.5809681423
H -3.1776852046 0.2467315490 -1.3109042611
H -3.0835009245 0.8909245823 1.6702640762
H -4.2832573875 1.5195918969 0.5419902225
H -3.8890663652 -1.4198128316 1.2694758829
H -5.2349904218 -0.3849704376 1.7352603171
H -5.0134531104 -0.8314785940 0.0428531788
32
CONF338
C 4.4892619316 -0.2163852505 -0.9172096535
C 3.0791764718 0.1640350521 -1.3549181375
C 2.2017367456 0.6623854198 -0.2052560088
C 1.8756859568 -0.4244769710 0.8196314801
C 0.8621500205 0.0320834453 1.8794943554
C -0.5727728807 -0.4295328810 1.6154676335
C -1.1969888416 0.1624909173 0.3543200609
C -2.6647264274 -0.2338350945 0.2080795703
C -3.2935219153 0.3481503487 -1.0560988803
C -4.7588712499 -0.0469616562 -1.1958299941
H 5.0916972248 -0.4866743531 -1.7813542717
H 4.4717767166 -1.0645156776 -0.2381333850
H 4.9682505735 0.6200572812 -0.4129405727
H 2.6005596446 -0.6986266523 -1.8244395771
H 3.1460838130 0.9535517746 -2.1073501786
H 1.2734083228 1.0539948525 -0.6235145583
H 2.7087451840 1.4883797140 0.2996182839
H 2.8002537210 -0.7205169643 1.3172901034
H 1.4881395123 -1.3048631036 0.3025861692
H 0.8813996567 1.1214005483 1.9537176784
H 1.1602054381 -0.3640967938 2.8526903485
H -1.1877693647 -0.1473392111 2.4742194557
H -0.5902894948 -1.5200130467 1.5460572493
H -1.1216665572 1.2520940549 0.3916546861
H -0.6501311703 -0.1829304248 -0.5245176009
H -2.7433060280 -1.3234137205 0.1806982692
H -3.2226943594 0.1146338500 1.0806728163
H -3.2123243620 1.4372544895 -1.0292500516
H -2.7382217582 -0.0028965161 -1.9289268341
H -4.8581414257 -1.1290395478 -1.2449248459
H -5.3321270435 0.3104152613 -0.3432901927
H -5.1856491811 0.3791969212 -2.1004494857
32
CONF290
C 4.5972889718 -0.0231292208 -1.3369399056
C 3.8106643464 -0.4533367893 -0.1042976988
C 2.3237613542 -0.1307786209 -0.2369353270
C 1.5361258871 -0.5560289241 1.0006704217
C 0.0264093192 -0.3548667776 0.8582491036
C -0.3777926526 1.1161130062 0.7869346631
C -1.8884074710 1.3470838600 0.8691811456
C -2.6763214472 0.7900914864 -0.3251844578
C -3.3203224126 -0.5689708693 -0.0529019406
C -4.0681471119 -1.0902341460 -1.2748482489
H 4.2248388885 -0.5327573131 -2.2228175318
H 5.6516964068 -0.2615312221 -1.2208587830
H 4.5022545647 1.0490100037 -1.4940208201
H 4.2108740925 0.0532582386 0.7769686379
H 3.9346168250 -1.5280433725 0.0482219063
H 1.9217199307 -0.6444521811 -1.1136593550
H 2.2083025752 0.9425035509 -0.3972724985
H 1.8956450774 0.0039075148 1.8674701006
H 1.7300689767 -1.6149400359 1.1903912582
H -0.4669665976 -0.8112850947 1.7200617326
H -0.3142248769 -0.8743664029 -0.0388338162
H -0.0069413964 1.5547292738 -0.1412179326
H 0.0962204106 1.6476646776 1.6163969177
H -2.2711082827 0.9073372856 1.7927641446
H -2.0527589199 2.4251091920 0.9311910823
H -3.4711933259 1.4909448297 -0.5912008460
H -2.0152908125 0.7099407488 -1.1906698435
H -2.5572639378 -1.2916154640 0.2378333529
H -4.0180760411 -0.4713870246 0.7822507259
H -3.3864923723 -1.2163845609 -2.1132242846
H -4.5302400640 -2.0507463474 -1.0602342009
H -4.8478413045 -0.3918982097 -1.5713806759
32
CONF341
C 4.7362564684 0.0197505663 1.2180481159
C 3.2748410733 -0.3787459508 1.0499908519
C 2.6547841667 0.2408715845 -0.2005514410
C 1.1906115227 -0.1581876004 -0.3723166435
C 0.5702983504 0.4773805104 -1.6139874268
C -0.8652622039 0.0274288363 -1.8943042109
C -1.8750669528 0.4434554859 -0.8143132126
C -2.2062207954 -0.6859925096 0.1620018002
C -3.0497527670 -0.2264932194 1.3523128773
C -4.4526367298 0.2238050190 0.9603091174
H 5.1557738028 -0.4326571091 2.1132771679
H 4.8286385333 1.1002457272 1.3026407503
H 5.3206528855 -0.3071168010 0.3608634088
H 2.7086570980 -0.0596645401 1.9280865458
H 3.2002864492 -1.4668062317 0.9866604117
H 3.2224735525 -0.0758320677 -1.0789298109
H 2.7270063484 1.3293726046 -0.1367655058
H 0.6360445218 0.1506030530 0.5152564630
H 1.1221201115 -1.2460314800 -0.4510896231
H 1.1862683833 0.2239713104 -2.4809385663
H 0.5890845044 1.5648265453 -1.5070582598
H -0.8857483587 -1.0581488114 -2.0108610813
H -1.1647384253 0.4614753900 -2.8507231777
H -1.4808202381 1.2973798978 -0.2593795699
H -2.7983750725 0.7675773314 -1.2965345712
H -2.7410530398 -1.4746772055 -0.3729454686
H -1.2793174484 -1.1180475418 0.5419572154
H -3.1311260918 -1.0550741155 2.0599613724
H -2.5360411811 0.5922600726 1.8617492850
H -4.4164036013 1.1098165654 0.3322660107
H -4.9656674394 -0.5654661623 0.4152068213
H -5.0337823290 0.4613301451 1.8483171257
32
CONF379
C 2.0195596353 -1.4611044377 -1.6811330493
C 2.9114772789 -0.9623866118 -0.5492410232
C 2.1324545733 -0.2642178810 0.5668124099
C 1.5494913172 1.0813687000 0.1392320690
C 0.8697336187 1.8319674939 1.2848631101
C -0.4017184425 1.1804734468 1.8361212112
C -1.5540876199 1.0923930937 0.8248829343
C -1.6875833439 -0.2801154679 0.1659329204
C -2.8251446105 -0.3159433950 -0.8523999861
C -2.9504987312 -1.6836058082 -1.5135471558
H 2.6095811626 -2.0067269592 -2.4138145673
H 1.5329375952 -0.6326892956 -2.1891737002
H 1.2530414365 -2.1293056949 -1.2936189212
H 3.6594049231 -0.2755527658 -0.9522472057
H 3.4436032526 -1.8153508426 -0.1213408925
H 2.8041101941 -0.0982026715 1.4131163210
H 1.3333626143 -0.9260879124 0.9048094672
H 0.8366906119 0.9426781676 -0.6728703242
H 2.3623484073 1.7050539795 -0.2429955593
H 0.6176707757 2.8377136306 0.9385569222
H 1.5846549649 1.9390984776 2.1051296143
H -0.7251119857 1.7801366638 2.6900458328
H -0.1720874913 0.1838924415 2.2152010379
H -2.4959217888 1.3147922259 1.3322949116
H -1.4185673144 1.8531205665 0.0529630346
H -0.7572206104 -0.5476463979 -0.3352793584
H -1.8747559053 -1.0308126933 0.9381635473
H -3.7647475941 -0.0645978564 -0.3546340893
H -2.6457602862 0.4415762754 -1.6190799082
H -2.0299981142 -1.9405760913 -2.0334858476
H -3.1474572292 -2.4503203844 -0.7674627158
H -3.7646868621 -1.6879483077 -2.2341407232
32
CONF525
C 3.2134819357 -1.5371519356 -0.9181869721
C 2.7858155015 -0.1288322132 -1.3156287024
C 2.8239530183 0.8648568977 -0.1527796402
C 1.8647667426 0.5522741030 0.9974546071
C 0.3920059960 0.6241746262 0.5982229830
C -0.5242216221 0.4068290443 1.8000163420
C -2.0113609672 0.6002255734 1.4955567180
C -2.5897385052 -0.4149095764 0.4991763704
C -2.7007399958 0.1259831494 -0.9260876381
C -3.2530442050 -0.9233155540 -1.8841542486
H 2.5044533984 -1.9797479975 -0.2236368508
H 4.1930189184 -1.5171250211 -0.4451780618
H 3.2692911501 -2.1756405058 -1.7967986091
H 1.7826097363 -0.1597453832 -1.7434658102
H 3.4594076030 0.2369508347 -2.0945621201
H 2.5925829816 1.8607712191 -0.5390906936
H 3.8417970297 0.8945808144 0.2443550779
H 2.0464130262 1.2758993121 1.7966268813
H 2.0828805978 -0.4371821116 1.4026179255
H 0.1835596412 -0.1357242561 -0.1545567376
H 0.1864923566 1.6037940519 0.1594837169
H -0.2418172331 1.1106498771 2.5877181223
H -0.3677299336 -0.6011703738 2.1924472345
H -2.5528613115 0.5202412992 2.4406905407
H -2.1710497579 1.6115070907 1.1154113100
H -1.9726489805 -1.3158215046 0.4976308269
H -3.5896828584 -0.7110159122 0.8249109450
H -3.3610221039 0.9965650251 -0.9255009087
H -1.7222209583 0.4556970276 -1.2770702833
H -4.2378784811 -1.2536141548 -1.5608277026
H -3.3394662906 -0.5168956291 -2.8889183707
H -2.5970669991 -1.7904375895 -1.9192685890
32
CONF334
C 5.0160750381 -0.4457445804 0.6867698684
C 3.5089309839 -0.6094685604 0.8440779676
C 2.7416203366 0.0761022495 -0.2843009750
C 1.2303727219 -0.0884416153 -0.1387976983
C 0.4735787566 0.6170189635 -1.2627159090
C -1.0380467310 0.3872234467 -1.2198487067
C -1.7170293982 1.0716622430 -0.0333755751
C -3.2447493822 0.9144954294 -0.0359031497
C -3.7646473226 -0.1913831312 0.8851899529
C -3.3233677394 -1.5921181897 0.4785071637
H 5.5419202018 -0.9384968526 1.5008499133
H 5.2865635718 0.6077943370 0.6899320953
H 5.3499727942 -0.8813269629 -0.2523048412
H 3.1959961627 -0.1860535830 1.8012340195
H 3.2585082644 -1.6727199338 0.8554521958
H 3.0602293679 -0.3427231235 -1.2419968478
H 2.9884755819 1.1405323765 -0.2920784147
H 0.9222104445 0.3164112279 0.8267309035
H 0.9814777871 -1.1525198408 -0.1488394954
H 0.8540369120 0.2514351437 -2.2198772893
H 0.6772069003 1.6896043384 -1.2163894666
H -1.2352628649 -0.6850389618 -1.1976143286
H -1.4732686468 0.7828201293 -2.1412307432
H -1.3194148098 0.6757503078 0.9018004356
H -1.4647666776 2.1341135919 -0.0700019848
H -3.6995274120 1.8531168771 0.2885648640
H -3.5887989025 0.7230639814 -1.0545555828
H -3.4317135175 0.0086579568 1.9064580494
H -4.8569100916 -0.1519060906 0.8832257877
H -3.8031912262 -2.3350820023 1.1118593728
H -3.5987584193 -1.7928811552 -0.5545255756
H -2.2475821815 -1.7051211329 0.5813871990
32
CONF488
C 2.8564872127 -0.7634482992 -1.8226985740
C 2.9696436906 0.5299658620 -1.0237325885
C 3.0392971701 0.3033929685 0.4879554067
C 1.8101770622 -0.3740450057 1.0968533196
C 0.5278751768 0.4412811032 0.9437112036
C -0.6433987691 -0.2099359666 1.6787108123
C -1.9688367287 0.5447828119 1.5026001455
C -2.8862613894 -0.0354790991 0.4240390401
C -2.3245706486 0.0514039541 -0.9930961301
C -3.3461641300 -0.4061921210 -2.0283246255
H 3.6633789870 -1.4442082370 -1.5600656128
H 2.9165799064 -0.5539924390 -2.8881442342
H 1.9095931951 -1.2604831126 -1.6295848228
H 2.1258834879 1.1796594733 -1.2611355107
H 3.8787686006 1.0541527345 -1.3286273872
H 3.1836834090 1.2702582983 0.9767014565
H 3.9164469029 -0.3105707041 0.7077703765
H 2.0008707990 -0.5309627970 2.1619270536
H 1.6702147979 -1.3579875968 0.6460659072
H 0.2827607999 0.5446542431 -0.1124816682
H 0.6899401509 1.4440425782 1.3472649424
H -0.3930983792 -0.2565467913 2.7412614848
H -0.7624625187 -1.2386140005 1.3317069591
H -2.5182580290 0.5230363006 2.4463232394
H -1.7608791608 1.5920153383 1.2728335000
H -3.0995700497 -1.0809167472 0.6607465060
H -3.8353940525 0.5063714062 0.4547610135
H -2.0345206211 1.0835343520 -1.2032706915
H -1.4341910913 -0.5736941860 -1.0745978793
H -3.6455114863 -1.4346942081 -1.8385157871
H -4.2347566599 0.2202827069 -1.9907569013
H -2.9276152054 -0.3492561337 -3.0302804789
32
CONF482
C 3.3178491489 0.3055092937 -2.0547861232
C 2.3069659186 -0.1044046011 -0.9895271736
C 2.8779339468 0.0584580978 0.4171536833
C 1.9695188930 -0.4661218477 1.5313691823
C 0.6425909611 0.2928576965 1.6744296797
C -0.5295579850 -0.3985525922 0.9785714503
C -1.8103116756 0.4268134222 1.0815722827
C -3.0367103811 -0.2759968384 0.4964591387
C -2.9546455120 -0.5787819721 -1.0013024953
C -2.8185369798 0.6715324599 -1.8628129205
H 2.8914943363 0.1961236293 -3.0491253002
H 4.2101856455 -0.3136912039 -1.9931723848
H 3.6128671513 1.3438381101 -1.9193505114
H 2.0218879192 -1.1476408562 -1.1442703849
H 1.4122813890 0.5105756933 -1.0964176939
H 3.0894952265 1.1155215249 0.5967479222
H 3.8289950753 -0.4782789690 0.4699126989
H 2.5246722433 -0.3915925477 2.4690532364
H 1.7638255470 -1.5248943178 1.3597812628
H 0.7574116844 1.3024941930 1.2740754287
H 0.3965210448 0.3939073923 2.7341688341
H -0.6937186057 -1.3755923543 1.4401408004
H -0.2839721535 -0.5643682230 -0.0694295649
H -2.0086899207 0.6369989060 2.1359846752
H -1.6636147320 1.3867788565 0.5836453056
H -3.1895149442 -1.2165722617 1.0316618620
H -3.9131242956 0.3515194858 0.6772733599
H -2.1161354887 -1.2489068040 -1.1972056466
H -3.8667603689 -1.1074906489 -1.2890511420
H -2.8704102396 0.4091865180 -2.9169093089
H -3.6199705936 1.3736338017 -1.6433786738
H -1.8677839427 1.1669818079 -1.6851128942
32
CONF485
C 3.3293207440 0.3516441379 2.0447807169
C 2.3141765190 -0.0770380007 0.9910047006
C 2.8796567436 0.0616837421 -0.4205162984
C 1.9721375316 -0.4919471828 -1.5213073578
C 0.6389220995 0.2532477085 -1.6773002699
C -0.5257884168 -0.4295708619 -0.9608798065
C -1.8178685399 0.3727429630 -1.0989170673
C -3.0341928500 -0.3201068466 -0.4817194477
C -2.9512912544 -0.5458992235 1.0295115189
C -2.8393689177 0.7482198969 1.8276165342
H 4.2222203296 -0.2673088720 1.9889548359
H 2.9077983167 0.2576469002 3.0427181129
H 3.6223093805 1.3880159663 1.8913087336
H 1.4195918105 0.5393054958 1.0909049312
H 2.0302753935 -1.1175661155 1.1649662069
H 3.8341981048 -0.4696007071 -0.4654593872
H 3.0835055692 1.1163340864 -0.6220214659
H 1.7752333971 -1.5486160052 -1.3279075484
H 2.5244182076 -0.4320280311 -2.4617298996
H 0.3884756064 0.3262210930 -2.7383529640
H 0.7473802299 1.2732460691 -1.3022847069
H -0.2822917961 -0.5537926136 0.0933241150
H -0.6741119052 -1.4249165698 -1.3873724150
H -1.6842639410 1.3559333995 -0.6445990420
H -2.0195780100 0.5328298527 -2.1614698029
H -3.9202168952 0.2832949217 -0.6950398728
H -3.1704229937 -1.2885740190 -0.9696380952
H -3.8549651000 -1.0753363836 1.3414692126
H -2.1020266456 -1.1907434539 1.2606311941
H -1.8961397107 1.2497794359 1.6284626006
H -3.6511821100 1.4250642689 1.5701348455
H -2.8915026515 0.5386912948 2.8934620834
32
CONF362
C 5.0788854026 0.4441475372 -0.0318217369
C 3.9257162527 -0.5026498767 -0.3432364710
C 2.5678292529 0.1660156278 -0.1387418018
C 1.4141562709 -0.7883216081 -0.4408141420
C 0.0343325960 -0.1328575954 -0.3524818044
C -0.3663942702 0.2327674784 1.0747023644
C -1.7360221155 0.9084369841 1.1755275451
C -2.9141592676 0.0105767792 0.7690089547
C -3.4476015678 0.3061769898 -0.6325501302
C -4.5904738286 -0.6301577778 -1.0081029408
H 6.0339236182 -0.0520359401 -0.1863392077
H 5.0283121008 0.7785646326 1.0019971089
H 5.0374182828 1.3192043960 -0.6766071508
H 3.9936582904 -1.3817141313 0.3018233961
H 4.0069494517 -0.8452631243 -1.3774460072
H 2.4942998116 1.0384462835 -0.7925165038
H 2.4999266075 0.5165446882 0.8925277044
H 1.4554404425 -1.6342747266 0.2496405667
H 1.5474409665 -1.1828086224 -1.4514866536
H -0.6994005148 -0.8305583812 -0.7593768991
H 0.0224392865 0.7665506391 -0.9728138805
H 0.3770883204 0.9142308374 1.4924732114
H -0.3674839387 -0.6713426347 1.6886515105
H -1.8703148936 1.2268910946 2.2114830872
H -1.7366005618 1.8089519130 0.5577537839
H -2.6107901298 -1.0368424639 0.8261239543
H -3.7348262423 0.1458538012 1.4772408391
H -3.8014777389 1.3392756453 -0.6680599754
H -2.6446195999 0.2077867856 -1.3643422316
H -4.9651645300 -0.3978935113 -2.0019894318
H -4.2536368898 -1.6645466354 -1.0007437918
H -5.4106113694 -0.5334598182 -0.2999275823
32
CONF368
C 3.6838251254 1.7095054767 -0.0636328456
C 3.9088483876 0.2509092315 -0.4497062328
C 3.3432734124 -0.7425899395 0.5758025167
C 1.9771048806 -1.3229121945 0.2039793284
C 0.8527382276 -0.2913470527 0.1546858946
C -0.5073634610 -0.9475131781 -0.0749979386
C -1.6344892248 0.0800047183 -0.1533730486
C -2.9939140690 -0.5839184936 -0.3636807396
C -4.1346621301 0.4153841414 -0.5614158517
C -4.4428990034 1.2317173532 0.6889453123
H 4.1770139616 1.9296202834 0.8808319503
H 2.6257818393 1.9296602231 0.0450027474
H 4.0955514452 2.3690309113 -0.8246081804
H 4.9842852865 0.0890669084 -0.5505215707
H 3.4608084066 0.0582165741 -1.4263787832
H 3.2728192821 -0.2550752527 1.5502442762
H 4.0372264813 -1.5794910834 0.6810415805
H 1.7170369218 -2.0867734591 0.9416708340
H 2.0512098335 -1.8191410795 -0.7669130985
H 1.0407110841 0.4197257469 -0.6513573639
H 0.8298626628 0.2631515779 1.0958892107
H -0.7137008309 -1.6470107190 0.7388470627
H -0.4775154792 -1.5233029072 -1.0034252395
H -1.6464384404 0.6622648061 0.7694898043
H -1.4384891071 0.7680902092 -0.9794399990
H -2.9356758894 -1.2259981238 -1.2463006075
H -3.2198441958 -1.2228238934 0.4933653525
H -3.8825275666 1.0905133597 -1.3823602767
H -5.0321977699 -0.1360508272 -0.8513850327
H -4.6599057082 0.5736975247 1.5275291622
H -3.6029988028 1.8669530207 0.9568375366
H -5.3081972881 1.8681036286 0.5190560099
32
CONF277
C 4.3335559444 -1.4684330510 0.3077406389
C 2.9498172609 -0.8355909210 0.2125436503
C 3.0163487659 0.6831643248 0.3551608174
C 1.6466707779 1.3652589007 0.3535580920
C 0.8956442237 1.2442090762 -0.9808451459
C -0.2031514991 0.1783768687 -0.9817327115
C -1.4489977032 0.6170339460 -0.2143039038
C -2.5258256040 -0.4654865441 -0.2075079341
C -3.7794061256 -0.0268500535 0.5462127675
C -4.8500254848 -1.1116549436 0.5483255511
H 4.7912647341 -1.2434812584 1.2686970860
H 4.9818480370 -1.0847794942 -0.4770715656
H 4.2686423040 -2.5487077151 0.2022730940
H 2.3112542584 -1.2430257805 0.9999295827
H 2.5050694426 -1.0949137548 -0.7493925807
H 3.6227941048 1.0934805610 -0.4562118939
H 3.5216425597 0.9232036489 1.2944873189
H 1.8003420726 2.4212624035 0.5850892799
H 1.0411779423 0.9429704703 1.1570580974
H 1.6136460702 1.0183580912 -1.7716599180
H 0.4361976452 2.2032378702 -1.2299722950
H 0.1787126329 -0.7469518331 -0.5480593692
H -0.4889997574 -0.0343557434 -2.0148936078
H -1.1822383342 0.8618109305 0.8158914956
H -1.8522509173 1.5237072394 -0.6722110318
H -2.7938709012 -0.7141725657 -1.2372774641
H -2.1253502755 -1.3704051128 0.2560043616
H -3.5118605787 0.2211732636 1.5759414449
H -4.1798138609 0.8775251054 0.0823457533
H -5.7320821666 -0.7778630405 1.0892732556
H -5.1433389665 -1.3583890847 -0.4696284851
H -4.4754734257 -2.0150473749 1.0245064685
32
CONF304
C 3.5205459454 -1.1492930238 -1.6661415018
C 2.5975667174 -0.7434715390 -0.5224131726
C 2.8683532568 0.6879138112 -0.0654821880
C 2.0705467027 1.1142008805 1.1687539517
C 0.5508603381 1.1556422681 0.9523720409
C -0.1661036603 -0.0878245890 1.4785647369
C -1.6805514666 -0.0424093203 1.2674645764
C -2.0936319245 -0.1959804603 -0.1951202748
C -3.6115451409 -0.2418746317 -0.3567694485
C -4.0231425646 -0.3907496687 -1.8168395821
H 4.5614078172 -1.0951722825 -1.3547918766
H 3.3843973406 -0.4868469246 -2.5180915964
H 3.3101377365 -2.1672340104 -1.9852970256
H 2.7438502770 -1.4240115379 0.3195567948
H 1.5620444396 -0.8330528307 -0.8537802630
H 2.6483717405 1.3733239570 -0.8878305769
H 3.9329146085 0.7845494392 0.1641823034
H 2.4168531228 2.1095648826 1.4555597891
H 2.3013500903 0.4400228683 1.9963972478
H 0.3460941578 1.2810010782 -0.1113361942
H 0.1360684156 2.0252483853 1.4674977959
H 0.0336787392 -0.1726835056 2.5498287944
H 0.2339258296 -0.9817360975 0.9986490703
H -2.1380464468 -0.8507118426 1.8435485429
H -2.0717523376 0.9006753917 1.6568156773
H -1.7022803255 0.6376030586 -0.7808534934
H -1.6620988570 -1.1165551637 -0.5958834733
H -4.0104138847 -1.0796667024 0.2199042239
H -4.0439990693 0.6747955992 0.0508276855
H -5.1061127238 -0.4225307254 -1.9080444042
H -3.6529299936 0.4467893147 -2.4039717073
H -3.6155038589 -1.3083911186 -2.2352376843
32
CONF354
C 3.4685478597 0.3752246392 -1.6572351095
C 4.1612084903 -0.0688291099 -0.3744989901
C 3.3466079215 0.1972177602 0.8932763771
C 2.0344206481 -0.5963969571 0.9753787657
C 0.8057953986 0.2198216612 0.5752150206
C -0.4728026091 -0.6136010476 0.6290342731
C -1.7066086511 0.2026020578 0.2500496267
C -2.9804408718 -0.6389147693 0.2964992074
C -4.2518214671 0.1674587108 0.0274222870
C -4.3448639774 0.6837781111 -1.4041915641
H 3.1964185700 1.4268317636 -1.5983630994
H 2.5695433230 -0.2084543077 -1.8351324928
H 4.1328548594 0.2403533600 -2.5080289199
H 5.1131590126 0.4608733597 -0.2869310714
H 4.3849875194 -1.1364687967 -0.4368477232
H 3.1287227761 1.2650434603 0.9618612856
H 3.9745241520 -0.0612583811 1.7487031861
H 1.8874317291 -0.9477129807 1.9993227721
H 2.1042415697 -1.4815337033 0.3396753385
H 0.9327734595 0.6157495915 -0.4330145820
H 0.7070618389 1.0711958346 1.2533106173
H -0.6000741923 -1.0152719938 1.6374817071
H -0.3795367028 -1.4624856480 -0.0528824325
H -1.8065739298 1.0450896680 0.9387714250
H -1.5676511485 0.6076425704 -0.7536265570
H -2.9057902147 -1.4472980518 -0.4347235200
H -3.0601778528 -1.0966102785 1.2858374911
H -5.1158812942 -0.4704225501 0.2279513302
H -4.2960134810 1.0104453884 0.7207168030
H -3.5538657628 1.3988876607 -1.6130878380
H -4.2618461212 -0.1394927403 -2.1102932269
H -5.2998288674 1.1786078088 -1.5645601764
32
CONF276
C 4.5473183623 -0.7908319204 -1.0224012387
C 3.2588429416 -1.1104813815 -0.2734773828
C 2.4923435413 0.1546107567 0.1060823479
C 1.2093540752 -0.1610604919 0.8725337154
C 0.4159951448 1.0968506002 1.2353715462
C -0.3337802653 1.7241477745 0.0504842748
C -1.8327225602 1.4167916892 0.0373148215
C -2.1552107499 -0.0603116936 -0.1744094193
C -3.6600259097 -0.3070014633 -0.2622261505
C -3.9820514392 -1.7830654128 -0.4644020799
H 5.2011338895 -0.1750510064 -0.4087395273
H 4.3299477945 -0.2486271822 -1.9400573547
H 5.0775236459 -1.7044268669 -1.2800970902
H 3.4957773124 -1.6733861782 0.6323903300
H 2.6235911039 -1.7429008448 -0.8979781396
H 2.2535636176 0.7124733868 -0.8017037460
H 3.1317081440 0.7907478085 0.7231381870
H 1.4749206079 -0.6899718191 1.7914251945
H 0.5885013019 -0.8301695394 0.2748744432
H 1.1119618228 1.8261283805 1.6556462634
H -0.3030642201 0.8523895546 2.0196005408
H 0.1044621221 1.3794784143 -0.8873346916
H -0.2161634863 2.8092009497 0.0832482142
H -2.2758769355 1.7502622422 0.9790513114
H -2.2983047862 1.9949743816 -0.7653489306
H -1.6812929594 -0.4042469787 -1.0970917869
H -1.7488298386 -0.6476022936 0.6507728779
H -4.1363863733 0.0460786657 0.6554235801
H -4.0732908381 0.2717023312 -1.0917302486
H -5.0568704239 -1.9359388594 -0.5239288772
H -3.5312930100 -2.1481997519 -1.3846102510
H -3.5957966583 -2.3737597380 0.3633237467
32
CONF367
C 4.4992151967 0.4182670255 -0.8958208229
C 3.2706972904 -0.4296305847 -1.2066845071
C 2.0131905730 0.0290695649 -0.4649278421
C 2.0672365210 -0.2523227869 1.0347884876
C 0.8485961369 0.2620361907 1.8045407269
C -0.4735721930 -0.4210606853 1.4250396338
C -1.3325889142 0.4088118487 0.4713980446
C -2.6175690915 -0.3190908941 0.0828816433
C -3.4868765090 0.5109006839 -0.8591317661
C -4.7687310710 -0.2195255051 -1.2417023177
H 4.3024774345 1.4653469721 -1.1155458314
H 5.3431157810 0.0934517403 -1.4999089167
H 4.7803498615 0.3330377354 0.1504400289
H 3.4758504662 -1.4727013647 -0.9549913236
H 3.0769242683 -0.3816278504 -2.2809576174
H 1.1550936084 -0.4914992817 -0.8933033854
H 1.8722684348 1.1004211756 -0.6269496397
H 2.9555322959 0.2215407915 1.4568139352
H 2.1616596333 -1.3296638642 1.1929625843
H 0.7564282470 1.3392261724 1.6507786822
H 1.0400810374 0.1020063624 2.8678071052
H -1.0574128893 -0.6074759412 2.3293495432
H -0.2646334578 -1.3925907590 0.9723735472
H -1.5888691677 1.3551854546 0.9542275873
H -0.7671627654 0.6437295474 -0.4314910850
H -2.3642455433 -1.2652176759 -0.4018020778
H -3.1870428599 -0.5540444921 0.9854957744
H -3.7390676822 1.4572749688 -0.3752931202
H -2.9179653299 0.7431160370 -1.7623392222
H -5.3703201622 0.3886988360 -1.9126872578
H -4.5374249583 -1.1574936514 -1.7415515710
H -5.3591820902 -0.4412222494 -0.3554999266
32
CONF353
C 4.9123735914 0.2740463152 0.9813186731
C 3.4216165407 -0.0184293569 0.8552724568
C 3.0407000877 -0.3889505739 -0.5769473572
C 1.5818726389 -0.8216172817 -0.7278291286
C 0.5827223334 0.3078321141 -0.4844189704
C -0.8523495509 -0.1366752640 -0.7596919988
C -1.8546379554 0.9916068727 -0.5181478137
C -3.3133517181 0.5698574511 -0.7471809594
C -4.0791581901 0.2403579238 0.5360092178
C -3.5351941767 -0.9695829584 1.2860955334
H 5.4976565695 -0.5978814931 0.6973060230
H 5.1651720087 0.5391826873 2.0049988760
H 5.1937881236 1.1003866531 0.3323631219
H 2.8583030632 0.8611591583 1.1706612496
H 3.1561887651 -0.8423231904 1.5217376920
H 3.6825670823 -1.2100937933 -0.9059835850
H 3.2338442347 0.4630069152 -1.2331615433
H 1.3758960109 -1.6407198214 -0.0346043185
H 1.4352727029 -1.2038836251 -1.7411785533
H 0.8296676393 1.1534422525 -1.1311112156
H 0.6556995493 0.6483282229 0.5499728799
H -1.0898641389 -0.9898545740 -0.1232264845
H -0.9326842183 -0.4683153380 -1.7980149322
H -1.7403673374 1.3663973545 0.5011270587
H -1.6058072529 1.8143316810 -1.1924633216
H -3.8452360103 1.3810118884 -1.2492002454
H -3.3394401872 -0.2956569802 -1.4125014799
H -4.0607817764 1.1112050724 1.1956601933
H -5.1227506785 0.0510969925 0.2722812896
H -4.1751305955 -1.2037262591 2.1340344051
H -3.5007166605 -1.8385988965 0.6326237604
H -2.5343324940 -0.7758099199 1.6619928393
32
CONF351
C 4.8969363342 0.2836510713 1.0000095043
C 3.4141339937 -0.0433127606 0.8656660105
C 3.0408023634 -0.3799026117 -0.5768519248
C 1.5841534202 -0.8143606700 -0.7441591709
C 0.5816553271 0.3124880814 -0.5025462447
C -0.8528246258 -0.1372947794 -0.7723809850
C -1.8569606978 0.9896558944 -0.5322027446
C -3.3163499845 0.5615248258 -0.7445210435
C -4.0692534655 0.2399085927 0.5483337699
C -3.5177892954 -0.9652552687 1.3004963721
H 5.1440390531 0.5233044118 2.0313645222
H 5.1556734357 1.1370019451 0.3770412104
H 5.5043836535 -0.5633395947 0.6885864474
H 2.8290311816 0.8114202322 1.2084248868
H 3.1708039336 -0.8936374932 1.5068780098
H 3.6877964694 -1.1898250213 -0.9231155462
H 3.2329586094 0.4887738659 -1.2110621493
H 1.3732848881 -1.6382851178 -0.0581877291
H 1.4469683638 -1.1899954404 -1.7612528711
H 0.8244002573 1.1566157206 -1.1527729101
H 0.6557329953 0.6571644939 0.5303916865
H -1.0862442449 -0.9883451920 -0.1315715133
H -0.9354758202 -0.4735975897 -1.8090169813
H -1.7352084485 1.3736690855 0.4828038983
H -1.6166390441 1.8073761460 -1.2156619668
H -3.8553222396 1.3672639188 -1.2476465602
H -3.3459987689 -0.3091054415 -1.4029222738
H -4.0442959572 1.1148400824 1.2022984028
H -5.1154595036 0.0489357320 0.2964298170
H -2.5118112326 -0.7706219091 1.6619355005
H -4.1471285520 -1.1916246639 2.1584539783
H -3.4934693565 -1.8393004322 0.6533299923
32
CONF332
C 4.1964691123 1.2212028435 0.2802145167
C 3.6724407000 0.3653442445 -0.8686519321
C 3.1048017788 -0.9867619688 -0.4129594874
C 1.5822109100 -1.0122215609 -0.2607164867
C 1.0568958430 -0.1120955222 0.8556613887
C -0.4277292254 -0.3299350915 1.1527164833
C -1.3437490409 0.0961132256 0.0070199497
C -2.8185379715 -0.0153560232 0.3871550776
C -3.7410310931 0.3922847951 -0.7595313531
C -5.2112308279 0.2793929425 -0.3738466728
H 4.5842171659 2.1641347051 -0.0994324444
H 5.0025417241 0.7051007926 0.7975162073
H 3.4129937960 1.4380496614 1.0002743541
H 4.4970058395 0.1908870512 -1.5635469343
H 2.9026959113 0.9161155802 -1.4127899447
H 3.5672906750 -1.2725443080 0.5340612130
H 3.3729646941 -1.7489682257 -1.1481440095
H 1.2762874035 -2.0407094420 -0.0510784005
H 1.1305880673 -0.7207086110 -1.2107923236
H 1.2114477815 0.9344967870 0.5882446102
H 1.6256822012 -0.3158334040 1.7662979271
H -0.6925907423 0.2454362211 2.0435295785
H -0.6005429895 -1.3847578003 1.3795842827
H -1.1199998367 1.1298677609 -0.2677188717
H -1.1555424673 -0.5288993222 -0.8676184098
H -3.0388229085 -1.0454952754 0.6774944829
H -3.0182598172 0.6207291568 1.2529727132
H -3.5200168518 1.4218538506 -1.0502793544
H -3.5428638260 -0.2449185664 -1.6244547060
H -5.8485316183 0.5721314577 -1.2046140021
H -5.4543962874 -0.7441382701 -0.0974192765
H -5.4327652056 0.9240723112 0.4737626145
32
CONF510
C 3.2142225713 0.9595457871 1.8792323112
C 2.6899285173 -0.1145113004 0.9330963181
C 2.5876952093 0.4001883740 -0.5025406685
C 2.0141099061 -0.6328586038 -1.4831954453
C 0.5296775165 -0.4398412313 -1.8010493189
C -0.3940322211 -0.6329780645 -0.6008920565
C -1.8643810759 -0.5430862635 -1.0051970563
C -2.8303991028 -0.8507510144 0.1406303248
C -2.7765511821 0.1293586983 1.3144395491
C -3.1711514951 1.5511198475 0.9309870017
H 4.1978834239 1.2992737805 1.5625818460
H 3.2937049039 0.5723138077 2.8921103745
H 2.5447525607 1.8168667478 1.8906335582
H 1.7123544230 -0.4529419934 1.2781406538
H 3.3628231221 -0.9749978889 0.9554157556
H 3.5893927569 0.6907173267 -0.8278206990
H 1.9704446751 1.3008403564 -0.5210013878
H 2.1677233584 -1.6369915132 -1.0821872792
H 2.5624670524 -0.5731198751 -2.4258426554
H 0.2492805204 -1.1560694555 -2.5781852187
H 0.3795143044 0.5618586580 -2.2116958868
H -0.1775058627 0.1307988244 0.1455834651
H -0.2038540979 -1.6113976900 -0.1526029948
H -2.0701951718 0.4507007225 -1.4061932386
H -2.0517188093 -1.2607689606 -1.8083938239
H -3.8480551940 -0.8590955820 -0.2580546438
H -2.6165018297 -1.8544105583 0.5169607160
H -3.4620783458 -0.2301644643 2.0858698363
H -1.7751394083 0.1333838766 1.7475973486
H -2.4504741998 1.9848072480 0.2429412720
H -4.1496275043 1.5584392662 0.4555730057
H -3.2146876773 2.1812711914 1.8162680497
32
CONF360
C 5.0632252880 0.4992363569 0.0737952476
C 3.9270419034 -0.4797026727 0.3460883981
C 2.5582548103 0.1672974814 0.1452078451
C 1.4196009425 -0.8140395983 0.4163347116
C 0.0300244385 -0.1795779948 0.3248429453
C -0.3760776242 0.1709025573 -1.1047136722
C -1.7325988786 0.8721965522 -1.2070494410
C -2.9251287891 0.0102646190 -0.7670354135
C -3.4184632055 0.3295498748 0.6440048711
C -4.5793178583 -0.5707850568 1.0511451636
H 4.9976324908 1.3539820333 0.7434238640
H 5.0153751327 0.8629068952 -0.9502969564
H 6.0268541830 0.0184230366 0.2232042379
H 4.0043557019 -0.8490744840 1.3713744742
H 4.0198757573 -1.3389653686 -0.3221083564
H 2.4918689888 0.5408729777 -0.8781202575
H 2.4632668637 1.0228683844 0.8182849455
H 1.5496146820 -1.2248677258 1.4208684673
H 1.4830739265 -1.6459817759 -0.2891997134
H 0.0068958211 0.7237761113 0.9390722348
H -0.6944393197 -0.8841287163 0.7365439316
H -0.3994188076 -0.7429062982 -1.7037236283
H 0.3770302564 0.8306411232 -1.5398481910
H -1.7078888509 1.7870917217 -0.6112244576
H -1.8715911973 1.1683962281 -2.2490452130
H -3.7576311831 0.1647490438 -1.4574068327
H -2.6524992876 -1.0455937084 -0.8243190466
H -2.6028961552 0.2122308933 1.3586435894
H -3.7414690909 1.3727259629 0.6803008406
H -4.2736217196 -1.6147772721 1.0404104014
H -4.9227086330 -0.3236147267 2.0527310052
H -5.4131921040 -0.4524156043 0.3625532269
32
CONF361
C 3.4487266070 0.3733057351 1.6593100653
C 4.1539443068 -0.0577541083 0.3789731285
C 3.3450190992 0.2072340904 -0.8926980981
C 2.0375824563 -0.5934952242 -0.9817814846
C 0.8029299511 0.2192486792 -0.5932132701
C -0.4680522301 -0.6268945862 -0.6207843458
C -1.7081156292 0.1897284635 -0.2637489325
C -2.9705968385 -0.6698981463 -0.2513662040
C -4.2507663887 0.1337588485 -0.0187134708
C -4.3302922863 0.7487629970 1.3742001566
H 4.1063360090 0.2340339770 2.5146006642
H 2.5504783856 -0.2152004258 1.8248334752
H 3.1730640320 1.4243252069 1.6067451965
H 4.3865258675 -1.1237435609 0.4374523487
H 5.1018123687 0.4806225398 0.3005332143
H 3.9786955742 -0.0456962959 -1.7454684103
H 3.1214650175 1.2739560405 -0.9598706309
H 2.1071020204 -1.4752538013 -0.3413625469
H 1.8994679993 -0.9505134743 -2.0049359102
H 0.6927693965 1.0549865166 -1.2887708070
H 0.9316072712 0.6379202083 0.4056038923
H -0.3660324649 -1.4538778437 0.0863642141
H -0.5932634553 -1.0599872853 -1.6163675710
H -1.5612654083 0.6436144619 0.7176822335
H -1.8290448727 0.9971825538 -0.9900302542
H -3.0519759865 -1.1853152626 -1.2117537919
H -2.8792046829 -1.4333611324 0.5248696087
H -4.3194575037 0.9249297685 -0.7687668676
H -5.1070252074 -0.5300753612 -0.1598129736
H -4.2174321289 -0.0201290932 2.1353235545
H -3.5514077405 1.4928957171 1.5167672057
H -5.2927429580 1.2344064101 1.5167883184
32
CONF480
C 3.3309327623 0.2587243427 2.0545493871
C 2.3143562541 -0.1322091644 0.9876017180
C 2.8849932232 0.0375633477 -0.4183841486
C 1.9608070773 -0.4522917711 -1.5353232072
C 0.6495792868 0.3373093290 -1.6583642578
C -0.5377177348 -0.3538543276 -0.9881856194
C -1.7963306030 0.5092437756 -1.0470493648
C -3.0466259676 -0.1987637111 -0.5218453873
C -2.9815582102 -0.6191408569 0.9479991849
C -2.8144190906 0.5557840633 1.9048997001
H 4.2196885961 -0.3644186549 1.9820197792
H 2.9074068501 0.1391171703 3.0488719370
H 3.6312184889 1.2970512135 1.9312541299
H 1.4255851848 0.4901722161 1.1011235009
H 2.0192980812 -1.1739432469 1.1335906936
H 3.8244658627 -0.5180649627 -0.4816253618
H 3.1177558379 1.0923701924 -0.5846698372
H 1.7336325551 -1.5087241305 -1.3771182509
H 2.5124431031 -0.3767059310 -2.4749001396
H 0.4089104631 0.4783821701 -2.7146930708
H 0.7824201136 1.3307213641 -1.2244881832
H -0.2918386878 -0.5733092053 0.0500609602
H -0.7293928640 -1.3043202502 -1.4926806715
H -1.6306271596 1.4299890342 -0.4850195876
H -1.9784173186 0.7939319037 -2.0868392018
H -3.9026216182 0.4674829382 -0.6563064999
H -3.2249042200 -1.0900097274 -1.1288729230
H -3.9099001463 -1.1421349801 1.1907061199
H -2.1635958753 -1.3263754718 1.0933826930
H -2.8788815174 0.2139318294 2.9352799864
H -1.8492597212 1.0362182117 1.7687228241
H -3.5945817181 1.2954660355 1.7386353352
32
CONF365
C 4.6460345693 -0.2308905482 1.3314585530
C 3.7975066615 -0.6935471317 0.1528323072
C 2.4967241551 0.0991680963 0.0425827893
C 1.6371699019 -0.3777699234 -1.1262573504
C 0.3763227144 0.4612857988 -1.3383701801
C -0.6261271051 0.3502301606 -0.1907548005
C -1.9308473998 1.0793017845 -0.5108798357
C -2.9659955263 1.0061323397 0.6208394800
C -4.0302799280 -0.0774183520 0.4337025095
C -3.4797686828 -1.4982158255 0.4593671746
H 4.1009442880 -0.3551540612 2.2645444102
H 4.9051466430 0.8200746912 1.2243327497
H 5.5657380902 -0.8076670050 1.3911278135
H 3.5626974691 -1.7540985198 0.2691050478
H 4.3684123619 -0.5814403989 -0.7718302980
H 2.7303443544 1.1582579076 -0.0902610540
H 1.9408284478 -0.0050524096 0.9757929192
H 1.3523824752 -1.4197880233 -0.9618272987
H 2.2374237172 -0.3414515646 -2.0390154492
H -0.1088812128 0.1303152912 -2.2602675242
H 0.6574794583 1.5084899192 -1.4735345728
H -0.1965502546 0.7843546349 0.7137624423
H -0.8251405168 -0.7032750086 0.0077828200
H -1.6902948176 2.1261539994 -0.7109045369
H -2.3631513104 0.6686476072 -1.4258348380
H -2.4527033032 0.8441308254 1.5710267861
H -3.4835370208 1.9654586045 0.6913970892
H -4.7678237241 0.0281394469 1.2333253965
H -4.5480825581 0.0910508299 -0.5134834795
H -2.9087498863 -1.6688323245 1.3693686348
H -4.2958861772 -2.2167384275 0.4272905298
H -2.8360588275 -1.6810589281 -0.3965781031
32
CONF397
C 2.6721162922 -1.8513748838 1.1391758327
C 3.3213913258 -0.8184964965 0.2244192332
C 2.5160381438 0.4766014139 0.1091462916
C 1.1705203279 0.2911675703 -0.5895711345
C 0.4523026850 1.6247239789 -0.7947429930
C -0.9298308808 1.4790432962 -1.4485335960
C -2.0998491620 1.5557448407 -0.4637792488
C -2.1507553715 0.4442672007 0.5849411313
C -2.4327009621 -0.9365634992 -0.0035523865
C -2.5294656757 -1.9999482113 1.0844437660
H 3.3232415304 -2.7147558886 1.2538377966
H 1.7253866449 -2.1945191391 0.7305661495
H 2.4903274155 -1.4254803058 2.1235754127
H 3.4543344854 -1.2485637399 -0.7709342274
H 4.3130394931 -0.5768199919 0.6143896216
H 3.1058896234 1.2063225044 -0.4517673921
H 2.3504337425 0.8868964691 1.1084286817
H 0.5436672693 -0.3752164898 0.0011896498
H 1.3342400103 -0.1795709174 -1.5625178571
H 1.0846233506 2.2569256996 -1.4226662073
H 0.3477830244 2.1309142905 0.1673071526
H -0.9740707665 0.5402841935 -2.0022123829
H -1.0669513897 2.2838500139 -2.1741655590
H -2.0506630603 2.5174158042 0.0534597513
H -3.0322032097 1.5393748899 -1.0344601528
H -1.2129047612 0.4202839981 1.1418039347
H -2.9440256371 0.6841952455 1.2980825923
H -3.3701944624 -0.9031434709 -0.5636776813
H -1.6405652818 -1.2118396676 -0.7017267929
H -3.3334506119 -1.7641069931 1.7782437700
H -2.7262543895 -2.9770175147 0.6496403746
H -1.5997345170 -2.0553648322 1.6470995791
32
CONF331
C 5.2106087601 -0.2904302489 -0.3712990822
C 3.7398179548 -0.4121763903 -0.7518674865
C 2.8189690810 0.0288726685 0.3837396543
C 1.3437441786 -0.0925084793 0.0083810530
C 0.4280470204 0.3512053889 1.1476109573
C -1.0564348159 0.1264899907 0.8548019388
C -1.5852265618 1.0130537623 -0.2707344324
C -3.1077707120 0.9807680948 -0.4219649337
C -3.6705586539 -0.3776752028 -0.8647076382
C -4.1919708441 -1.2243207276 0.2921626622
H 5.8463771237 -0.6124437534 -1.1923376572
H 5.4310239476 -0.9073168600 0.4969530043
H 5.4568383547 0.7409486644 -0.1291526944
H 3.5172615266 -1.4493973679 -1.0126517787
H 3.5413214858 0.2001026029 -1.6344398958
H 3.0402845891 1.0665943842 0.6447310673
H 3.0190858934 -0.5826946205 1.2669673955
H 1.1220748530 -1.1316701581 -0.2474137786
H 1.1526355083 0.5162223524 -0.8771537574
H 0.5995903127 1.4097811066 1.3573233161
H 0.6942912681 -0.2094127207 2.0473624964
H -1.6249181695 0.3385753705 1.7637092881
H -1.2084558543 -0.9233505556 0.5989256784
H -1.2827675556 2.0446604050 -0.0718244778
H -1.1329262281 0.7133704449 -1.2179226742
H -3.5708394643 1.2736962691 0.5225829851
H -3.3790324304 1.7350913934 -1.1640951485
H -4.4954659853 -0.2128029486 -1.5615250931
H -2.8987421411 -0.9310097229 -1.4032983330
H -3.4081072706 -1.4307750839 1.0148406752
H -5.0004600958 -0.7063843068 0.8038069378
H -4.5756589764 -2.1725442398 -0.0783508056
32
CONF329
C 5.2144992429 -0.2845844979 -0.3615161364
C 3.7454225934 -0.4037724388 -0.7495257573
C 2.8196740382 0.0257199217 0.3865055792
C 1.3458155203 -0.0968957711 0.0061634305
C 0.4268731376 0.3464616216 1.1428777714
C -1.0569644287 0.1220756102 0.8468244933
C -1.5809623402 1.0015048874 -0.2865999284
C -3.1039565574 0.9792123958 -0.4353026305
C -3.6784859008 -0.3807179756 -0.8577779189
C -4.2022725308 -1.2075871565 0.3122337405
H 5.4575984881 0.7438452688 -0.1038915778
H 5.8541723081 -0.5936207637 -1.1845547994
H 5.4328425837 -0.9131327691 0.4989529223
H 3.5247133280 -1.4385171927 -1.0215077071
H 3.5502572157 0.2171370484 -1.6268718051
H 3.0371835386 1.0621346711 0.6558244275
H 3.0190147093 -0.5917719889 1.2657825190
H 1.1256601717 -1.1360306592 -0.2506052290
H 1.1569600161 0.5120001544 -0.8796286832
H 0.5979147589 1.4050690374 1.3528387069
H 0.6907507795 -0.2139389644 2.0434802584
H -1.6273988443 0.3417790636 1.7526915425
H -1.2103155449 -0.9292919618 0.5980206526
H -1.2707596901 2.0328327724 -0.0983259759
H -1.1322617652 0.6891479501 -1.2314435136
H -3.5632939467 1.2892582890 0.5056079492
H -3.3702127279 1.7251118843 -1.1877107735
H -4.5045996259 -0.2188753527 -1.5538669622
H -2.9128290348 -0.9471094298 -1.3915220852
H -3.4173906807 -1.4106070948 1.0347358284
H -5.0047191438 -0.6763843285 0.8197637976
H -4.5948499087 -2.1576026967 -0.0440383993
32
CONF278
C 4.8228044832 1.0778803015 -0.6661886531
C 3.7647547613 -0.0133746613 -0.5536350261
C 2.5127487066 0.4800900038 0.1680559978
C 1.4444507198 -0.6053018902 0.2780416939
C 0.1988644033 -0.1070935875 1.0086661049
C -0.8976522637 -1.1714494012 1.1001038520
C -1.6521024298 -1.4069242003 -0.2166815315
C -3.0108156500 -0.7064996163 -0.2863761908
C -2.9227883963 0.8178629674 -0.2886222981
C -4.2954630203 1.4579785833 -0.4631029497
H 5.1230445602 1.4199786904 0.3217438712
H 4.4331410995 1.9298465490 -1.2189768477
H 5.7034168896 0.7054550518 -1.1838066108
H 4.1792771050 -0.8667444600 -0.0120954698
H 3.4912827810 -0.3582644358 -1.5534914802
H 2.1016940338 1.3373626528 -0.3707030771
H 2.7855259528 0.8210184893 1.1697877655
H 1.8563082789 -1.4642842808 0.8135958088
H 1.1750959318 -0.9435393264 -0.7246763968
H -0.1854067878 0.7774860074 0.4991581949
H 0.4860805727 0.1927004898 2.0196146170
H -1.6143824322 -0.8818662940 1.8710989376
H -0.4349770411 -2.1052494953 1.4271628983
H -1.0399216888 -1.0751425018 -1.0567317130
H -1.8238377407 -2.4777602407 -0.3445661364
H -3.5180279849 -1.0272763315 -1.2002725125
H -3.6247799093 -1.0289820849 0.5583219483
H -2.4865565472 1.1619334293 0.6503397411
H -2.2685920175 1.1391251073 -1.1026336293
H -4.7441228155 1.1491572898 -1.4048228974
H -4.9595792854 1.1599502354 0.3452748769
H -4.2152252551 2.5423711376 -0.4597807266
32
CONF448
C 3.9541323042 0.1966163380 -1.7373414764
C 3.1466514220 -0.6541566944 -0.7641291852
C 2.2215983332 0.1968538073 0.1036668221
C 1.4318702532 -0.6532438588 1.0981317995
C 0.4690058299 0.1614749615 1.9738965251
C -0.9807939242 0.1595096353 1.4839475457
C -1.1794492994 0.8571109208 0.1402336442
C -2.6525763744 1.0817833931 -0.2079256711
C -3.4798614248 -0.1956557836 -0.3649040153
C -2.9955511271 -1.0909078311 -1.4999878790
H 4.5744729581 0.9077598821 -1.1961343056
H 3.2917501262 0.7532184981 -2.3966994466
H 4.6008969248 -0.4291884564 -2.3475000572
H 3.8282843149 -1.2161149442 -0.1211764041
H 2.5500044866 -1.3781786711 -1.3240908354
H 1.5381461747 0.7511401647 -0.5405506273
H 2.8199114902 0.9266524283 0.6549027773
H 2.1480966354 -1.1735769694 1.7386698927
H 0.8715843926 -1.4184654822 0.5565162044
H 0.8257625761 1.1913664539 2.0429787317
H 0.4741927552 -0.2518862134 2.9849782480
H -1.5966209602 0.6645038552 2.2332196395
H -1.3246205971 -0.8744241093 1.4169020534
H -0.6886879199 1.8332154580 0.1763737657
H -0.7057727025 0.2769521565 -0.6514907098
H -3.1080345922 1.6955407936 0.5736000654
H -2.7048268770 1.6470401574 -1.1420900434
H -3.4721532228 -0.7568327643 0.5707828032
H -4.5150934821 0.0939436008 -0.5618758227
H -2.9437422960 -0.5300606372 -2.4306563751
H -2.0098910849 -1.4952368867 -1.2856140619
H -3.6793731577 -1.9250495222 -1.6393466956
32
CONF453
C 3.9389259569 0.2060663060 -1.7445422633
C 3.1459486511 -0.6495058577 -0.7636751929
C 2.2202788636 0.1957418041 0.1090044396
C 1.4323914571 -0.6601769935 1.0999290271
C 0.4668403818 0.1487219458 1.9779820907
C -0.9812877265 0.1515619088 1.4829620963
C -1.1747316707 0.8564179120 0.1423093041
C -2.6462090050 1.0861216927 -0.2093652349
C -3.4772549693 -0.1885485030 -0.3691496537
C -2.9891859515 -1.0879374288 -1.4992969554
H 3.2668190282 0.7551340255 -2.4001603917
H 4.5868241283 -0.4152231725 -2.3580803973
H 4.5565824829 0.9240857307 -1.2097483181
H 3.8368422746 -1.2047142095 -0.1248320316
H 2.5511087060 -1.3792812321 -1.3179744376
H 1.5356971441 0.7519045256 -0.5322420603
H 2.8177410141 0.9238897566 0.6632391670
H 2.1494828683 -1.1809735459 1.7390249503
H 0.8743762823 -1.4247584027 0.5551886076
H 0.8241706331 1.1777432344 2.0561542735
H 0.4679758514 -0.2723526396 2.9858955580
H -1.5988646105 0.6533397330 2.2329105115
H -1.3263213392 -0.8814645230 1.4091929752
H -0.6820815644 1.8312665987 0.1848279876
H -0.7001189845 0.2791936108 -0.6509335817
H -3.1018591699 1.7011076005 0.5710826009
H -2.6939380237 1.6518805637 -1.1434564527
H -3.4775596438 -0.7478085546 0.5676860729
H -4.5101069798 0.1046542963 -0.5730760642
H -2.9286067476 -0.5289538098 -2.4305544935
H -2.0066693809 -1.4959291334 -1.2774735478
H -3.6754305959 -1.9194331080 -1.6417593531
32
CONF352
C 4.6722345845 -0.6684944818 -0.8158979516
C 4.1305475329 -0.5777982415 0.6064444010
C 2.9238911199 0.3531854949 0.7340384675
C 1.6756263131 -0.1709901492 0.0269002516
C 0.4669332784 0.7315392239 0.2646126639
C -0.7834420849 0.2151025868 -0.4440382371
C -1.9862294445 1.1296442067 -0.2143136089
C -3.2744430535 0.6210776921 -0.8777593196
C -4.2286896282 -0.0992033799 0.0773509779
C -3.6654011924 -1.3929346452 0.6529550864
H 5.5727793095 -1.2776439142 -0.8377177100
H 4.9185324316 0.3221616709 -1.1916376550
H 3.9425645428 -1.1191159747 -1.4831525012
H 4.9235229981 -0.2097560185 1.2617450150
H 3.8525505676 -1.5756869024 0.9530697401
H 3.1824458239 1.3346518707 0.3295723638
H 2.6948097078 0.4845153431 1.7946518069
H 1.4515748809 -1.1767088082 0.3909033449
H 1.8598937504 -0.2387372250 -1.0464799963
H 0.6939525251 1.7395706609 -0.0912468515
H 0.2716351592 0.7987043867 1.3378639058
H -1.0059911975 -0.7914725100 -0.0880866585
H -0.5858995449 0.1487862046 -1.5168593678
H -2.1519258326 1.2478992564 0.8585538465
H -1.7401053410 2.1170989042 -0.6116090209
H -3.8142812875 1.4685913466 -1.3057128082
H -3.0176591337 -0.0489249105 -1.7009150648
H -4.4901385587 0.5755258167 0.8960127325
H -5.1491516326 -0.3271094628 -0.4660340223
H -4.4214237695 -1.8979589439 1.2502332981
H -3.3568859179 -2.0626562677 -0.1468460928
H -2.8088631848 -1.1935403504 1.2910346928
32
CONF370
C 3.6269057462 1.1952343220 1.2699621489
C 3.8138447376 -0.2114306512 0.7098652978
C 3.3928937689 -0.3397304054 -0.7614616228
C 1.9938785139 -0.9242464276 -0.9679999425
C 0.8667777728 -0.0574638406 -0.4122377604
C -0.5083483285 -0.6152045549 -0.7743025013
C -1.6399308898 0.2200200261 -0.1792220868
C -3.0129967652 -0.3357081813 -0.5513168107
C -4.1733784201 0.5074386399 -0.0202671513
C -4.3123737329 0.4492738297 1.4970400975
H 4.2373179842 1.9053392861 0.7160598805
H 3.9288884539 1.2286430397 2.3145704616
H 2.5901836171 1.5118638265 1.2024023548
H 3.2466378819 -0.9233152176 1.3126175918
H 4.8690778216 -0.4765715702 0.8054316810
H 4.1000596115 -0.9919840503 -1.2787264778
H 3.4465247965 0.6406246439 -1.2391343161
H 1.9471849125 -1.9128218309 -0.5043929885
H 1.8336863197 -1.0592264570 -2.0410387181
H 0.9595021469 0.9557604517 -0.8105051361
H 0.9482803722 -0.0017618669 0.6744464045
H -0.5884838886 -1.6419471946 -0.4088037839
H -0.6125146189 -0.6444922494 -1.8617763677
H -1.5311235055 0.2390060690 0.9064092989
H -1.5581033119 1.2481959897 -0.5403115715
H -3.0854651740 -0.3851353694 -1.6407449055
H -3.1054117187 -1.3550860678 -0.1690659076
H -4.0365251017 1.5450116611 -0.3330781257
H -5.1003449652 0.1460323729 -0.4715743352
H -3.4443000155 0.8832004417 1.9857981354
H -5.1923780109 1.0026693583 1.8161597895
H -4.4160320630 -0.5814951854 1.8287487749
32
CONF406
C 3.0417779409 -1.5127267871 1.4545876611
C 2.0826058181 -1.0643091226 0.3578624017
C 2.6102029235 0.1643008176 -0.3829627572
C 1.6830188369 0.6547170947 -1.5044935047
C 0.8098040297 1.8526517382 -1.1211192691
C -0.1959227591 1.6027182392 0.0030506318
C -1.2891945073 0.6044807744 -0.3714800631
C -2.3016409791 0.4314886890 0.7590228805
C -3.4460716542 -0.5206736339 0.4084285433
C -2.9994556130 -1.9725801443 0.2750844463
H 2.6572085101 -2.3934470056 1.9633237248
H 3.1761437430 -0.7221411649 2.1897967953
H 4.0152059117 -1.7561721778 1.0340832613
H 1.1102297771 -0.8463384673 0.8003610293
H 1.9459881824 -1.8799783649 -0.3565081366
H 3.5830347249 -0.0938442599 -0.8082254111
H 2.7765424864 0.9733771142 0.3314832248
H 1.0528992687 -0.1688847059 -1.8428380421
H 2.2911893987 0.9619631957 -2.3583591641
H 0.2637330954 2.1781972906 -2.0104842833
H 1.4656320970 2.6743805263 -0.8219913572
H -0.6667465851 2.5562711590 0.2576133517
H 0.3278256217 1.2542319779 0.8944201773
H -1.8060913295 0.9562037511 -1.2678741727
H -0.8371915614 -0.3595838380 -0.6036218367
H -1.7884032491 0.0614754882 1.6501772525
H -2.7224917495 1.4098081254 1.0053659435
H -4.2035725037 -0.4572020238 1.1932685756
H -3.9105617369 -0.1959822144 -0.5254559420
H -2.3131431883 -2.0957214007 -0.5583919109
H -2.5005872743 -2.3008663088 1.1844103786
H -3.8587374789 -2.6165986930 0.1035298458
32
CONF344
C 4.7074191540 -0.4255221117 -0.2383578783
C 3.7694923886 -0.6578997446 0.9409199023
C 2.5219291624 0.2257920461 0.9032730496
C 1.5796202710 -0.1031190221 -0.2530463382
C 0.2793917827 0.6936879369 -0.1690381073
C -0.6563479363 0.3819081490 -1.3366868201
C -2.0156823248 1.0884662980 -1.2318503672
C -3.1408266944 0.2018890156 -0.6937949775
C -2.9380986116 -0.2607055055 0.7470391485
C -4.1434701602 -1.0413511248 1.2591558751
H 4.9890564186 0.6234474070 -0.2979712972
H 4.2342062886 -0.7097357893 -1.1743304613
H 5.6119461330 -1.0179232128 -0.1222947980
H 4.3113564728 -0.4536225104 1.8674135358
H 3.4655918711 -1.7069940623 0.9609572481
H 2.8242423549 1.2734903056 0.8359166367
H 1.9780046382 0.0999826037 1.8429631550
H 1.3482840121 -1.1711480942 -0.2348939501
H 2.0690430526 0.1149251957 -1.2037771645
H 0.5112692080 1.7616504830 -0.1726101786
H -0.2173773026 0.4692948827 0.7758500480
H -0.8124481731 -0.6971811814 -1.3973181258
H -0.1590214880 0.6866873134 -2.2603148374
H -1.9169982058 1.9704953953 -0.5955891828
H -2.3156896981 1.4354720049 -2.2229595227
H -4.0776085333 0.7626485740 -0.7508011342
H -3.2447210316 -0.6740331968 -1.3390890745
H -2.0534168050 -0.8960547319 0.8076485460
H -2.7733471414 0.6105648608 1.3852949098
H -3.9799517392 -1.3694812594 2.2828577451
H -5.0379464233 -0.4226918427 1.2350119599
H -4.3186390770 -1.9189685055 0.6406556556
32
CONF369
C 3.6348346991 1.1891660501 1.2775377145
C 3.8260995425 -0.2075596073 0.6944964708
C 3.3903931152 -0.3175476328 -0.7740471999
C 1.9952410972 -0.9132932377 -0.9743824853
C 0.8645812217 -0.0622014096 -0.4017583976
C -0.5079098497 -0.6317101250 -0.7554366799
C -1.6439755212 0.2025322020 -0.1675056424
C -3.0138787132 -0.3668146622 -0.5309011307
C -4.1792030000 0.4921077952 -0.0375268107
C -4.3189487706 0.5001832650 1.4807761655
H 2.5948272752 1.4981680263 1.2266058528
H 4.2331211724 1.9122734548 0.7271958407
H 3.9487215858 1.2095085098 2.3190107430
H 3.2706857732 -0.9325366816 1.2925997406
H 4.8842092820 -0.4661505609 0.7748644543
H 4.0985471081 -0.9541900790 -1.3091131508
H 3.4284526533 0.6705475451 -1.2370325040
H 1.9616593765 -1.9067092213 -0.5201306692
H 1.8273895419 -1.0393753233 -2.0473339419
H 0.9433158666 0.9545563021 -0.7940911576
H 0.9554673564 -0.0127154472 0.6844498162
H -0.5812454169 -1.6555668816 -0.3805329217
H -0.6135591253 -0.6715591527 -1.8424619403
H -1.5336332419 0.2353384725 0.9176416048
H -1.5696611175 1.2267293013 -0.5413261837
H -3.0786143329 -0.4520927766 -1.6186091599
H -3.1080501334 -1.3731623633 -0.1160521283
H -4.0476750646 1.5157673755 -0.3953610005
H -5.1037360360 0.1062331153 -0.4734365125
H -4.4087719054 -0.5159380940 1.8585720227
H -3.4574291131 0.9678008607 1.9497017814
H -5.2069001882 1.0551490803 1.7741222554
32
CONF355
C 3.6661331432 1.3518515752 -0.7265668680
C 4.2299319037 0.0917001624 -0.0811738781
C 3.2743456780 -0.5775787901 0.9090978817
C 1.9858914756 -1.1169010476 0.2707899742
C 0.7832186543 -0.1930000858 0.4602244863
C -0.4643626129 -0.7330987767 -0.2355761347
C -1.6755327185 0.1734822057 -0.0276463756
C -2.9183620580 -0.3684489273 -0.7309600630
C -4.1283067422 0.5614215243 -0.6285646308
C -4.6832699843 0.6719160540 0.7872508400
H 4.4208831243 1.8219722027 -1.3532172403
H 3.3604104943 2.0655323103 0.0353916899
H 2.8076033806 1.1179396557 -1.3500993773
H 5.1489933448 0.3495870287 0.4510479506
H 4.4938218816 -0.6256906593 -0.8619229329
H 3.0179011818 0.1339944505 1.6967158851
H 3.8126566283 -1.4028622528 1.3802628392
H 1.7406170812 -2.0854899405 0.7124573548
H 2.1505295108 -1.2834805656 -0.7957982165
H 1.0094351275 0.7994215427 0.0685431815
H 0.5803722124 -0.0868081249 1.5288462423
H -0.6900930606 -1.7306644280 0.1494028612
H -0.2662053258 -0.8315341314 -1.3058982881
H -1.8672782444 0.2664648764 1.0425419188
H -1.4499559477 1.1705861100 -0.4137711988
H -2.6828695721 -0.5202476996 -1.7874219767
H -3.1764913212 -1.3423668553 -0.3084174892
H -3.8492796078 1.5546691341 -0.9874008925
H -4.9144390535 0.1818417969 -1.2855097690
H -5.5847832736 1.2800130073 0.7918201875
H -4.9318183120 -0.3136344228 1.1748358342
H -3.9604571390 1.1331019276 1.4548288502
32
CONF399
C 4.8420401589 0.5017466974 0.6875335148
C 3.6122585021 -0.3765299360 0.4877486476
C 2.6954569282 0.1773725268 -0.6013801694
C 1.4735554768 -0.7037986083 -0.8701438651
C 0.4119435105 -0.6620287524 0.2324263022
C -0.4068422190 0.6316725968 0.2553827901
C -1.4661041713 0.7122046633 -0.8472637553
C -2.6956030620 -0.1649169557 -0.6003164775
C -3.6181312075 0.3820824904 0.4875290688
C -4.8481701137 -0.4979578127 0.6768568399
H 4.5477029905 1.5082231946 0.9768338372
H 5.4188490308 0.5657156899 -0.2325806973
H 5.4814818079 0.0934804010 1.4664502770
H 3.0679336466 -0.4457604408 1.4310844906
H 3.9280093514 -1.3855438606 0.2121234549
H 3.2711806759 0.2648261121 -1.5262540684
H 2.3740112057 1.1826794936 -0.3227715791
H 1.8121305050 -1.7353131994 -0.9942720897
H 1.0185351496 -0.3959448199 -1.8135015903
H 0.8988051908 -0.7908148408 1.2002807846
H -0.2637201878 -1.5085916885 0.0981222707
H 0.2687016435 1.4827960707 0.1543675745
H -0.8959630551 0.7241125057 1.2262803515
H -1.7956274599 1.7493184251 -0.9459469829
H -1.0123868062 0.4241280244 -1.7974098272
H -3.2642629253 -0.2383291553 -1.5306931264
H -2.3820946823 -1.1751165479 -0.3304121817
H -3.0780578696 0.4470143044 1.4336580210
H -3.9332711130 1.3923827714 0.2158698085
H -5.4188841955 -0.5597993109 -0.2472574885
H -4.5547136127 -1.5050300595 0.9651546549
H -5.4931713541 -0.0926087127 1.4527811854
32
CONF357
C 4.3314755216 0.7128032595 1.4846678751
C 3.6403347122 -0.2963273675 0.5751659464
C 2.4392323655 0.3146981798 -0.1436866009
C 1.7576630186 -0.6902555718 -1.0716019516
C 0.5314825016 -0.1171715385 -1.7972141756
C -0.8110437384 -0.5060385081 -1.1738442600
C -1.0231548473 0.0495677007 0.2325247565
C -2.4070755783 -0.2705257895 0.8016498340
C -3.5385162908 0.5086604621 0.1334043103
C -4.8815342397 0.2290669415 0.7980778625
H 4.6858761543 1.5641707581 0.9077962978
H 5.1830337068 0.2577141911 1.9846422385
H 3.6414206853 1.0768937639 2.2426249187
H 3.3083653108 -1.1516416705 1.1684012605
H 4.3536452874 -0.6659152379 -0.1653660206
H 2.7738905784 1.1728725062 -0.7318825064
H 1.7275504922 0.6814861579 0.5972601009
H 1.4627900472 -1.5715455552 -0.4981181278
H 2.4928707117 -1.0192077523 -1.8097854270
H 0.5296015316 -0.4745837488 -2.8292454287
H 0.6076642292 0.9716106259 -1.8319374428
H -0.8892981366 -1.5956716423 -1.1431351620
H -1.6036352760 -0.1375308424 -1.8279179816
H -0.2722140220 -0.3774887100 0.8992259744
H -0.8832612418 1.1331569561 0.2181847861
H -2.5986281011 -1.3417265386 0.7028510849
H -2.4087691145 -0.0332109503 1.8685706129
H -3.3208027108 1.5776278410 0.1918055871
H -3.6018321417 0.2393554371 -0.9221149644
H -4.8550715861 0.5152370567 1.8473018249
H -5.6745969221 0.7893677257 0.3088824812
H -5.1217293545 -0.8301513153 0.7388586219
32
CONF415
C 4.1595399927 -0.0009952263 -0.9041467219
C 3.0983992962 -1.0926341628 -0.8192357088
C 2.1353709236 -0.9063666537 0.3541854321
C 1.2221929649 0.3086718822 0.2024059163
C 0.2158325794 0.3997046095 1.3475155096
C -0.6879319531 1.6301528031 1.2645120436
C -1.6670947570 1.6495044023 0.0874944837
C -2.7106530851 0.5233212550 0.1169422807
C -2.3753887673 -0.6493381783 -0.8045056806
C -3.4383002641 -1.7398245684 -0.7339708359
H 4.8643465994 -0.2220784372 -1.7022038791
H 4.7102850063 0.0657591551 0.0315974935
H 3.7089217383 0.9663618329 -1.1088999014
H 3.5963498967 -2.0590147945 -0.7097847605
H 2.5289892125 -1.1186840912 -1.7512164718
H 2.7093495479 -0.8152037609 1.2795306007
H 1.5138233876 -1.8016252520 0.4406080620
H 0.6951607168 0.2369118306 -0.7507003551
H 1.8199336826 1.2216120353 0.1859437886
H 0.7672049895 0.4438241171 2.2906671635
H -0.3947234231 -0.5040902815 1.3736458341
H -0.0580573474 2.5215664359 1.2029097566
H -1.2632435558 1.7006806823 2.1912262778
H -2.1830186164 2.6119593123 0.1152981533
H -1.1155926213 1.6108906449 -0.8528046290
H -2.8227329567 0.1581056693 1.1400701122
H -3.6803091000 0.9229712756 -0.1895255438
H -2.3005583060 -0.2850767877 -1.8321280618
H -1.4083280137 -1.0742705976 -0.5337998142
H -3.1903037321 -2.5604037397 -1.4028970908
H -3.5147132370 -2.1322178127 0.2778423125
H -4.4103806514 -1.3441716100 -1.0204944262
32
CONF452
C 3.7952759601 -1.3005888555 -1.1554377796
C 3.1703569444 -0.3002162074 -0.1896091981
C 1.7677929896 -0.7305133049 0.2354806412
C 1.1515556185 0.1709685984 1.3066293840
C 0.8802869023 1.6092943704 0.8621245502
C -0.1488346679 1.7712709740 -0.2595359519
C -1.5718116349 1.3384553710 0.1228852450
C -1.9444746132 -0.0579167088 -0.3738479219
C -3.3631584017 -0.4476603967 0.0363463658
C -3.7403587385 -1.8337664233 -0.4732728673
H 3.8795543430 -2.2799804012 -0.6895465593
H 4.7889863128 -0.9751733538 -1.4538234241
H 3.1831471834 -1.3992873868 -2.0493123684
H 3.1264338398 0.6778039524 -0.6715546372
H 3.8028776086 -0.2076456539 0.6966219583
H 1.8224288931 -1.7467087306 0.6354862200
H 1.1211141416 -0.7619179809 -0.6430227557
H 1.8304904755 0.2034109155 2.1631296145
H 0.2181751420 -0.2764930056 1.6523374253
H 1.8183630479 2.0653489562 0.5395375352
H 0.5320979928 2.1728548185 1.7318423082
H 0.1754801831 1.2195027782 -1.1427221960
H -0.1626973820 2.8291187124 -0.5319099428
H -1.6839488747 1.3778050628 1.2086551053
H -2.2885767584 2.0469936297 -0.2994043979
H -1.8687842533 -0.0817160956 -1.4641064217
H -1.2457582638 -0.7961402775 0.0217361334
H -3.4407854364 -0.4282007039 1.1260704256
H -4.0680427520 0.2886050001 -0.3573525353
H -4.7517224320 -2.0918821798 -0.1687908247
H -3.6892860444 -1.8664750122 -1.5593827918
H -3.0593914325 -2.5835164731 -0.0763451935
32
CONF271
C 4.7572298435 -1.1119485707 0.2959079957
C 3.2350840494 -1.1436135199 0.2250667360
C 2.6527194565 0.2246115336 -0.1227345673
C 1.1271473297 0.2009270727 -0.1898189372
C 0.5535412523 1.5719031042 -0.5396025704
C -0.9676834291 1.5814609780 -0.7054605155
C -1.7350777074 1.2861463522 0.5917919640
C -2.2534735689 -0.1502647021 0.6970964837
C -3.4709982706 -0.4059196945 -0.1895221008
C -3.9559326299 -1.8467362363 -0.0784242344
H 5.1761440276 -0.8037714458 -0.6594597564
H 5.1497235056 -2.0954244720 0.5425661094
H 5.0879536208 -0.4085188389 1.0568002507
H 2.8338484309 -1.4717670068 1.1866688794
H 2.9219791448 -1.8698002554 -0.5286332393
H 3.0526703231 0.5514155278 -1.0857968802
H 2.9690868016 0.9520725281 0.6288351512
H 0.7362152083 -0.1263234875 0.7750358014
H 0.8122806807 -0.5246659918 -0.9439719445
H 1.0056735919 1.9110135521 -1.4754371071
H 0.8344228205 2.2877892557 0.2368881122
H -1.2439341949 0.8551221592 -1.4712957550
H -1.2553425274 2.5675788703 -1.0759120099
H -1.0835498269 1.4947062863 1.4426772599
H -2.5907575006 1.9604915229 0.6708949604
H -1.4614625057 -0.8506743984 0.4283102002
H -2.5331712028 -0.3497507349 1.7346979019
H -4.2765422069 0.2717751541 0.1031408471
H -3.2221241740 -0.1898109790 -1.2302873533
H -4.8289391908 -2.0070225920 -0.7063512990
H -3.1753406996 -2.5363818009 -0.3919687894
H -4.2242860818 -2.0796740821 0.9496902878
32
CONF350
C 5.1550680171 0.1801210695 0.2130640378
C 3.6891218731 -0.1714939172 0.4392302933
C 2.9083307745 -0.1943778482 -0.8734666582
C 1.4577836911 -0.6511893955 -0.7139369698
C 0.5922106921 0.3338021428 0.0697170574
C -0.8738213541 -0.0949457730 0.0939647615
C -1.7384381085 0.8897092135 0.8772106306
C -3.1951546970 0.4506585890 1.0406049751
C -3.9815489496 0.3677929389 -0.2759676898
C -4.0877380052 -1.0507501096 -0.8270473551
H 5.6949367431 0.1967229240 1.1566946396
H 5.2433613963 1.1599744397 -0.2509902077
H 5.6265123112 -0.5508757549 -0.4402220654
H 3.2480702586 0.5601914785 1.1178501412
H 3.6205209834 -1.1525319626 0.9149262872
H 3.4127404754 -0.8730153340 -1.5659870240
H 2.9247662289 0.8029145428 -1.3195276403
H 1.4386737654 -1.6236340887 -0.2160777024
H 1.0235808378 -0.7822600090 -1.7083774415
H 0.6700196514 1.3236456945 -0.3867322593
H 0.9568847224 0.4111469604 1.0954713605
H -0.9509496427 -1.0851972082 0.5493868721
H -1.2365478872 -0.1667966946 -0.9326373754
H -1.3055128231 1.0185977832 1.8728489663
H -1.7118206763 1.8632831210 0.3813787415
H -3.2237553844 -0.5196602251 1.5403968318
H -3.6823643065 1.1708303002 1.7016979507
H -4.9937144991 0.7447832712 -0.1136760978
H -3.5120768892 1.0144385717 -1.0197876617
H -3.1056056178 -1.4776308288 -1.0084994807
H -4.6127599846 -1.6908433133 -0.1211778670
H -4.6408949301 -1.0510739638 -1.7638297848
32
CONF269
C 3.9497905641 1.8482417521 -0.1001962092
C 3.4688509774 0.4048350902 -0.1930601428
C 2.2525729153 0.1562594798 0.6972804809
C 1.7357133266 -1.2816323881 0.6051633617
C 0.9688114659 -1.5887396642 -0.6896309881
C -0.5525121882 -1.5776698384 -0.5250679572
C -1.1255131262 -0.2051756147 -0.1802050316
C -2.6517077979 -0.2245481306 -0.1270914689
C -3.2325620433 1.1430190945 0.2257787878
C -4.7556939394 1.1181918128 0.2746261406
H 4.2230486996 2.0933533122 0.9238466846
H 3.1652722808 2.5320132006 -0.4170123269
H 4.8188493645 2.0043029390 -0.7347348989
H 4.2765178086 -0.2668818571 0.1072957547
H 3.2199725537 0.1752939679 -1.2309216186
H 1.4594180718 0.8531102993 0.4228024829
H 2.5328830876 0.3656612753 1.7327324476
H 1.0844395514 -1.4833852071 1.4578614553
H 2.5921290620 -1.9543138270 0.6901410934
H 1.2566905322 -2.5780471443 -1.0512989342
H 1.2453614280 -0.8691780518 -1.4617360711
H -0.8347025614 -2.2908660248 0.2534013369
H -1.0037357325 -1.9195006546 -1.4603516738
H -0.7422052837 0.1208867372 0.7881363181
H -0.8021134943 0.5197128859 -0.9313871924
H -3.0437438828 -0.5426627322 -1.0962942599
H -2.9774517426 -0.9566115529 0.6159343623
H -2.8434761811 1.4597957351 1.1961606409
H -2.9053415606 1.8750154717 -0.5162179303
H -5.1468242952 2.1008551775 0.5266018041
H -5.1624467635 0.8227747020 -0.6899816810
H -5.1007412636 0.4080634340 1.0228273011
32
CONF356
C 4.2121716538 -0.6262276676 -0.9280863712
C 4.1347142641 -0.3508046787 0.5688065416
C 3.0155180805 0.6147816930 0.9648405479
C 1.6002336056 0.0812563110 0.6964586418
C 0.9850473149 0.6373078032 -0.5881652492
C -0.3551860329 -0.0075176756 -0.9452338887
C -1.4734443671 0.3244576095 0.0409202160
C -2.8198714777 -0.2307522458 -0.4183232994
C -3.9418187407 0.0931042238 0.5657524209
C -5.2836652457 -0.4598694687 0.1003140131
H 3.3219800438 -1.1438871135 -1.2748462981
H 5.0746622342 -1.2509350557 -1.1499430184
H 4.3127539393 0.3048795395 -1.4816493272
H 5.0862045808 0.0745124768 0.8979215210
H 3.9961517942 -1.2944728658 1.1018407800
H 3.1528632057 1.5598624547 0.4352884150
H 3.1228086300 0.8229146717 2.0316827492
H 0.9548586505 0.3487886558 1.5344211650
H 1.6270688178 -1.0090741125 0.6421465991
H 1.6761637360 0.4783827491 -1.4169233817
H 0.8453925939 1.7156684232 -0.4789392966
H -0.2314946806 -1.0919409350 -0.9982842790
H -0.6535044814 0.3377909434 -1.9384459049
H -1.2363092076 -0.0899442087 1.0222972852
H -1.5487972881 1.4094421546 0.1470944561
H -3.0685377170 0.1867610624 -1.3970986680
H -2.7428197200 -1.3147305156 -0.5325738100
H -3.6954109006 -0.3273408758 1.5434401460
H -4.0163730851 1.1767982405 0.6816864153
H -6.0662871216 -0.2173790604 0.8149986207
H -5.5553281615 -0.0370285774 -0.8643374296
H -5.2343069471 -1.5416019773 -0.0024168747
32
CONF358
C 3.1094942235 1.5926643773 1.0341808544
C 3.6705437560 0.5327282500 0.0913228127
C 3.1250645573 -0.8760804642 0.3670939670
C 1.9760606843 -1.2978031186 -0.5513513924
C 0.7088534993 -0.4612560809 -0.3905463444
C -0.4423303747 -1.0260437307 -1.2215083307
C -1.6892170898 -0.1406227141 -1.2131712306
C -2.3640006359 -0.0534784650 0.1543079975
C -3.6710146700 0.7344354711 0.0947326177
C -4.3394160296 0.8294369879 1.4612767911
H 3.5205529638 2.5699695814 0.7903561040
H 3.3736769256 1.3591645783 2.0634379862
H 2.0271223464 1.6490912060 0.9646366483
H 4.7573157931 0.5238802485 0.2001934265
H 3.4521741491 0.8100243818 -0.9417506205
H 2.7960729796 -0.9390653453 1.4063328363
H 3.9313835104 -1.6014743320 0.2374952648
H 1.7329574833 -2.3422883911 -0.3383892151
H 2.3115453031 -1.2464503692 -1.5903078913
H 0.9021239226 0.5639879189 -0.7101911544
H 0.4275355159 -0.4434208872 0.6636863576
H -0.7035358232 -2.0199303750 -0.8502125396
H -0.1037824832 -1.1398284674 -2.2545692892
H -1.4202461490 0.8643113741 -1.5474712654
H -2.4073833312 -0.5442492705 -1.9315397991
H -2.5688226406 -1.0627296839 0.5196827564
H -1.6934547759 0.4292537214 0.8673184709
H -3.4676370921 1.7399944304 -0.2807106105
H -4.3521148829 0.2508722937 -0.6094435255
H -3.6846631645 1.3297418196 2.1713363527
H -5.2680383922 1.3910198535 1.3951431429
H -4.5642500233 -0.1634438282 1.8444748257
32
CONF380
C 2.9360416784 1.8390247629 1.3219502804
C 2.8234296347 0.4106336096 0.8019978215
C 1.6777271125 0.2593475119 -0.1963880148
C 1.5478528959 -1.1763598833 -0.7040004141
C 0.3960783401 -1.3753110248 -1.7000463831
C -0.8758672831 -1.9634808716 -1.0826371094
C -1.5531830095 -1.0968457467 -0.0204894922
C -2.1341105541 0.1983703570 -0.5846026359
C -2.8962984385 1.0178087984 0.4583509964
C -1.9866699794 1.6444171454 1.5096575554
H 2.0187060616 2.1330567225 1.8276095157
H 3.1106444639 2.5304885109 0.5005170938
H 3.7597337090 1.9268786615 2.0262198587
H 2.6609402706 -0.2687339581 1.6422140832
H 3.7619992167 0.1226749003 0.3224534485
H 1.8534793003 0.9244723822 -1.0458881423
H 0.7499140608 0.5734147082 0.2817740534
H 1.4140332472 -1.8502115974 0.1450799967
H 2.4903699840 -1.4495497748 -1.1846813201
H 0.7204840692 -2.0646691782 -2.4829676635
H 0.1665064258 -0.4263616926 -2.1863160060
H -0.6251779079 -2.9281976651 -0.6338299531
H -1.5917857091 -2.1540193639 -1.8867635180
H -2.3668957697 -1.6761173552 0.4246288517
H -0.8396810323 -0.8764089800 0.7727038622
H -1.3356827776 0.8148618975 -1.0007860788
H -2.8162029604 -0.0539480695 -1.4006656362
H -3.4394611920 1.8152754712 -0.0541694159
H -3.6340327035 0.3798914212 0.9504321704
H -1.4847049450 0.8809084634 2.0982637315
H -1.2321996937 2.2684880618 1.0346107480
H -2.5663951548 2.2663970121 2.1877357653
32
CONF359
C 4.3594074041 -0.8317412062 1.4416117498
C 3.6748876081 -0.7423672052 0.0826776288
C 2.3752650821 0.0568941429 0.1516691523
C 1.6863792060 0.1423083127 -1.2088542192
C 0.4410386886 1.0300241452 -1.2055734882
C -0.7104181239 0.4578173232 -0.3801623585
C -1.9694568431 1.3115125370 -0.5119169898
C -3.1198250706 0.8746610389 0.3977271057
C -3.6848516381 -0.5172128347 0.0785095237
C -3.1360605346 -1.6143434185 0.9853264302
H 3.7087941775 -1.3192258081 2.1642682107
H 4.5985618026 0.1623009328 1.8129274129
H 5.2816935100 -1.4028951211 1.3690729562
H 3.4586391578 -1.7492221400 -0.2818888271
H 4.3511596518 -0.2702429447 -0.6337809714
H 2.5925651144 1.0664449142 0.5088512177
H 1.7085850341 -0.4158354151 0.8748769288
H 1.4121746305 -0.8627185645 -1.5385016906
H 2.3980519409 0.5432296937 -1.9351241655
H 0.1010702512 1.1566703067 -2.2366564052
H 0.7047701531 2.0189596385 -0.8229967235
H -0.4224082289 0.4114874693 0.6713893442
H -0.9167364326 -0.5573546424 -0.7229207943
H -1.7147695622 2.3467105804 -0.2692190709
H -2.3087529991 1.2942311843 -1.5507462193
H -2.7855605273 0.8994397462 1.4368913156
H -3.9172137283 1.6141670440 0.2957000815
H -4.7711555277 -0.4973507519 0.1905282685
H -3.4725556359 -0.7641486209 -0.9635096202
H -3.3932044791 -1.4097397864 2.0224855706
H -3.5621834506 -2.5773950386 0.7123643868
H -2.0548678116 -1.6842158272 0.9097643916
32
CONF272
C 4.0106624405 1.8166407482 -0.0666377739
C 3.5016759293 0.3836368487 -0.1697483994
C 2.2641921551 0.1582628162 0.6973172894
C 1.7183178693 -1.2673907074 0.5862806244
C 0.9659152422 -1.5453290227 -0.7239558970
C -0.5565456642 -1.5475145799 -0.5710681844
C -1.1397485697 -0.1864771074 -0.1987102661
C -2.6649995053 -0.2248593659 -0.1303779634
C -3.2610588128 1.1303633739 0.2439106267
C -4.7827526052 1.0804769366 0.3152984169
H 3.2467503859 2.5167592868 -0.3976721499
H 4.8946153614 1.9547035828 -0.6845632726
H 4.2696714025 2.0555398728 0.9625477869
H 4.2896453136 -0.3045815844 0.1452258434
H 3.2676867646 0.1593826786 -1.2122144003
H 1.4905500546 0.8729724487 0.4122469282
H 2.5298528901 0.3564933150 1.7387922542
H 1.0490631891 -1.4608375798 1.4267968903
H 2.5580169018 -1.9595197792 0.6802573656
H 1.2635226366 -2.5220958497 -1.1107178529
H 1.2434220074 -0.8025867427 -1.4734964818
H -0.8397813136 -2.2798568822 0.1890317773
H -0.9995168297 -1.8703712094 -1.5169222903
H -0.7494731617 0.1288811810 0.7704408763
H -0.8315926009 0.5535993173 -0.9414211640
H -3.0628465685 -0.5374612427 -1.0990198817
H -2.9735965400 -0.9693828352 0.6076205165
H -2.8624572378 1.4442720423 1.2113616396
H -2.9566622440 1.8742361073 -0.4959648495
H -5.1858259303 2.0534167004 0.5854534661
H -5.1994532376 0.7902386964 -0.6466344922
H -5.1048653700 0.3556684714 1.0596788831
32
CONF519
C 3.3271394965 -0.8637170472 -1.4737276832
C 2.9274579137 -1.2695933266 -0.0586752545
C 2.8434498806 -0.0875549500 0.9175959671
C 1.4331909576 0.4746640671 1.1107938339
C 0.8513454114 1.1323330015 -0.1386002357
C -0.4218669137 1.9331675892 0.1428589052
C -1.6010463175 1.1087640097 0.6628781883
C -2.0972861470 0.0614426014 -0.3317141045
C -3.3671212826 -0.6315050426 0.1581193626
C -3.8593064062 -1.6813753042 -0.8312572029
H 2.6142423338 -0.1650470686 -1.9011759740
H 3.3761550310 -1.7400683620 -2.1165262398
H 4.3069859414 -0.3909092397 -1.4673219918
H 3.6680546407 -1.9833212585 0.3094974883
H 1.9662297336 -1.7868754859 -0.0847322325
H 3.5071782234 0.7101064368 0.5774127012
H 3.2026076624 -0.4130291623 1.8967516610
H 1.4689008745 1.2191919331 1.9108646372
H 0.7774459056 -0.3331273875 1.4413536807
H 0.6410777847 0.3742771331 -0.8929192673
H 1.5956626044 1.8171788726 -0.5529332284
H -0.7269512419 2.4341418235 -0.7794739786
H -0.1917378827 2.7090777369 0.8775626645
H -1.3258320255 0.6195489076 1.5987656343
H -2.4226822449 1.7947906206 0.8854409214
H -2.2979670174 0.5429296292 -1.2920366266
H -1.3249724448 -0.6927903305 -0.4925226538
H -3.1691132641 -1.1055408499 1.1223322597
H -4.1490906346 0.1156643325 0.3126837024
H -3.1022528652 -2.4478410069 -0.9817357252
H -4.7641371896 -2.1594193137 -0.4639219929
H -4.0782934935 -1.2237599289 -1.7934675377
32
CONF478
C 3.8730187984 1.1790146492 0.5457480251
C 2.4536658481 0.7927616065 0.9464608549
C 2.1524412698 -0.6931987732 0.7423441586
C 2.1739166472 -1.1607558524 -0.7138263587
C 1.1090488064 -0.5422313804 -1.6233392378
C -0.3339264284 -0.9074873592 -1.2458310459
C -1.0530260902 0.1763554544 -0.4433137568
C -2.4802472942 -0.2338233422 -0.0871789701
C -3.2094900390 0.8487925183 0.7053411235
C -4.6321821294 0.4327882494 1.0601640001
H 4.0246558054 1.0549417259 -0.5232483279
H 4.5980880399 0.5609438466 1.0710509211
H 4.0645102048 2.2200511040 0.7953939075
H 1.7422532768 1.3973293181 0.3819680344
H 2.3118628427 1.0258675847 2.0048905512
H 1.1768591209 -0.9204508056 1.1754347326
H 2.8948055501 -1.2744938999 1.2959929740
H 2.0449095726 -2.2463450555 -0.7231024076
H 3.1566519582 -0.9513140223 -1.1407026743
H 1.3087579285 -0.8965763889 -2.6373429415
H 1.2182697326 0.5429848557 -1.6380861083
H -0.3357153361 -1.8397603405 -0.6769046980
H -0.9091480470 -1.0865801508 -2.1574049102
H -0.5052076455 0.3894208411 0.4754506232
H -1.0815719547 1.0972250151 -1.0315941317
H -3.0358199271 -0.4449115387 -1.0042754304
H -2.4547871182 -1.1543957593 0.5011613704
H -2.6536965178 1.0595827664 1.6219097400
H -3.2364409559 1.7685978005 0.1166053935
H -5.1322534344 1.2183090902 1.6213781615
H -5.2067239156 0.2351037459 0.1579648170
H -4.6244670174 -0.4710804997 1.6652038581
32
CONF520
C 3.1731413961 -1.6236360359 0.7788285999
C 2.7693105211 -0.2498247277 1.3021622163
C 2.8230439809 0.8438731948 0.2333416048
C 1.8666220949 0.6456804577 -0.9442907506
C 0.3933756473 0.6832523328 -0.5426737870
C -0.5222749733 0.5793008764 -1.7598885708
C -2.0094615490 0.7380130709 -1.4361095036
C -2.5800280279 -0.3677497865 -0.5362938405
C -2.6915676331 0.0403015279 0.9325542341
C -3.2208174423 -1.1005096778 1.7941737940
H 4.1524598242 -1.5775196526 0.3073152465
H 2.4562560048 -1.9901058552 0.0489982396
H 3.2188525282 -2.3394197956 1.5963147049
H 3.4492979787 0.0334393236 2.1094078111
H 1.7660316627 -0.3025160943 1.7278264289
H 3.8430053616 0.8988982359 -0.1555922642
H 2.5995125177 1.8032538916 0.7069556472
H 2.0831250010 -0.3013993766 -1.4412305819
H 2.0526540827 1.4415373496 -1.6704571471
H 0.1887904842 1.6182912057 -0.0151714565
H 0.1828137195 -0.1429318692 0.1359664662
H -0.3634676413 -0.3863823466 -2.2465755266
H -0.2425002103 1.3556961651 -2.4771512879
H -2.1720653514 1.7090519391 -0.9634945933
H -2.5532977307 0.7436051898 -2.3832429845
H -3.5784756759 -0.6398393225 -0.8865568990
H -1.9569163722 -1.2608367776 -0.6176397010
H -1.7164558551 0.3531470344 1.3076482577
H -3.3656934596 0.8963834685 1.0136408649
H -4.2019028777 -1.4172059034 1.4467495310
H -2.5501530221 -1.9558541833 1.7478741477
H -3.3078874001 -0.7880181987 2.8319513579
32
CONF394
C 4.9201963926 0.1498785700 -0.6674404843
C 3.7261856930 -0.2655843029 0.1841512641
C 2.5655031123 0.7179199826 0.0457165844
C 1.3669784844 0.3679748321 0.9305018841
C 0.5685426556 -0.8489175615 0.4549562130
C -0.3141879053 -0.5699539331 -0.7646207724
C -1.5889340361 0.2162919938 -0.4469424025
C -2.6534420723 -0.6368233778 0.2412028543
C -3.8957052050 0.1576241352 0.6475281162
C -4.7096947896 0.6549361714 -0.5420084669
H 5.2763165600 1.1340595148 -0.3707781942
H 4.6425252477 0.1895189080 -1.7184595237
H 5.7364043448 -0.5595294340 -0.5541844186
H 4.0291262133 -0.3176692824 1.2326123595
H 3.4046462928 -1.2638618982 -0.1175716572
H 2.2546818416 0.7616012712 -0.9997838447
H 2.9219634505 1.7136544303 0.3211908468
H 0.7017847315 1.2320658041 0.9799527803
H 1.7294348241 0.1784525304 1.9437571806
H -0.0583200022 -1.1993788150 1.2765559522
H 1.2605210056 -1.6569540076 0.2131291268
H -0.5995221465 -1.5206606104 -1.2211640841
H 0.2675062584 -0.0168461149 -1.5041735980
H -1.3474184955 1.0708931340 0.1879906405
H -1.9949883980 0.6051694548 -1.3822222747
H -2.9494820704 -1.4495797875 -0.4265954867
H -2.2268732427 -1.0880632309 1.1393227010
H -4.5310015221 -0.4835116896 1.2634332377
H -3.5930091210 1.0089609576 1.2615506506
H -4.1448216463 1.3741838678 -1.1288264755
H -4.9852365276 -0.1766083355 -1.1869393324
H -5.6207559233 1.1392348643 -0.1984294578
32
CONF497
C 3.8547749882 1.6780159300 -0.8361780890
C 3.3616590801 0.6316834007 0.1564143607
C 2.0930506318 -0.0643361652 -0.3322403432
C 1.6021603273 -1.1136792725 0.6627931835
C 0.4193867628 -1.9368438876 0.1489825104
C -0.8530139698 -1.1342411305 -0.1314806376
C -1.4160709393 -0.4511723210 1.1128578976
C -2.8264056836 0.1132166681 0.9270315786
C -2.9186657545 1.2710575402 -0.0771857519
C -3.3509953003 0.8321068030 -1.4726084206
H 4.0804569218 1.2161619901 -1.7947174440
H 4.7558577520 2.1614139190 -0.4667555858
H 3.0956833201 2.4407840381 -0.9945181423
H 3.1617977211 1.1093464523 1.1184836813
H 4.1439169464 -0.1142498615 0.3151404460
H 2.2932527643 -0.5444103893 -1.2933491489
H 1.3181381674 0.6876743645 -0.4908837321
H 1.3327480721 -0.6262163470 1.6012627325
H 2.4248231887 -1.8004561113 0.8792231307
H 0.1899488934 -2.7093180561 0.8875387133
H 0.7199934758 -2.4421413632 -0.7724525660
H -1.6055244215 -1.8226302188 -0.5246442370
H -0.6482307639 -0.3908201518 -0.9018093705
H -1.4440726229 -1.1801718501 1.9273166625
H -0.7531725708 0.3602873702 1.4191561612
H -3.4989092514 -0.6891608323 0.6164493533
H -3.1692886108 0.4643296728 1.9031348808
H -3.6443125841 2.0018858498 0.2869204508
H -1.9531595681 1.7772937237 -0.1360811718
H -2.6560471943 0.1116154409 -1.8934508455
H -4.3369758171 0.3737434315 -1.4346072155
H -3.4003223658 1.6908652368 -2.1388234766
32
CONF433
C 3.5983175357 1.8444804107 -0.3953436275
C 2.9945890209 0.5978565304 0.2414956402
C 2.3597406148 -0.3178215094 -0.8046415549
C 1.7326582493 -1.5875383728 -0.2116307637
C 0.2207079850 -1.5005138683 0.0084540629
C -0.1941507070 -0.4677325063 1.0539891484
C -1.6615561612 -0.5909820674 1.4707970771
C -2.6736159209 -0.3895308217 0.3415287026
C -2.6226707851 1.0024515820 -0.2849223385
C -3.7421133756 1.1998542546 -1.3006721524
H 4.0532702807 2.4787788271 0.3615674869
H 2.8310870375 2.4192753818 -0.9095682764
H 4.3626057596 1.5709269637 -1.1196825190
H 2.2487354571 0.8956907522 0.9788867945
H 3.7779398472 0.0469001403 0.7675814891
H 3.1371500620 -0.6006800717 -1.5185329713
H 1.6008260203 0.2378638016 -1.3595342752
H 2.2225060331 -1.8245790821 0.7353748468
H 1.9172907802 -2.4236085010 -0.8900452345
H -0.1353065445 -2.4832946124 0.3291671555
H -0.2579451702 -1.2710226432 -0.9453680618
H -0.0092243796 0.5375336902 0.6753237682
H 0.4217238086 -0.6052301199 1.9465177904
H -1.8201040586 -1.5824734023 1.9028180579
H -1.8611647925 0.1445743947 2.2543984173
H -2.5161874085 -1.1414449253 -0.4336325724
H -3.6745406587 -0.5504112832 0.7507729348
H -2.7097137574 1.7549978618 0.5023203541
H -1.6625291481 1.1493210823 -0.7820597829
H -4.7138117126 1.0881146090 -0.8244146346
H -3.6881937549 2.1917778375 -1.7429376588
H -3.6663012297 0.4632891881 -2.0977048952
32
CONF492
C 3.3315398277 -0.8497093965 -1.4681809151
C 2.8783960625 -1.2800630518 -0.0766052420
C 2.8096190387 -0.1212559548 0.9286844053
C 1.4095286790 0.4675619619 1.1158639277
C 0.8549284999 1.1506668603 -0.1320043333
C -0.4188528466 1.9543027415 0.1386996294
C -1.6033274985 1.1331507222 0.6519292410
C -2.0688363016 0.0568249410 -0.3264316859
C -3.3524007482 -0.6230354476 0.1457488664
C -3.8081506983 -1.7104240945 -0.8202353801
H 4.3308634996 -0.4219000718 -1.4231964020
H 2.6611788891 -0.1065471202 -1.8896142328
H 3.3579531840 -1.7070053282 -2.1374650665
H 3.5816759406 -2.0308568552 0.2908257887
H 1.9001767398 -1.7604660005 -0.1433352791
H 3.4955890810 0.6690668264 0.6167690012
H 3.1479376315 -0.4782213340 1.9042114273
H 1.4514506696 1.2012965896 1.9254390598
H 0.7343333564 -0.3310097662 1.4290475494
H 0.6539830082 0.4067295534 -0.9027706381
H 1.6108201442 1.8376371250 -0.5212142010
H -0.7154599954 2.4532706682 -0.7874847059
H -0.1939439465 2.7317623073 0.8733677101
H -1.3457363578 0.6696969726 1.6058322701
H -2.4347037630 1.8180358020 0.8390406450
H -2.2406478206 0.5092298734 -1.3062525107
H -1.2916029583 -0.7007778619 -0.4411309901
H -3.1854132940 -1.0607059388 1.1328056060
H -4.1413482075 0.1259622958 0.2466944559
H -3.0452484072 -2.4800875518 -0.9149821035
H -4.7247119818 -2.1766702519 -0.4669164367
H -3.9937760907 -1.2898702262 -1.8062006772
32
CONF546
C 3.8901178716 -0.7755731857 1.5363303498
C 3.1268583137 0.0733524538 0.5260215722
C 2.3536462869 -0.7943072049 -0.4647978740
C 1.6856400921 0.0029911336 -1.5865128275
C 0.6314451199 1.0115699667 -1.1256302105
C -0.5448781741 0.3704702048 -0.3911846981
C -1.6528762394 1.3858946059 -0.1214342355
C -2.7907206144 0.8563630558 0.7541532067
C -3.5947036806 -0.2901829723 0.1241746580
C -3.1547677300 -1.6708449456 0.6011194864
H 4.6112765100 -1.4144047476 1.0310722573
H 3.2048428614 -1.4098408588 2.0945290496
H 4.4251705076 -0.1438154711 2.2412413937
H 3.8294856983 0.7058745421 -0.0215929262
H 2.4366002525 0.7272711323 1.0611709524
H 1.6029521472 -1.3759539983 0.0729909152
H 3.0477872854 -1.5048482947 -0.9213231930
H 1.2158314674 -0.7016169992 -2.2774870323
H 2.4586923624 0.5409618152 -2.1411800800
H 0.2506301100 1.5304266290 -2.0094075118
H 1.0945381972 1.7637310823 -0.4845364692
H -0.2044911585 -0.0421617323 0.5600075693
H -0.9350740405 -0.4476513371 -0.9988414127
H -1.2144834642 2.2549782936 0.3767453184
H -2.0649096972 1.7298653560 -1.0735617936
H -2.3842507231 0.5280456797 1.7129748749
H -3.4638392788 1.6926230854 0.9564729497
H -4.6505566534 -0.1662815599 0.3751585736
H -3.5128745233 -0.2355042887 -0.9631126396
H -3.7547370593 -2.4431036395 0.1244635490
H -2.1104857359 -1.8553720874 0.3669238619
H -3.2834170244 -1.7559077978 1.6781333804
32
CONF310
C 3.8363011947 1.2583909247 0.7435924206
C 4.0672370666 -0.2395196275 0.5826326385
C 2.7889144815 -1.0248065125 0.2814525966
C 2.1590544870 -0.6826381935 -1.0771995287
C 0.9420225255 0.2410922500 -0.9827697945
C -0.3042932329 -0.4792258898 -0.4718087716
C -1.5028580220 0.4605305494 -0.3619752440
C -2.7510773152 -0.2571263705 0.1460369464
C -3.9509627411 0.6808314995 0.2568966742
C -5.1897943661 -0.0401888627 0.7750705662
H 3.4763834692 1.6974863327 -0.1830591373
H 4.7647941080 1.7549508589 1.0166523045
H 3.1042840334 1.4479127597 1.5257093559
H 4.5034122678 -0.6303683242 1.5054095444
H 4.7897311748 -0.4096914964 -0.2191191923
H 2.0675346807 -0.8408952964 1.0789919552
H 3.0357381486 -2.0881788415 0.3070536023
H 1.8479334106 -1.6018908140 -1.5782571725
H 2.9151391992 -0.2138404174 -1.7101128222
H 0.7269530818 0.6461187875 -1.9748710331
H 1.1659415882 1.0819885169 -0.3249723673
H -0.1033779037 -0.9168443596 0.5081947293
H -0.5498869919 -1.2985173990 -1.1520022377
H -1.2575205303 1.2808613141 0.3170482394
H -1.7109142058 0.8965343114 -1.3421693867
H -2.9968860077 -1.0773781591 -0.5327141100
H -2.5429725995 -0.6922750149 1.1264953207
H -3.7024157601 1.5046236817 0.9299323218
H -4.1641367097 1.1095824405 -0.7249104421
H -5.0029073040 -0.4545895353 1.7632445567
H -6.0312577467 0.6449387494 0.8428268196
H -5.4622376457 -0.8554779336 0.1085016990
32
CONF364
C 4.1941999545 -0.6799191216 0.9078425184
C 4.1308166375 -0.3378502434 -0.5759572569
C 3.0225685265 0.6536470872 -0.9373343907
C 1.6014244984 0.1222360663 -0.6973894959
C 0.9853807339 0.6320159246 0.6059648129
C -0.3527166693 -0.0282285907 0.9417362967
C -1.4714065902 0.3271740307 -0.0357300301
C -2.8161074166 -0.2430562857 0.4099365608
C -3.9395315100 0.0981008047 -0.5664930257
C -5.2800431477 -0.4640420865 -0.1082987330
H 4.2985523558 0.2247168690 1.5030063119
H 5.0495848921 -1.3215381923 1.1080880640
H 3.2969826120 -1.2045595805 1.2247758864
H 3.9886562044 -1.2558844220 -1.1511142220
H 5.0883289059 0.0934352888 -0.8787662131
H 3.1373555127 0.9045760849 -1.9941592859
H 3.1656201973 1.5748420185 -0.3686228059
H 1.6188876358 -0.9695545903 -0.6864735914
H 0.9621506669 0.4284256652 -1.5267683924
H 0.8431102555 1.7131554449 0.5340786323
H 1.6773718585 0.4462484037 1.4283794484
H -0.6537106705 0.2865437450 1.9442468629
H -0.2245001081 -1.1132137116 0.9631829805
H -1.5491653973 1.4143669363 -0.1137392556
H -1.2332736629 -0.0612106724 -1.0274667007
H -2.7349153901 -1.3290685955 0.4998156109
H -3.0664490168 0.1512405928 1.3979083990
H -4.0148533576 1.1836397516 -0.6627786713
H -3.6947023725 -0.3045705566 -1.5520661319
H -6.0641566872 -0.2111125039 -0.8177295732
H -5.2288851035 -1.5472805526 -0.0233174431
H -5.5508082978 -0.0574705458 0.8635600464
32
CONF343
C 4.9799622574 -0.2913820619 0.5718476341
C 3.7807346890 -0.7640208429 -0.2414008302
C 2.5628512919 0.1345698401 -0.0360356371
C 1.3563437174 -0.3540878867 -0.8346886700
C 0.1479557675 0.5795541445 -0.7521470976
C -0.4447552425 0.6784738453 0.6543182228
C -1.8008758175 1.3994643809 0.6839153355
C -3.0045169374 0.4577310439 0.7609091500
C -3.1749865966 -0.4404689269 -0.4619171546
C -4.4380993634 -1.2884171248 -0.3611500985
H 5.2586411290 0.7203611771 0.2857700939
H 5.8346191940 -0.9431251153 0.4077323700
H 4.7443228999 -0.2937900205 1.6337457298
H 3.5257143041 -1.7859055019 0.0488259196
H 4.0439872042 -0.7782468090 -1.3016231838
H 2.8106445670 1.1532455018 -0.3440041350
H 2.3164890631 0.1582566358 1.0268331873
H 1.0686053743 -1.3467381971 -0.4793508713
H 1.6484758436 -0.4532915248 -1.8833380515
H -0.6159876078 0.2141925626 -1.4400694583
H 0.4407011521 1.5776610079 -1.0871169310
H 0.2593904699 1.2152453801 1.2916979421
H -0.5592816855 -0.3248710595 1.0696783795
H -1.8397454273 2.0551366655 1.5564505796
H -1.8944703645 2.0325338654 -0.2009561309
H -2.9114421084 -0.1672456217 1.6526677045
H -3.9082332155 1.0617171648 0.8782505367
H -3.2263144147 0.1794741397 -1.3601140068
H -2.3116649646 -1.1006286268 -0.5564392313
H -4.4017126734 -1.9208752378 0.5232310381
H -5.3194898091 -0.6546076400 -0.2913622229
H -4.5415562443 -1.9262321710 -1.2356788313
32
CONF421
C 3.5255133590 1.8788629876 -0.4189602402
C 2.9732530706 0.6159438490 0.2323060416
C 2.3422751604 -0.3189727800 -0.7990275701
C 1.7450599522 -1.5950010358 -0.1885270554
C 0.2316996789 -1.5364135109 0.0310764685
C -0.2006220026 -0.5097407098 1.0752639414
C -1.6770101575 -0.6290974337 1.4598309549
C -2.6635121303 -0.3900286951 0.3152229904
C -2.5820858428 1.0148851072 -0.2784804809
C -3.6815250273 1.2531217480 -1.3072013135
H 2.7297010593 2.4314939759 -0.9137154347
H 4.2787275331 1.6266535397 -1.1623437055
H 3.9811342873 2.5262357353 0.3263375350
H 2.2353665339 0.8925563439 0.9859479626
H 3.7836640495 0.0888185179 0.7414570576
H 3.1150540884 -0.5924095012 -1.5214613816
H 1.5661961954 0.2190996249 -1.3475460750
H 2.2401516200 -1.8083340944 0.7613203955
H 1.9477834753 -2.4358405077 -0.8556267338
H -0.1077310104 -2.5247586823 0.3527194054
H -0.2503180243 -1.3162618078 -0.9232043009
H -0.0041104610 0.4974020022 0.7079941892
H 0.3969191310 -0.6562009975 1.9788295181
H -1.8537786992 -1.6287280056 1.8651594602
H -1.8857840289 0.0900305353 2.2561697018
H -2.5001661249 -1.1265525712 -0.4733705888
H -3.6744424923 -0.5468455778 0.7006508570
H -2.6703061223 1.7505408577 0.5244599091
H -1.6120921772 1.1583200133 -0.7571435209
H -4.6625301055 1.1447812749 -0.8496914613
H -3.6056062630 2.2544279776 -1.7243625720
H -3.6033005016 0.5348614809 -2.1205228528
32
CONF557
C 4.4837562184 0.9657685699 -0.4270728124
C 3.1234319696 0.3460153700 -0.7256561878
C 2.7226740226 -0.6696465406 0.3422935374
C 1.4374834974 -1.4313690130 0.0123666262
C 0.1823305089 -0.5672249376 -0.1321549072
C -0.2119680146 0.1459376386 1.1585409416
C -1.4519279085 1.0320665458 1.0178874412
C -2.7436715864 0.2666209365 0.6952228360
C -3.1402283388 0.3390721576 -0.7791851731
C -4.4078002292 -0.4594859725 -1.0607662106
H 5.2554502163 0.1994054488 -0.4010379532
H 4.4687740385 1.4679744679 0.5379076918
H 4.7483724696 1.6944149759 -1.1896425981
H 3.1554277330 -0.1490465861 -1.6990730852
H 2.3767529599 1.1397837655 -0.7786822632
H 2.6182582697 -0.1617797564 1.3026809820
H 3.5294891834 -1.3995213610 0.4495018184
H 1.2632159660 -2.1709795626 0.7980930141
H 1.5884953830 -1.9757689085 -0.9234426543
H -0.6346554874 -1.2218343723 -0.4408150558
H 0.3314562320 0.1700992692 -0.9228193008
H 0.6151799322 0.7782167156 1.4866858292
H -0.3888451089 -0.5978484794 1.9396088294
H -1.5808532989 1.5692015479 1.9601044451
H -1.2711093057 1.7792170115 0.2420117599
H -2.6303938637 -0.7792100077 0.9882326022
H -3.5657662196 0.6780121409 1.2854818553
H -3.3043486219 1.3841418146 -1.0525324010
H -2.3289336737 -0.0405013936 -1.4016329990
H -4.6783218655 -0.3904986969 -2.1115939655
H -4.2604498343 -1.5082147094 -0.8118640275
H -5.2366489752 -0.0810013534 -0.4664485755
32
CONF576
C 4.2081833775 1.1860711889 -1.1392750179
C 3.5520662808 -0.0512680349 -0.5379671055
C 2.2912228836 0.2995441634 0.2492544170
C 1.6418354135 -0.9371528414 0.8693845628
C 0.3506016900 -0.6252820593 1.6403518125
C -0.9348657915 -0.9422513374 0.8725139928
C -1.1305509662 -0.0889524834 -0.3779380872
C -2.4353165229 -0.3914466411 -1.1188290138
C -3.7153970050 -0.0566758529 -0.3502351149
C -3.8517565860 1.4260242179 -0.0226681142
H 4.4897417253 1.8858013410 -0.3555142487
H 3.5216726464 1.6894372889 -1.8164187559
H 5.1022391374 0.9141511127 -1.6949788074
H 4.2618337316 -0.5538942822 0.1233355368
H 3.2948675690 -0.7501127237 -1.3374165789
H 1.5837788410 0.7998768959 -0.4135716286
H 2.5508181649 1.0025817833 1.0447247719
H 2.3664386105 -1.3947771143 1.5469963283
H 1.4307206377 -1.6675378624 0.0854325125
H 0.3459633192 0.4287635473 1.9261316505
H 0.3356908132 -1.2104040394 2.5624807766
H -1.7762322726 -0.7852178273 1.5501636257
H -0.9324921267 -1.9979233837 0.5893190003
H -1.0976414696 0.9670107633 -0.1049155090
H -0.3071596631 -0.2777472428 -1.0690220709
H -2.4378481673 0.1729357788 -2.0549789907
H -2.4529273583 -1.4537987368 -1.3755534960
H -4.5662226580 -0.3614971374 -0.9646497947
H -3.7579884950 -0.6382658428 0.5720033434
H -3.0865423894 1.7424840215 0.6809350413
H -3.7596983881 2.0248088983 -0.9262236155
H -4.8232790374 1.6249196123 0.4236462050
32
CONF564
C 4.2740146102 0.3539707202 -0.9029163951
C 3.7694417201 0.3964376210 0.5349913252
C 2.9267117952 -0.8223068540 0.9163712292
C 1.6426518084 -1.0006092107 0.1041464030
C 0.6501496129 0.1479509423 0.2714246151
C -0.6730883134 -0.1402316257 -0.4347989408
C -1.6546106921 1.0238392995 -0.3026265264
C -3.0183505093 0.7464836890 -0.9520863138
C -4.1097608521 0.3330021549 0.0376073812
C -3.8371487229 -0.9929301276 0.7377333240
H 4.9502601266 1.1851252364 -1.0889351995
H 3.4502721761 0.4245875542 -1.6080596174
H 4.8101855197 -0.5739631132 -1.0900885291
H 3.1909667826 1.3081310996 0.6915988831
H 4.6285856596 0.4369497180 1.2090355331
H 2.6630914187 -0.7434480078 1.9741540905
H 3.5386043819 -1.7198570263 0.7957504187
H 1.1622745862 -1.9273759100 0.4289281692
H 1.8871879678 -1.1169665722 -0.9528636035
H 1.0748190858 1.0673833680 -0.1355301873
H 0.4636851782 0.3109642412 1.3359586135
H -1.1121563410 -1.0474770472 -0.0179198170
H -0.4805573250 -0.3252810869 -1.4946921920
H -1.7963074802 1.2598932077 0.7541024535
H -1.2028488626 1.9021038855 -0.7696731080
H -3.3613395528 1.6485937074 -1.4634445666
H -2.9070351972 -0.0328465550 -1.7089174035
H -4.2267560232 1.1189195864 0.7876337986
H -5.0544588912 0.2559765406 -0.5065730795
H -2.9591480150 -0.9228565226 1.3739104613
H -4.6848707438 -1.2689950262 1.3609308821
H -3.6770733592 -1.7830487065 0.0073594172
32
CONF428
C 2.7663053460 -0.8761925772 2.0883426164
C 2.0275928705 -0.6637178105 0.7717260155
C 2.6494002025 0.4667503939 -0.0446392281
C 2.0232511228 0.6579974798 -1.4278595196
C 0.5446772451 1.0713233768 -1.3917226509
C -0.4090041616 -0.0963253015 -1.6466147119
C -1.8819214544 0.2946669861 -1.5045829213
C -2.3403760853 0.5185390470 -0.0617566352
C -2.4369426375 -0.7717493069 0.7503970202
C -2.9321607392 -0.5075553501 2.1676209406
H 2.3052889306 -1.6774611132 2.6609117901
H 2.7438038685 0.0314604533 2.6876134591
H 3.8060998256 -1.1384948810 1.9052968801
H 0.9839433039 -0.4294143593 0.9860183622
H 2.0550534372 -1.5871478795 0.1883071617
H 3.7147533591 0.2582295336 -0.1744645813
H 2.5656965207 1.4004533107 0.5173984394
H 2.1280823513 -0.2656257146 -2.0012081999
H 2.5985967223 1.4279663675 -1.9464057382
H 0.3596957452 1.8314265484 -2.1543842314
H 0.3263892692 1.5270961428 -0.4252536111
H -0.1814425369 -0.9183787582 -0.9692707578
H -0.2429980241 -0.4594048611 -2.6641285561
H -2.0554191216 1.2094284450 -2.0767552963
H -2.5006361319 -0.4907605692 -1.9454224535
H -1.6615777513 1.2102120261 0.4402711393
H -3.3265502041 0.9892723846 -0.0808507327
H -3.1205009322 -1.4608704081 0.2489487586
H -1.4596168115 -1.2547510313 0.8004081180
H -3.9170853309 -0.0459893842 2.1479311473
H -2.9985900074 -1.4361714430 2.7293167427
H -2.2519472364 0.1618755283 2.6899238363
32
CONF509
C 4.2231907122 0.4909519904 -1.3070487614
C 2.8715825660 0.0398828925 -0.7645838727
C 2.9750301604 -0.4128219764 0.6898421444
C 1.6776971063 -0.9899084755 1.2597524846
C 0.5270982892 0.0229498542 1.3540606641
C -0.4791059851 -0.0948191144 0.2094873883
C -1.5801846461 0.9578874394 0.3199642477
C -2.5560980148 0.9460914517 -0.8581147240
C -3.3735600051 -0.3385694207 -1.0079958841
C -4.2832786103 -0.6159957812 0.1835518610
H 4.6111004405 1.3202242272 -0.7194367564
H 4.1320281274 0.8153054967 -2.3408925913
H 4.9430490380 -0.3235781223 -1.2643621937
H 2.4945383255 -0.7856307080 -1.3728151759
H 2.1644618026 0.8669461785 -0.8423535837
H 3.2913337297 0.4325025243 1.3061217596
H 3.7523165350 -1.1783332007 0.7615379280
H 1.8988943357 -1.3733833954 2.2581581779
H 1.3639318047 -1.8390059528 0.6488203550
H 0.9354499239 1.0355266595 1.3769818779
H -0.0110251000 -0.1268351491 2.2930634277
H -0.9198189395 -1.0930329186 0.2351092982
H 0.0300562209 0.0188448343 -0.7487124430
H -2.1262234549 0.8162162877 1.2541063505
H -1.1149548976 1.9462922334 0.3646877528
H -3.2467589426 1.7853749957 -0.7429125254
H -1.9925011508 1.1079199141 -1.7805294981
H -3.9884397293 -0.2444743941 -1.9064735777
H -2.7042165021 -1.1865226339 -1.1605509944
H -4.9198195981 -1.4737711701 -0.0206539328
H -3.7026369312 -0.8316354765 1.0764582816
H -4.9190267292 0.2437331140 0.3842227777
32
CONF540
C 3.7101686762 1.1355917636 0.4627218881
C 3.9219505455 -0.3698658289 0.3575250848
C 2.6418738236 -1.1886509896 0.5376178777
C 1.5890863626 -0.9559484255 -0.5560403808
C 0.4742126676 -0.0002614217 -0.1315224336
C -0.5273816508 0.2290233465 -1.2615253659
C -1.6067950000 1.2589177626 -0.9223499259
C -2.5152188045 0.8837464596 0.2499719672
C -3.3253449094 -0.3890256016 0.0122464384
C -4.3206472994 -0.6387638116 1.1395376226
H 3.2337171559 1.3877109156 1.4076080184
H 3.0865455777 1.4977078985 -0.3500286916
H 4.6656304101 1.6531432494 0.4119990307
H 4.6372428031 -0.6794805605 1.1236892167
H 4.3613660256 -0.6048310929 -0.6148817549
H 2.2069235497 -0.9632322246 1.5135852638
H 2.9236653924 -2.2438781583 0.5442261310
H 1.1303805189 -1.9102249327 -0.8257650031
H 2.0769814606 -0.5704046964 -1.4538097455
H 0.8976602499 0.9583005502 0.1711204929
H -0.0379844868 -0.4257593080 0.7332483577
H -0.9937692394 -0.7199455865 -1.5320679122
H 0.0146293531 0.5845477978 -2.1420122674
H -1.1213646919 2.2107150941 -0.6921700460
H -2.2275527192 1.4123874952 -1.8088626585
H -1.9203676460 0.7698009306 1.1577876284
H -3.2087256390 1.7116824015 0.4192165628
H -3.8633041053 -0.3014510517 -0.9346595146
H -2.6535200285 -1.2453993853 -0.0635222369
H -5.0221789959 0.1887655364 1.2201867117
H -4.8842866167 -1.5506534725 0.9576496590
H -3.8010571991 -0.7395901368 2.0899726459
32
CONF391
C 3.8769613457 -0.5074126163 -1.6319291501
C 2.7529227703 -0.9980505487 -0.7271878943
C 2.1201703882 0.1432292801 0.0661866975
C 0.9985984627 -0.3506253444 0.9778137873
C 0.3125342867 0.7819457118 1.7464663021
C -0.6010339186 1.6694413843 0.8889423676
C -2.0877850126 1.3164414549 0.9883964409
C -2.4689349477 -0.0696542588 0.4672510024
C -2.2786952110 -0.2273455035 -1.0400304201
C -2.7048982915 -1.6108683212 -1.5172735490
H 4.6623125658 -0.0388897642 -1.0429896194
H 3.5008178315 0.2243582103 -2.3435089239
H 4.3107373692 -1.3355211921 -2.1871498486
H 3.1449222262 -1.7452942988 -0.0333462775
H 1.9848787521 -1.4830002372 -1.3344391965
H 1.7314152019 0.8871673588 -0.6323616679
H 2.8878471809 0.6323002984 0.6709148795
H 1.4217919987 -1.0564917402 1.6973532089
H 0.2664552477 -0.8931560938 0.3794546890
H 1.0915748481 1.3981378758 2.2012786210
H -0.2752113491 0.3545805299 2.5616490645
H -0.2867885966 1.6290664202 -0.1535611717
H -0.4931377409 2.7067924644 1.2136783875
H -2.3903504890 1.3877345601 2.0363696785
H -2.6573399525 2.0660833626 0.4324853122
H -1.8894798338 -0.8312152284 0.9914026195
H -3.5220507304 -0.2455633006 0.7028133335
H -2.8672758504 0.5338167767 -1.5576418089
H -1.2312937076 -0.0690541923 -1.3016729207
H -3.7542959564 -1.7868632389 -1.2910370306
H -2.5639518148 -1.7062815126 -2.5912921928
H -2.1163204338 -2.3816914540 -1.0238480913
32
CONF388
C 3.9273266655 -0.5009418510 -1.6106732669
C 2.8002293490 -0.9966133942 -0.7123408029
C 2.1431372045 0.1447314476 0.0608384854
C 1.0159796527 -0.3532026372 0.9633352918
C 0.3207837835 0.7774319081 1.7263216079
C -0.5931218557 1.6572361163 0.8608174201
C -2.0811999607 1.3181776660 0.9843475713
C -2.4792391973 -0.0686584988 0.4779438737
C -2.3262077820 -0.2312477874 -1.0330734212
C -2.8042589383 -1.6008211093 -1.5014498406
H 3.5494089108 0.2180558275 -2.3342191755
H 4.3776893564 -1.3292585861 -2.1520827216
H 4.7002609678 -0.0158171236 -1.0187737255
H 3.1950901227 -1.7299770695 -0.0052858992
H 2.0456553031 -1.4996470584 -1.3218046309
H 1.7545062326 0.8773384105 -0.6496886424
H 2.8972064441 0.6485646617 0.6706465121
H 1.4359984941 -1.0577323523 1.6860402306
H 0.2892788560 -0.8977540498 0.3595995871
H 1.0940906216 1.3982632386 2.1844301787
H -0.2689335826 0.3484058376 2.5391360455
H -0.2914487170 1.5918888891 -0.1841540584
H -0.4722395671 2.6999869187 1.1625253906
H -2.3681457407 1.3996551525 2.0359559226
H -2.6531822347 2.0678375914 0.4309984450
H -1.8895338459 -0.8307104799 0.9898603089
H -3.5269944282 -0.2399581385 0.7392700172
H -2.9033092806 0.5472435855 -1.5377539469
H -1.2803927866 -0.1037338200 -1.3172551631
H -2.6878128214 -1.6999998931 -2.5780538071
H -2.2306349097 -2.3899024227 -1.0196057960
H -3.8540708092 -1.7437049010 -1.2546236063
32
CONF503
C 4.3758614851 1.2595222496 -0.7510514229
C 3.2397216107 0.2522545430 -0.6152322565
C 2.5474605396 0.3664207596 0.7416115997
C 1.4620467017 -0.6875347532 0.9645299621
C 0.2449503479 -0.5061328544 0.0590939985
C -0.8594116639 -1.5081713563 0.3953793913
C -2.1057715497 -1.3721084259 -0.4914486627
C -3.2577325738 -0.5985084491 0.1555581639
C -2.9777814184 0.8752209705 0.4519820148
C -2.7779789379 1.7131261549 -0.8057564778
H 4.8574316312 1.1648477642 -1.7212783553
H 5.1242289550 1.0975421294 0.0217448814
H 3.9972980798 2.2745650271 -0.6525037967
H 3.6353187376 -0.7593723462 -0.7323217660
H 2.5163908490 0.4220760743 -1.4142368457
H 2.1080786823 1.3621336160 0.8388636977
H 3.3013851340 0.2615452005 1.5259947556
H 1.1331032962 -0.6327798311 2.0055492971
H 1.8863671637 -1.6821116569 0.8066085491
H 0.5388672390 -0.6452898810 -0.9830278572
H -0.1274402285 0.5132281706 0.1673222934
H -1.1453035097 -1.3954552494 1.4434807688
H -0.4456170187 -2.5130417944 0.2817802732
H -1.8313363067 -0.9033082029 -1.4371753574
H -2.4825979898 -2.3698942278 -0.7275427167
H -4.1263925286 -0.6596830787 -0.5054387799
H -3.5242261865 -1.0962262230 1.0915947834
H -3.8290617328 1.2767423884 1.0078357327
H -2.1016548350 0.9606850666 1.0960592326
H -1.9005190255 1.3877780712 -1.3582971944
H -3.6445328561 1.6294357132 -1.4581742056
H -2.6451943425 2.7603970992 -0.5441308270
32
CONF472
C 3.3764018454 -0.1494042154 -1.5099542249
C 2.7115460763 -1.1066080942 -0.5273966067
C 2.8447787894 -0.6615133713 0.9291929613
C 2.1236960179 0.6395535310 1.2913295252
C 0.5937604935 0.5703731583 1.1771926872
C 0.0482899179 1.1617108515 -0.1230581007
C -1.4796208179 1.2273968054 -0.1566867701
C -2.1484341278 -0.1443632266 -0.2194372035
C -3.6664859094 -0.0301226208 -0.3427905249
C -4.3382965633 -1.3974687625 -0.3898570732
H 4.4243168325 -0.0105598076 -1.2526222462
H 2.8890066508 0.8218077217 -1.5009060759
H 3.3211545933 -0.5473208423 -2.5206689506
H 3.1793714618 -2.0896708476 -0.6252581640
H 1.6572051592 -1.2233302955 -0.7812568345
H 3.9069776363 -0.5392955322 1.1575742443
H 2.4626465959 -1.4587132514 1.5721481037
H 2.5010475508 1.4550412348 0.6730966795
H 2.3885902101 0.8741973942 2.3249404696
H 0.1494591491 1.1255720221 2.0069015373
H 0.2762058766 -0.4685989759 1.2741584565
H 0.3971439064 0.5813349846 -0.9779556916
H 0.4381873129 2.1772730169 -0.2320766271
H -1.8370205772 1.7621310959 0.7268884126
H -1.7843330564 1.8033523849 -1.0343600082
H -1.7583583591 -0.6973657396 -1.0774767735
H -1.9100413870 -0.7137468310 0.6805278343
H -4.0537409381 0.5351163204 0.5081283429
H -3.9140951026 0.5273436415 -1.2491567350
H -3.9789648102 -1.9689764231 -1.2427244802
H -4.1200947449 -1.9599961228 0.5152036431
H -5.4168354617 -1.2911351409 -0.4768343950
32
CONF403
C 3.1211694094 2.0612640941 -0.1257742588
C 2.8091289178 0.6243100711 0.2761372020
C 2.1066944064 -0.1345154542 -0.8476940232
C 1.8590392738 -1.6080409632 -0.5246238757
C 0.8756804098 -1.8788676304 0.6173039833
C -0.5605273278 -1.4115112043 0.3393430023
C -0.9003974207 -0.0654752401 0.9799025194
C -2.3635915885 0.3369381756 0.7880891228
C -2.7153996986 0.6887135675 -0.6562886835
C -4.1584650995 1.1635419345 -0.7819644477
H 2.2056391570 2.5962006891 -0.3694328131
H 3.7702065852 2.0814678962 -0.9986314692
H 3.6197280825 2.5863337900 0.6854473992
H 2.1800085609 0.6324028040 1.1675067622
H 3.7383374806 0.1086670717 0.5300200566
H 2.7316671291 -0.0830795643 -1.7434401764
H 1.1610251706 0.3547108945 -1.0857284684
H 2.8154756776 -2.0732096716 -0.2711648801
H 1.4849928744 -2.1017543961 -1.4252889861
H 1.2402452369 -1.4175360853 1.5360353451
H 0.8688506689 -2.9585864615 0.7835604917
H -1.2600481106 -2.1532393360 0.7324100875
H -0.7149584270 -1.3590876631 -0.7390966986
H -0.6980579101 -0.1320993712 2.0522030664
H -0.2609669752 0.7185173545 0.5726934463
H -3.0093285216 -0.4765550074 1.1279326142
H -2.5716196274 1.2064222741 1.4169729689
H -2.0433442486 1.4747959173 -1.0087401410
H -2.5717282422 -0.1842549191 -1.2948408976
H -4.3233838488 2.0496712616 -0.1728561164
H -4.3928969827 1.4078625786 -1.8152098785
H -4.8437221183 0.3874673795 -0.4481612432
32
CONF400
C 3.0063633304 2.0835846143 -0.2866163234
C 2.7713737158 0.6621991049 0.2115602939
C 2.0618888513 -0.1907511665 -0.8378894352
C 1.8599227980 -1.6435104079 -0.4066225755
C 0.8905713041 -1.8556558136 0.7595867352
C -0.5541807122 -1.4295337764 0.4598849188
C -0.9158630618 -0.0626276682 1.0416276046
C -2.3637244158 0.3441230440 0.7626767397
C -2.6236448918 0.6997119440 -0.7002166113
C -4.0583984659 1.1661388546 -0.9180908958
H 3.5136729318 2.6765389709 0.4706263147
H 2.0601881423 2.5659023896 -0.5231040298
H 3.6189930997 2.0766478881 -1.1855628513
H 2.1755227412 0.6986302996 1.1249055123
H 3.7303372610 0.2010990557 0.4594960986
H 2.6630621706 -0.1862672361 -1.7511621828
H 1.0980634673 0.2574108908 -1.0839145291
H 2.8306265530 -2.0625092751 -0.1284168710
H 1.4935196192 -2.2116365458 -1.2655825796
H 1.2528358128 -1.3269736409 1.6422712929
H 0.9041725985 -2.9215057508 0.9983400591
H -1.2422029089 -2.1655870029 0.8826456102
H -0.7074730454 -1.4261703769 -0.6199780640
H -0.7664418371 -0.0983913291 2.1240382198
H -0.2501005469 0.7038377859 0.6433051813
H -3.0315055632 -0.4676571945 1.0610256753
H -2.6075548647 1.2137276802 1.3781842654
H -1.9353946128 1.4920091323 -1.0046943836
H -2.4322146190 -0.1689183770 -1.3323636706
H -4.2257797557 1.4154216851 -1.9631246202
H -4.7590819260 0.3838177055 -0.6345019311
H -4.2687679017 2.0476114267 -0.3160958915
32
CONF404
C 3.0580860844 1.4142362229 1.1071160592
C 2.9370923255 -0.0986459579 1.2549750772
C 1.6914529131 -0.6711593071 0.5762203845
C 1.7670787341 -0.6269058165 -0.9501425679
C 0.5350960624 -1.2327570132 -1.6385714973
C -0.4740528411 -0.1967358894 -2.1414274310
C -1.1249263641 0.6655779843 -1.0595813228
C -2.0351865641 -0.1228441631 -0.1208377555
C -2.7058130480 0.7797016455 0.9126234757
C -3.6099880285 -0.0081043728 1.8533040472
H 2.1682723901 1.9057056277 1.4949843081
H 3.1815328546 1.6970636302 0.0651448410
H 3.9197078264 1.7796313627 1.6609450962
H 2.8976137604 -0.3440770009 2.3189736372
H 3.8269271051 -0.5769445936 0.8390383675
H 0.8160720038 -0.1224142594 0.9252795084
H 1.5732725112 -1.7129204488 0.8862171221
H 2.6590803652 -1.1783532853 -1.2571281590
H 1.8915752651 0.4031698052 -1.2860385243
H 0.0418381793 -1.9297117346 -0.9597409251
H 0.8613630481 -1.8104099905 -2.5064308609
H -1.2612134896 -0.7206545749 -2.6900293181
H 0.0340405896 0.4625538479 -2.8499692154
H -0.3523992916 1.1737336736 -0.4805993745
H -1.7205732682 1.4392087630 -1.5518317182
H -2.8036267393 -0.6315374869 -0.7082105852
H -1.4578355087 -0.8879776163 0.4009561902
H -1.9370678520 1.2934686177 1.4950675174
H -3.2939321758 1.5433555336 0.3982038401
H -4.0711796114 0.6519794716 2.5838500499
H -4.3984059855 -0.5067811629 1.2940674005
H -3.0379040406 -0.7645659946 2.3859549443
32
CONF524
C 2.7705252924 -1.7161078934 -0.8047089650
C 2.9696076463 -0.8775628578 0.4527095506
C 3.2558243593 0.5947411575 0.1552294214
C 2.1065813865 1.3724492118 -0.4916481917
C 0.8605913875 1.5123958301 0.3951432027
C -0.2461562040 0.5129842825 0.0590176126
C -1.4647611428 0.6995505350 0.9612821776
C -2.5478273935 -0.3581538952 0.7448783591
C -3.2261172099 -0.2666990458 -0.6207752921
C -4.3695149234 -1.2668763645 -0.7467192194
H 3.6387715407 -1.6350797973 -1.4551681404
H 1.8951585631 -1.3890656473 -1.3595197903
H 2.6345853582 -2.7629410357 -0.5426280244
H 3.8175200175 -1.2816362056 1.0117619244
H 2.0911653978 -0.9589565664 1.0940805232
H 4.1242140168 0.6517938282 -0.5064804701
H 3.5250540564 1.0920828452 1.0906799166
H 1.8305969562 0.9048000329 -1.4375188594
H 2.4867717695 2.3690092144 -0.7274434400
H 0.4494474015 2.5182960608 0.2810791983
H 1.1461199747 1.3993498595 1.4433078399
H 0.1229528488 -0.5072444891 0.1698834958
H -0.5376690595 0.6510717301 -0.9838688829
H -1.1376363294 0.6534410430 2.0032713082
H -1.8904648094 1.6921194277 0.7948005418
H -2.1093446102 -1.3520533140 0.8628070893
H -3.3094448641 -0.2405676085 1.5199820422
H -3.6117752547 0.7454625153 -0.7630197617
H -2.4965098532 -0.4596102534 -1.4086990620
H -5.1287001228 -1.0761066370 0.0088280542
H -4.8344137016 -1.1954225504 -1.7271284392
H -4.0023955942 -2.2822065391 -0.6132300671
32
CONF542
C 3.7236179220 1.1421552387 -0.4385658917
C 3.9344590583 -0.3641614035 -0.3444216340
C 2.6564554857 -1.1807456033 -0.5479646646
C 1.5941626878 -0.9632074126 0.5397390506
C 0.4782012316 -0.0081926494 0.1163660782
C -0.5249833233 0.2161319830 1.2460097264
C -1.6013996026 1.2507252242 0.9119004026
C -2.5200461945 0.8781322453 -0.2532191818
C -3.3443334988 -0.3829239151 -0.0021672904
C -4.3529990092 -0.6249455374 -1.1192554878
H 3.2629416078 1.4032048089 -1.3888486860
H 4.6777886814 1.6595956300 -0.3668381601
H 3.0861149224 1.4961768219 0.3669454740
H 4.3615526180 -0.6080964726 0.6312750944
H 4.6594471248 -0.6666862281 -1.1042719597
H 2.9384568642 -2.2357303364 -0.5671716667
H 2.2303580583 -0.9412866588 -1.5244790431
H 2.0736783551 -0.5833560735 1.4444446632
H 1.1380398371 -1.9218937368 0.7977942542
H -0.0320680287 -0.4312034417 -0.7507622441
H 0.9010643625 0.9519256183 -0.1822939175
H 0.0166660949 0.5650652689 2.1293341126
H -0.9937719519 -0.7334099285 1.5100563595
H -2.2155433659 1.4094347596 1.8020772804
H -1.1122048191 2.1993358985 0.6766549158
H -3.2045455649 1.7130571865 -0.4246736779
H -1.9313379928 0.7505863193 -1.1631742107
H -2.6831514103 -1.2476543709 0.0721473237
H -3.8727887131 -0.2836918465 0.9489254570
H -4.9250486386 -1.5298965595 -0.9292286942
H -5.0459637037 0.2101445302 -1.1956953721
H -3.8437150619 -0.7343181713 -2.0742561168
32
CONF502
C 4.3706425052 1.2602845284 -0.7568026478
C 3.2317355859 0.2563005556 -0.6202215026
C 2.5453517167 0.3673003715 0.7398888207
C 1.4630584162 -0.6891099481 0.9662563947
C 0.2448850009 -0.5128934398 0.0612756670
C -0.8619540457 -1.5085750216 0.4080144507
C -2.1084331901 -1.3775203215 -0.4794431999
C -3.2572445512 -0.5927235298 0.1596369511
C -2.9695187051 0.8815500435 0.4456559146
C -2.7674977561 1.7095459377 -0.8182788522
H 5.1241409973 1.0893406192 0.0089715084
H 3.9966691627 2.2758621704 -0.6472567437
H 4.8445264772 1.1716540570 -1.7313592293
H 3.6234678228 -0.7560893246 -0.7431096252
H 2.5055709618 0.4318345358 -1.4153795607
H 2.1041990286 1.3619424304 0.8400967446
H 3.3028553605 0.2632516474 1.5209107545
H 1.1349555488 -0.6327648303 2.0074341449
H 1.8898445806 -1.6829164338 0.8102788910
H 0.5368988707 -0.6624462624 -0.9799329548
H -0.1243509277 0.5084682034 0.1606738823
H -1.1469842464 -1.3847301530 1.4550911044
H -0.4510333664 -2.5156690780 0.3041364971
H -1.8328343450 -0.9200577759 -1.4303802544
H -2.4891666347 -2.3763916187 -0.7043933380
H -4.1249790924 -0.6541064394 -0.5025621591
H -3.5281499821 -1.0820199951 1.0988328645
H -3.8178393700 1.2912155589 1.0000417645
H -2.0920072147 0.9670413807 1.0877979385
H -3.6353285128 1.6253419808 -1.4689379253
H -2.6294645995 2.7581041806 -0.5642906264
H -1.8923507690 1.3761107768 -1.3696359557
32
CONF402
C 3.1020016579 2.0667183625 -0.1565182012
C 2.8046986438 0.6323584202 0.2653133724
C 2.1029347995 -0.1464546874 -0.8451767815
C 1.8633280357 -1.6162542625 -0.4997659825
C 0.8787847215 -1.8737083810 0.6441857240
C -0.5579911741 -1.4138586865 0.3560407288
C -0.9059755892 -0.0667896583 0.9900988874
C -2.3675678803 0.3336702279 0.7825202151
C -2.7014009967 0.6956946275 -0.6635856366
C -4.1450399689 1.1643214006 -0.8049362407
H 2.1805915399 2.5902931811 -0.4027786972
H 3.7467859686 2.0813942935 -1.0326467275
H 3.5995905577 2.6066832943 0.6454809241
H 2.1802058907 0.6462424752 1.1598880217
H 3.7396577052 0.1279860902 0.5207821918
H 2.7250659170 -0.1048363323 -1.7433902509
H 1.1540700932 0.3345695395 -1.0872895940
H 2.8217344468 -2.0721364588 -0.2371298593
H 1.4937438857 -2.1261335081 -1.3932194457
H 1.2402125323 -1.3973954301 1.5564989080
H 0.8749850349 -2.9507569620 0.8268440432
H -1.2569871828 -2.1569416265 0.7473836713
H -0.7066217034 -1.3655743211 -0.7234085234
H -0.7142282648 -0.1310184522 2.0644861538
H -0.2630000331 0.7168318405 0.5875597571
H -3.0155408457 -0.4839778366 1.1078017903
H -2.5861439436 1.1978369105 1.4150989728
H -2.0287233754 1.4882084223 -1.0001110330
H -2.5443496158 -0.1710411651 -1.3074777955
H -4.3666824105 1.4163589875 -1.8391438111
H -4.8308236047 0.3820413259 -0.4870750876
H -4.3226759239 2.0443481440 -0.1905982538
32
CONF516
C 2.5884084066 1.4238332329 1.1962508936
C 3.4713319271 0.5894156468 0.2733413119
C 2.9977279301 -0.8637942250 0.1216985291
C 2.2080868512 -1.1387051644 -1.1609235997
C 0.8786459533 -0.3943727234 -1.2887118447
C -0.1610084100 -0.8274057064 -0.2574021952
C -1.4964032442 -0.1159295673 -0.4648296807
C -2.5299822986 -0.5343113177 0.5790529956
C -3.9138219252 0.0719089224 0.3416409812
C -3.9501059305 1.5834320508 0.5387282625
H 2.5699481431 0.9905468385 2.1942298694
H 1.5680851023 1.4760230069 0.8278368739
H 2.9760242648 2.4376179970 1.2726974200
H 4.4847708021 0.5942932231 0.6808478088
H 3.5174601302 1.0603537576 -0.7106474610
H 2.4008425544 -1.1449514030 0.9900491731
H 3.8702669704 -1.5210701523 0.1075317802
H 2.0120961726 -2.2125944358 -1.2201895348
H 2.8364733080 -0.8740662513 -2.0153422425
H 0.4765147114 -0.5845058043 -2.2875735332
H 1.0492527049 0.6802477890 -1.2096025424
H 0.2010776960 -0.6116428289 0.7491106515
H -0.3108457995 -1.9075317164 -0.3303026276
H -1.3347258531 0.9622753065 -0.4123733981
H -1.8782983471 -0.3464661760 -1.4625546425
H -2.6190024396 -1.6235871083 0.5646835761
H -2.1771137731 -0.2460810145 1.5721618187
H -4.2429563115 -0.1698395593 -0.6715462439
H -4.6187187153 -0.3904059058 1.0367167219
H -3.5843337697 1.8456304139 1.5290512175
H -3.3350540028 2.0881819248 -0.2013604971
H -4.9685923886 1.9515967380 0.4403548147
32
CONF584
C 3.8354388320 -1.4799397634 0.0482236582
C 3.7108228457 0.0147394176 0.3218133103
C 2.4440488041 0.3831602510 1.0969581067
C 1.1291762103 0.1091722626 0.3628056459
C 0.9220292840 1.0085334428 -0.8532295796
C -0.3656653723 0.7147840258 -1.6264255588
C -1.6544106705 0.9784911633 -0.8337133318
C -2.2836991873 -0.2910895030 -0.2611459892
C -3.5421961098 0.0106088326 0.5497270751
C -4.1731090021 -1.2583810055 1.1107792492
H 4.7964763505 -1.6996170669 -0.4109066994
H 3.0543073146 -1.8207234139 -0.6259170416
H 3.7610597613 -2.0432955679 0.9758657357
H 3.7413376274 0.5610390116 -0.6221331941
H 4.5727723065 0.3373902820 0.9108991139
H 2.4869462518 1.4457583029 1.3495984211
H 2.4400587995 -0.1776440697 2.0351519734
H 0.3140484277 0.2750689495 1.0692744588
H 1.0904399966 -0.9360451005 0.0521568568
H 1.7610130587 0.8833065057 -1.5405233242
H 0.9151878033 2.0524661790 -0.5292920936
H -0.3534395820 -0.3247632264 -1.9609319582
H -0.3622032302 1.3422440107 -2.5204098174
H -1.4457569016 1.6781221714 -0.0215926473
H -2.3898237533 1.4550194289 -1.4861780592
H -2.5411816342 -0.9633164688 -1.0834611868
H -1.5649682176 -0.8098916537 0.3746880901
H -3.2881923679 0.6834652028 1.3721511969
H -4.2659112576 0.5259907373 -0.0860745716
H -3.4743794769 -1.7724916206 1.7668724201
H -5.0688145129 -1.0217529852 1.6796344064
H -4.4463390037 -1.9354753132 0.3046156177
32
CONF541
C 4.2790951000 0.5453232510 -1.2326915928
C 3.3051227829 0.3837249474 -0.0711808163
C 2.4911557227 -0.9024161957 -0.1966762508
C 1.6086405377 -1.1901092213 1.0191951608
C 0.5384004024 -0.1355786955 1.3080302503
C -0.4684633228 0.0377836413 0.1724636715
C -1.6062485691 0.9775199911 0.5709014821
C -2.6470974894 1.1837846372 -0.5390348562
C -3.9021450865 0.3204783373 -0.3929484636
C -3.6418883904 -1.1760452973 -0.5159817578
H 3.7422326687 0.5694474030 -2.1785512707
H 4.9816065393 -0.2848385102 -1.2602937958
H 4.8432685474 1.4696514995 -1.1341428527
H 2.6346223392 1.2441807143 -0.0478074537
H 3.8608438489 0.3675848598 0.8693527445
H 3.1814118072 -1.7411450107 -0.3198296915
H 1.8759568513 -0.8550514856 -1.0968173563
H 2.2482082238 -1.2829343132 1.9007573106
H 1.1164577071 -2.1541370435 0.8673633057
H 1.0123143904 0.8236821387 1.5236526429
H 0.0000282241 -0.4395399503 2.2097845790
H -0.8678994685 -0.9389282601 -0.1029709819
H 0.0340148646 0.4511959675 -0.7038636649
H -2.1007982899 0.5922618207 1.4651911711
H -1.1679250804 1.9423551759 0.8373404596
H -2.9653827026 2.2287327208 -0.5386545611
H -2.1864893850 0.9856365375 -1.5091566698
H -4.3662471540 0.5270353924 0.5744142002
H -4.6132478241 0.6185808745 -1.1675901181
H -4.5825886809 -1.7222599787 -0.5028237018
H -3.1299845379 -1.3978544207 -1.4498702884
H -3.0328739059 -1.5335438825 0.3097439211
32
CONF450
C 3.2696961761 1.6028345523 1.0772045843
C 3.7099232467 0.4903410215 0.1319316790
C 2.5926906916 0.0090865628 -0.7949240599
C 1.4586217992 -0.7026184846 -0.0594425175
C 0.4311711830 -1.2784281890 -1.0335620529
C -0.7632957382 -1.9460204710 -0.3368896179
C -2.0068084407 -1.0593944793 -0.2388642261
C -1.8177280681 0.1760174547 0.6388683134
C -3.1242224798 0.9248371390 0.9082288368
C -3.7197444810 1.5618793108 -0.3425301996
H 4.1176536446 1.9632321762 1.6548605127
H 2.5133181191 1.2479576435 1.7719346805
H 2.8578766424 2.4378712118 0.5146934906
H 4.0818590163 -0.3551563218 0.7151072549
H 4.5363045905 0.8566088613 -0.4819345932
H 3.0200199362 -0.6786183523 -1.5293992095
H 2.1873220246 0.8636239065 -1.3422102597
H 0.9685572353 -0.0059539705 0.6192844787
H 1.8754421207 -1.5154458094 0.5407441338
H 0.9375681533 -2.0124639335 -1.6649630323
H 0.0705286963 -0.4843220491 -1.6906852941
H -0.4667015401 -2.2651107601 0.6646209300
H -1.0430647531 -2.8434459994 -0.8931648498
H -2.2975550401 -0.7535774329 -1.2454899020
H -2.8232990900 -1.6582160746 0.1738003577
H -1.3934549271 -0.1362441866 1.5965509203
H -1.1126156197 0.8602949518 0.1641649519
H -3.8512113399 0.2363816820 1.3454781262
H -2.9290804876 1.7090691155 1.6437301128
H -4.0212805239 0.8035775603 -1.0600959755
H -4.5962904050 2.1514885468 -0.0842358280
H -2.9930235575 2.2176228771 -0.8171953170
32
CONF559
C 4.2818439234 0.1718655618 -1.0046867822
C 3.8005981787 0.4300303318 0.4187689871
C 2.9455727786 -0.7064915846 0.9830896837
C 1.6333111488 -0.9590273390 0.2384436606
C 0.6478730731 0.2042564152 0.3270142492
C -0.6770395400 -0.1233904692 -0.3587968478
C -1.6675402797 1.0367927121 -0.2656813485
C -3.0093644545 0.7543773399 -0.9565374606
C -4.1232861385 0.2993586760 -0.0111490878
C -3.8610447040 -1.0467987608 0.6532242225
H 3.4485787330 0.1554581191 -1.7020310985
H 4.7998798528 -0.7829752090 -1.0630808321
H 4.9684720902 0.9549707919 -1.3176812823
H 3.2394907599 1.3652528165 0.4496535640
H 4.6711207914 0.5521223029 1.0679977554
H 2.7168675478 -0.4830909546 2.0282543197
H 3.5359287866 -1.6261042276 0.9646757399
H 1.1634165258 -1.8470585445 0.6692601193
H 1.8401786581 -1.1795878750 -0.8099042020
H 1.0775939744 1.0914628238 -0.1414534777
H 0.4632985101 0.4405093084 1.3780480650
H -1.1043482901 -1.0182426566 0.0949043756
H -0.4880297932 -0.3470624102 -1.4118356005
H -1.8429755245 1.2811371800 0.7841289351
H -1.2041716845 1.9125750570 -0.7263727878
H -3.3518462794 1.6654828686 -1.4522333833
H -2.8653609933 -0.0017601044 -1.7311754801
H -4.2692140469 1.0593527019 0.7601451992
H -5.0510078601 0.2330640196 -0.5851971789
H -3.0143852715 -0.9870527113 1.3315414798
H -4.7316946481 -1.3574918512 1.2266706128
H -3.6552971411 -1.8075665654 -0.0966165549
32
CONF460
C 4.5426860456 0.1672233318 0.9144627219
C 3.2303105744 -0.6021539478 0.8199706054
C 2.2925285685 -0.0017544330 -0.2253595216
C 0.9720860758 -0.7643516096 -0.3086959860
C 0.0571124363 -0.2788707772 -1.4343867179
C -0.4356030335 1.1621049792 -1.2908187568
C -1.3069525663 1.4459343551 -0.0645808001
C -2.6588342600 0.7180045844 -0.0651340549
C -2.6772970314 -0.5549357919 0.7806615627
C -4.0487725766 -1.2203411742 0.7599653852
H 5.0598102032 0.1560020091 -0.0424494040
H 5.1943313255 -0.2771577507 1.6628433702
H 4.3576781300 1.2029388996 1.1907573143
H 2.7347883639 -0.5950437885 1.7936510776
H 3.4380249800 -1.6435975100 0.5632700996
H 2.7828351245 -0.0199449382 -1.2018853358
H 2.1016072963 1.0415092293 0.0320386529
H 0.4548195957 -0.6917323899 0.6494177402
H 1.1905178760 -1.8219897979 -0.4799804237
H -0.8043463598 -0.9455114339 -1.5017879355
H 0.6007307374 -0.3573830161 -2.3797679988
H -1.0094900977 1.4144933440 -2.1864485254
H 0.4266019548 1.8313634084 -1.2640266466
H -0.7589851316 1.1973645050 0.8452104971
H -1.4879211390 2.5231713829 -0.0435751634
H -3.4267344341 1.3897282064 0.3263637618
H -2.9392645074 0.4730146622 -1.0918737233
H -1.9316457546 -1.2605831470 0.4131670384
H -2.4154476191 -0.3026130817 1.8112422398
H -4.0462878628 -2.1214592002 1.3684844894
H -4.8070442743 -0.5442740288 1.1494687754
H -4.3244709561 -1.4927182801 -0.2566044549
32
CONF538
C 4.3379655108 0.5141691049 -0.2610716888
C 3.4256210987 0.3746126396 0.9524270129
C 2.5581613752 -0.8852600516 0.9145880241
C 1.5609591461 -0.9485384758 -0.2438539896
C 0.4741300162 0.1221358789 -0.1721111436
C -0.5258879692 -0.0155875609 -1.3199135711
C -1.6790068019 0.9964469432 -1.2459044730
C -2.9856128322 0.4135809415 -0.7038904456
C -2.9071420477 -0.0452407242 0.7501388472
C -4.2627356437 -0.5224734584 1.2592008888
H 4.9418735751 -0.3818717488 -0.3872069733
H 5.0054739284 1.3633257365 -0.1344294719
H 3.7606766307 0.6715019125 -1.1681903125
H 2.7912539677 1.2584578950 1.0344846412
H 4.0425075549 0.3328819896 1.8534804420
H 2.0059764027 -0.9555822358 1.8551636011
H 3.2156875989 -1.7561630371 0.8530454167
H 1.0827948374 -1.9315784406 -0.2274569508
H 2.0917722154 -0.8642703057 -1.1935023599
H 0.9282965927 1.1132916238 -0.2233508104
H -0.0436521319 0.0434656055 0.7851883025
H -0.9320222386 -1.0292561833 -1.3280839813
H 0.0163721342 0.1193693314 -2.2586686438
H -1.3792300545 1.8432156024 -0.6248550952
H -1.8807979482 1.3842562095 -2.2466591991
H -3.7642215071 1.1765482833 -0.7869892290
H -3.2870017456 -0.4302738252 -1.3296048919
H -2.1873737942 -0.8601274278 0.8398788485
H -2.5581626747 0.7832607123 1.3709304251
H -4.6232678051 -1.3541089501 0.6576231198
H -4.1895394514 -0.8522990123 2.2927169348
H -4.9951333183 0.2801331245 1.2053201599
32
CONF401
C 4.1006921415 -1.1905857755 -0.8404353562
C 2.6652932116 -0.7062042233 -0.6714085180
C 2.3693291663 -0.3203914012 0.7768732897
C 0.9138904895 0.0856447452 1.0146610980
C 0.5555047093 1.4310251724 0.3830133305
C -0.8857962151 1.8762046091 0.6721926502
C -1.8635363266 1.6225426878 -0.4784652656
C -2.0831715742 0.1544131290 -0.8437889724
C -2.7891144184 -0.6448877071 0.2493975802
C -3.0568202955 -2.0801545855 -0.1889188239
H 4.8013045468 -0.4104157657 -0.5510136371
H 4.2950073525 -1.4604138497 -1.8756555022
H 4.2848781677 -2.0630140085 -0.2171716400
H 1.9777595677 -1.4973692300 -0.9800500151
H 2.5002467423 0.1523067394 -1.3243736468
H 3.0266415433 0.5009180574 1.0727936346
H 2.6025107203 -1.1751126924 1.4169768967
H 0.7446639994 0.1545995782 2.0924952902
H 0.2602843120 -0.6975370415 0.6288355230
H 0.7045451669 1.3859359627 -0.6964323468
H 1.2481790865 2.1792848849 0.7754455007
H -0.8923256227 2.9509625567 0.8675119790
H -1.2460603755 1.3859218127 1.5775428292
H -2.8284397038 2.0631137130 -0.2135688851
H -1.4968127468 2.1487015845 -1.3636182665
H -2.6943446354 0.1162116255 -1.7496244973
H -1.1262694629 -0.3133730957 -1.0801423338
H -2.1783102344 -0.6562611141 1.1534398519
H -3.7357500097 -0.1575865349 0.4946357385
H -3.5604978932 -2.6339656721 0.5997072597
H -3.6853467283 -2.0974984052 -1.0767022593
H -2.1232445253 -2.5877649767 -0.4224041111
32
CONF613
C 2.2852934373 -1.5900823974 1.2769658901
C 2.9660732501 -0.4124948953 0.5880812631
C 2.5572403458 -0.2498123756 -0.8775252223
C 1.0816529251 0.0863244500 -1.1029366446
C 0.6917231478 1.4699361670 -0.5828424324
C -0.7683123342 1.8413730007 -0.8831854200
C -1.7157260638 1.6741111471 0.3082046545
C -1.8558670083 0.2480040714 0.8405960844
C -2.5350187182 -0.7060148643 -0.1393521281
C -2.6820921496 -2.1039980012 0.4506281346
H 1.2140007090 -1.4284038799 1.3641751585
H 2.6868662648 -1.7237534951 2.2787398991
H 2.4501988822 -2.5068061163 0.7148602677
H 4.0477506480 -0.5642766368 0.6223327208
H 2.7502350554 0.5053650774 1.1371553494
H 2.7851118904 -1.1798493815 -1.4047833022
H 3.1682066295 0.5391993878 -1.3238605528
H 0.4598323674 -0.6790757093 -0.6410051548
H 0.8889983651 0.0555639690 -2.1788978044
H 1.3541181102 2.2028767164 -1.0498711145
H 0.8579703363 1.5238433491 0.4937429846
H -1.1298176041 1.2523850148 -1.7272491607
H -0.8138882890 2.8904143059 -1.1844224479
H -1.3618653439 2.3130999297 1.1214717798
H -2.7048069950 2.0362044115 0.0153674083
H -0.8722256343 -0.1410358577 1.1077921511
H -2.4488886804 0.2820060615 1.7586349018
H -3.5219479573 -0.3135636546 -0.3956627152
H -1.9538029116 -0.7675639214 -1.0606873354
H -3.1727279875 -2.7686129096 -0.2563084968
H -1.7063637489 -2.5210078605 0.6921502902
H -3.2744802687 -2.0737678427 1.3626242820
32
CONF544
C 3.7331941710 1.1470616756 0.4011691281
C 3.9479364738 -0.3600436619 0.3305893784
C 2.6741214936 -1.1775402365 0.5558946824
C 1.5999877532 -0.9725191624 -0.5225150057
C 0.4891254979 -0.0130100368 -0.0958988415
C -0.5184382380 0.2150413061 -1.2208452343
C -1.5903221726 1.2516808029 -0.8786172860
C -2.5228907192 0.8646784436 0.2706264847
C -3.3693800398 -0.3729407452 -0.0205289610
C -4.3978337446 -0.6204586551 1.0771397486
H 3.2751303421 1.4222629520 1.3487491736
H 3.0919909358 1.4862078505 -0.4078382248
H 4.6856950687 1.6659169142 0.3177177879
H 4.6788034653 -0.6477956320 1.0905398441
H 4.3694959112 -0.6185416835 -0.6437540797
H 2.2577123402 -0.9294124766 1.5344263394
H 2.9588395836 -2.2316333523 0.5825099659
H 1.1415493284 -1.9339842570 -0.7655475863
H 2.0693853345 -0.6019645504 -1.4363337823
H 0.9172160517 0.9457839259 0.1994787358
H -0.0186376369 -0.4326825651 0.7743613956
H -0.9904947562 -0.7328044252 -1.4849943576
H 0.0204250696 0.5648764989 -2.1055298738
H -1.0959502423 2.1920600147 -0.6220181223
H -2.1953024446 1.4312321319 -1.7710861241
H -1.9427157152 0.7007632402 1.1802217839
H -3.1928695330 1.7072313573 0.4610987268
H -3.8830690081 -0.2402299744 -0.9756446099
H -2.7251305701 -1.2492706131 -0.1072370438
H -3.9041548830 -0.7607252408 2.0363156139
H -5.0758859641 0.2259471708 1.1627807434
H -4.9842553275 -1.5097976691 0.8590519946
32
CONF467
C 3.2598930949 -0.3405629382 -1.5467849517
C 2.5983652485 -1.1662082632 -0.4492919462
C 2.8225844512 -0.5942218059 0.9509031915
C 2.1558391720 0.7568832117 1.2231519921
C 0.6210036430 0.7200146641 1.1773206871
C 0.0398157872 1.2506768956 -0.1334469657
C -1.4897788845 1.2538852680 -0.1532906387
C -2.0972182667 -0.1458748499 -0.2228930573
C -3.6204064041 -0.1026629174 -0.3245711128
C -4.2245070343 -1.5005590982 -0.3888549673
H 2.8313722916 0.6567786954 -1.5990786164
H 3.1237117626 -0.8196910048 -2.5136889671
H 4.3271173030 -0.2457764673 -1.3580195872
H 3.0134647405 -2.1770719410 -0.4739508460
H 1.5284874759 -1.2506697674 -0.6444742155
H 3.8982954000 -0.4866407477 1.1136154026
H 2.4521683530 -1.3153366089 1.6842089981
H 2.5257967615 1.5002525260 0.5159126378
H 2.4735420097 1.0773225028 2.2179689259
H 0.2213101064 1.3295367533 1.9912923547
H 0.2847241630 -0.3039937626 1.3442628429
H 0.4030582883 0.6574491102 -0.9734957393
H 0.3913956018 2.2758616921 -0.2769888626
H -1.8618790038 1.7658818824 0.7375271848
H -1.8270506871 1.8223512599 -1.0238128971
H -1.6942995663 -0.6700373177 -1.0931830767
H -1.8200162562 -0.7150455046 0.6661715216
H -4.0232626794 0.4275275527 0.5415977152
H -3.9069474731 0.4582956766 -1.2172863263
H -5.3081281019 -1.4469300006 -0.4604507289
H -3.8482667146 -2.0377070419 -1.2567760620
H -3.9662300321 -2.0678769517 0.5027366075
32
CONF555
C 3.8228662379 -0.7000037947 -1.6105968028
C 3.0841763012 0.0979714569 -0.5421744045
C 2.3421285126 -0.8184010323 0.4283376417
C 1.6963602079 -0.0769721179 1.6002960780
C 0.6368939706 0.9551623703 1.2085145008
C -0.5364170952 0.3576209746 0.4337763490
C -1.6548697501 1.3785717883 0.2385288316
C -2.7797696990 0.9052751605 -0.6846905508
C -3.5642016646 -0.3053246849 -0.1584009939
C -3.0968114061 -1.6316217624 -0.7498938965
H 4.3368687562 -0.0340668452 -2.2996651574
H 3.1248096098 -1.3110129393 -2.1790787968
H 4.5592940387 -1.3584034815 -1.1547098468
H 2.3765386423 0.7715061870 -1.0281015259
H 3.7986137736 0.7090887288 0.0144270978
H 3.0518737943 -1.5433299072 0.8355843452
H 1.5819572296 -1.3814198089 -0.1160096798
H 2.4799254542 0.4313677254 2.1679864681
H 1.2369337405 -0.8149680289 2.2628233029
H 1.0957377406 1.7499639004 0.6176669496
H 0.2552136584 1.4130373015 2.1250028779
H -0.9174251115 -0.5054218225 0.9823058190
H -0.1948119672 0.0172925342 -0.5451661392
H -2.0769723819 1.6407473525 1.2120095951
H -1.2247508595 2.2897572952 -0.1862124433
H -3.4673875475 1.7433120932 -0.8194948414
H -2.3633405735 0.6665902231 -1.6655319849
H -3.4863389867 -0.3424490411 0.9299018250
H -4.6214826486 -0.1800347563 -0.4024113525
H -2.0493927754 -1.8148256467 -0.5291338978
H -3.6818282856 -2.4533144922 -0.3423233693
H -3.2224302740 -1.6272645348 -1.8306200103
32
CONF631
C 2.4540955584 -1.2188398472 1.5419517392
C 3.1022139818 -0.3069790419 0.5063425606
C 2.5320334215 -0.4879410652 -0.9019985499
C 1.0437536814 -0.1621587833 -1.0458266369
C 0.7185332080 1.3019012543 -0.7499916714
C -0.7333554845 1.6874787794 -1.0688846713
C -1.6680366534 1.6960744547 0.1439276169
C -1.8934917680 0.3421538772 0.8168788933
C -2.6216930252 -0.6654054892 -0.0698266382
C -2.9050323446 -1.9658741606 0.6732987334
H 1.4117436088 -0.9541744226 1.6990359271
H 2.9700986479 -1.1320816124 2.4953441497
H 2.5018406225 -2.2563660917 1.2182898899
H 4.1725765360 -0.5241909303 0.4672373173
H 2.9939926291 0.7331088004 0.8177715406
H 2.6894769288 -1.5249245989 -1.2098486949
H 3.0976495909 0.1479631449 -1.5881500520
H 0.4637813465 -0.8183104594 -0.3983444483
H 0.7514048760 -0.3817144668 -2.0764125991
H 1.3909355980 1.9201833654 -1.3500419100
H 0.9219943493 1.5235559448 0.2984578448
H -1.1301479484 1.0214038938 -1.8362127816
H -0.7446540821 2.6970198123 -1.4864999540
H -1.2625281612 2.3882391817 0.8865422758
H -2.6371435460 2.0901790364 -0.1738198177
H -0.9372232098 -0.0750447421 1.1357031935
H -2.4901603443 0.5056413552 1.7185359820
H -3.5638541620 -0.2281804870 -0.4088396721
H -2.0199672547 -0.8841268074 -0.9531792675
H -1.9763386933 -2.4258841548 1.0045626510
H -3.5239640392 -1.7790569948 1.5482939880
H -3.4253473351 -2.6698329208 0.0283031873
32
CONF560
C 4.2951747316 0.4398844682 0.8137959475
C 3.7431704673 0.3727444074 -0.6055738038
C 2.9064230468 -0.8803624594 -0.8702132038
C 1.6473992313 -1.0106822188 -0.0109497842
C 0.6499407666 0.1277305958 -0.2157718382
C -0.6763991599 -0.1454152558 0.4906397824
C -1.6537003662 1.0194928395 0.3349243657
C -3.0354514238 0.7389190193 0.9438171311
C -4.0993741777 0.3459405996 -0.0834601558
C -3.8102031913 -0.9699328107 -0.7957218680
H 4.9633572305 1.2916370969 0.9176933506
H 4.8524563299 -0.4646249035 1.0477456795
H 3.4936724592 0.5486996378 1.5394810090
H 4.5790848819 0.3756300987 -1.3095095055
H 3.1459526360 1.2633365033 -0.8071384271
H 3.5325833861 -1.7601040971 -0.7012865519
H 2.6120999123 -0.8833082985 -1.9228478612
H 1.9224587783 -1.0667072413 1.0434954287
H 1.1589952464 -1.9541701233 -0.2685769879
H 0.4673844906 0.2585247575 -1.2854545868
H 1.0686245938 1.0607184337 0.1659238657
H -0.4894419728 -0.3148182751 1.5541144577
H -1.1168317276 -1.0574638272 0.0856075567
H -1.2155129939 1.8968413493 0.8161939586
H -1.7657198656 1.2580762278 -0.7248294974
H -2.9483292260 -0.0529394161 1.6906791456
H -3.3889347570 1.6341153633 1.4599654700
H -5.0601609255 0.2645841992 0.4309963156
H -4.1908781629 1.1438921367 -0.8242606483
H -2.9087280319 -0.8957077375 -1.3977739204
H -3.6824250027 -1.7734850711 -0.0736314889
H -4.6362117691 -1.2293710557 -1.4543020401
32
CONF500
C 4.4178073780 1.2336222026 -0.7207923257
C 3.2577729841 0.2516204918 -0.6034395729
C 2.5499844952 0.3762563073 0.7445502927
C 1.4577265118 -0.6720836995 0.9598589787
C 0.2491442381 -0.4880857188 0.0436492130
C -0.8521501913 -1.5005527305 0.3579355136
C -2.0936782855 -1.3556891160 -0.5347278702
C -3.2621294735 -0.6226976576 0.1295853588
C -3.0049793776 0.8443234181 0.4758064826
C -2.8279816551 1.7282949157 -0.7534778989
H 4.9086771762 1.1330706701 -1.6857561396
H 5.1531392199 1.0505519554 0.0597133609
H 4.0615691623 2.2565483410 -0.6211097483
H 3.6326731443 -0.7680332034 -0.7189581607
H 2.5490771571 0.4398644846 -1.4114213087
H 2.1143460121 1.3745453392 0.8319130438
H 3.2941781294 0.2716709962 1.5382246569
H 1.1198856131 -0.6149164008 1.9978836668
H 1.8793552527 -1.6686048537 0.8067853718
H 0.5548932795 -0.6144469801 -0.9966725245
H -0.1312598818 0.5277600971 0.1584530667
H -1.1446795093 -1.4046771460 1.4058552909
H -0.4328285670 -2.5016404489 0.2324351885
H -1.8199945364 -0.8499290923 -1.4614278694
H -2.4522139301 -2.3505873635 -0.8081146935
H -4.1258316545 -0.6748846215 -0.5386020391
H -3.5263409437 -1.1553268605 1.0468396824
H -3.8587346667 1.2120961294 1.0508107470
H -2.1254835502 0.9222302441 1.1162322393
H -2.7135423001 2.7685002468 -0.4569842580
H -1.9476598747 1.4386281943 -1.3211564578
H -3.6964438736 1.6504356648 -1.4040943098
32
CONF349
C 5.0794399495 0.2858594234 -0.5054548314
C 3.5731575762 0.1164986246 -0.6670401056
C 2.9657428218 -0.6522186272 0.5048896803
C 1.4741090649 -0.9432962139 0.3366868920
C 0.6004300089 0.3089866049 0.3821750047
C -0.8869038454 -0.0373232836 0.3434969217
C -1.7605724695 1.2146164656 0.3569785588
C -3.2587647797 0.9307625466 0.4845280158
C -3.8638157891 0.1740598070 -0.7067750153
C -3.9979491043 -1.3261620453 -0.4645776214
H 5.4949823740 0.8377570652 -1.3450286734
H 5.5693747339 -0.6840972767 -0.4549978486
H 5.3044687590 0.8301105841 0.4091021356
H 3.3659290506 -0.4212857675 -1.5951009779
H 3.1100594689 1.1015961546 -0.7413688671
H 3.1204293010 -0.0855018176 1.4261528489
H 3.4960946592 -1.6021118576 0.6098270633
H 1.1589407814 -1.6167659053 1.1377766824
H 1.3128723297 -1.4619964999 -0.6113966292
H 0.8355747619 0.9552139204 -0.4653408377
H 0.8180819565 0.8665254746 1.2965018806
H -1.1339484748 -0.6590678497 1.2074826524
H -1.0887610001 -0.6173927425 -0.5584367677
H -1.4580575489 1.8414997013 1.2001182980
H -1.5812564088 1.7874588933 -0.5562792264
H -3.4401935161 0.3657686444 1.4011100862
H -3.7665605240 1.8921117362 0.5898437917
H -4.8586008441 0.5733413006 -0.9165277832
H -3.2526325908 0.3476863759 -1.5945342793
H -4.4254711111 -1.8123918667 -1.3388422231
H -3.0333331160 -1.7801338725 -0.2573150638
H -4.6527205031 -1.5137557272 0.3837603589
32
CONF386
C 3.1400323334 -0.8166463485 -2.0545142858
C 2.6990420770 -0.9520380210 -0.6017535156
C 1.8723868270 0.2476173263 -0.1437994287
C 1.4216147183 0.1072191447 1.3085373027
C 0.6338347482 1.3142243352 1.8194946744
C -0.7333159331 1.5279925984 1.1639049184
C -1.7385621182 0.3992281196 1.4355923133
C -1.8868992349 -0.6044202113 0.2891708268
C -2.6605736524 -0.0385934957 -0.9003085393
C -2.7736073685 -1.0537449366 -2.0317852113
H 3.7470013172 0.0763663626 -2.1860915441
H 2.2750489845 -0.7411075774 -2.7099411102
H 3.7272753692 -1.6796262518 -2.3587732779
H 3.5796342342 -1.0491630532 0.0375462683
H 2.1064951691 -1.8628901353 -0.4860442983
H 1.0031541218 0.3454830185 -0.7965335420
H 2.4681024842 1.1577070295 -0.2493105808
H 2.3085975061 -0.0130809416 1.9364507543
H 0.8217488820 -0.7972829954 1.4206867232
H 1.2354870631 2.2137369159 1.6644839674
H 0.4866044124 1.2015658981 2.8967433147
H -0.6045774538 1.6608854341 0.0901265022
H -1.1367361370 2.4649459487 1.5542862662
H -1.4349079270 -0.1338419114 2.3390174990
H -2.7227346948 0.8303014022 1.6334227284
H -0.9037383831 -0.9333107483 -0.0487457241
H -2.4183099797 -1.4847436861 0.6601856161
H -3.6611650645 0.2528968741 -0.5722763085
H -2.1636193722 0.8593377869 -1.2728897092
H -1.7858580437 -1.3406509487 -2.3863968355
H -3.2863544121 -1.9500541360 -1.6895330234
H -3.3307425158 -0.6366580907 -2.8672248664
32
CONF389
C 3.9919458626 -0.5107282232 -1.5590104784
C 2.8297462848 -1.0009531216 -0.7034758441
C 2.1651043259 0.1409436078 0.0624528643
C 1.0160347161 -0.3515335510 0.9398911285
C 0.3171551673 0.7841966419 1.6919004084
C -0.5864179145 1.6598650536 0.8109943100
C -2.0784486817 1.3465847954 0.9530301669
C -2.4969986404 -0.0481350958 0.4861670826
C -2.3740317221 -0.2458441210 -1.0233303187
C -2.8615116657 -1.6257451941 -1.4498098859
H 4.4484675668 -1.3387888268 -2.0958367452
H 4.7518302463 -0.0437959962 -0.9362046781
H 3.6476887144 0.2223861104 -2.2852330124
H 3.1918289111 -1.7480698488 0.0067028621
H 2.0880977961 -1.4859501939 -1.3425996506
H 1.7967153015 0.8811087324 -0.6510679320
H 2.9105653573 0.6349535847 0.6906478675
H 1.4152961270 -1.0629624763 1.6674704608
H 0.2955027036 -0.8863659936 0.3199493985
H 1.0873911280 1.4053948167 2.1544688785
H -0.2811305176 0.3608397194 2.5013089872
H -0.2933184322 1.5625521454 -0.2340431425
H -0.4462977301 2.7077830634 1.0849299372
H -2.3564732112 1.4596246719 2.0040895443
H -2.6442673829 2.0890890189 0.3840418479
H -1.9023901131 -0.8029345491 1.0031523193
H -3.5406762385 -0.2059750984 0.7710524245
H -2.9609517902 0.5209718382 -1.5345031481
H -1.3340106510 -0.1253139561 -1.3309501920
H -2.2800580708 -2.4036042373 -0.9591443452
H -3.9068971660 -1.7612679118 -1.1809944464
H -2.7642824698 -1.7511248189 -2.5255893619
32
CONF459
C 3.2384587241 1.0274427975 -1.6807936522
C 3.7039994360 0.3144586144 -0.4159070021
C 2.6425461265 0.2875477084 0.6849746699
C 1.4502449097 -0.6082399995 0.3537938503
C 0.4524986858 -0.6656316316 1.5100297894
C -0.7673416065 -1.5533583928 1.2255104436
C -2.0024871074 -0.7931716582 0.7370061752
C -1.8280776066 -0.1396072488 -0.6323475219
C -3.1401570417 0.3904311135 -1.2135825043
C -3.7173947157 1.5594809892 -0.4231308707
H 4.0488409397 1.0788137360 -2.4041260021
H 2.9208348374 2.0416936584 -1.4487798592
H 2.4062164509 0.5022512252 -2.1416664883
H 4.5909998784 0.8240679662 -0.0320330970
H 3.9926924193 -0.7100270327 -0.6616184251
H 2.2903298312 1.3054850799 0.8685325068
H 3.1039554938 -0.0718354210 1.6084752950
H 1.8105621335 -1.6183936506 0.1430190704
H 0.9528595118 -0.2397137306 -0.5421046928
H 0.1176136735 0.3455837717 1.7504461624
H 0.9769065172 -1.0483294872 2.3891118898
H -1.0463151370 -2.0743954552 2.1441889364
H -0.4975344807 -2.3148201857 0.4904778805
H -2.8367599223 -1.4978468686 0.6817185760
H -2.2607956610 -0.0333465527 1.4767905698
H -1.1183576325 0.6859949512 -0.5587668444
H -1.4165227619 -0.8793545946 -1.3237418856
H -2.9584917690 0.7155884040 -2.2408729113
H -3.8722337127 -0.4198038529 -1.2490395977
H -4.6020069824 1.9505401646 -0.9203711618
H -4.0012238589 1.2495101917 0.5789594095
H -2.9863627415 2.3610905540 -0.3431380866
32
CONF387
C 3.1383647084 -0.9435873222 2.0004959328
C 2.6993841069 -0.9873678937 0.5414541508
C 1.8655473394 0.2343358694 0.1614686740
C 1.4201634330 0.1880075378 -1.2985409480
C 0.6335428152 1.4252440348 -1.7333276479
C -0.7330864478 1.5998860053 -1.0652935852
C -1.7416447715 0.4938385095 -1.4084887243
C -1.8894947775 -0.5838541025 -0.3312929365
C -2.6542403741 -0.0953526959 0.8976146682
C -2.7651011060 -1.1826627119 1.9601759815
H 2.2724128717 -0.9172832742 2.6584844138
H 3.7385527222 -0.0565128176 2.1905015276
H 3.7318921563 -1.8201435814 2.2486129365
H 2.1128060861 -1.8925548249 0.3661712936
H 3.5811405569 -1.0372099360 -0.1016793510
H 2.4545474445 1.1394387657 0.3293717710
H 0.9937642846 0.2825192385 0.8163635618
H 0.8215941022 -0.7077285889 -1.4715467229
H 2.3095918191 0.1094443312 -1.9295999992
H 0.4860568804 1.3798274683 -2.8154830808
H 1.2363886866 2.3126684140 -1.5229521105
H -1.1341388025 2.5609334754 -1.3947846839
H -0.6038578834 1.6635063858 0.0147053404
H -2.7253603497 0.9393878271 -1.5740828335
H -1.4418308086 0.0215570356 -2.3463688592
H -2.4274762466 -1.4344649761 -0.7580517124
H -0.9064761989 -0.9397976760 -0.0215488995
H -2.1515998388 0.7740859885 1.3259872789
H -3.6555027073 0.2209717357 0.5955298183
H -1.7766445207 -1.4935191499 2.2918699772
H -3.3189182739 -0.8207275835 2.8228783490
H -3.2803697977 -2.0538993255 1.5615097627
32
CONF687
C 2.9515992752 1.7227182719 0.6546621571
C 2.8435974003 0.2911591760 1.1676132504
C 2.8706722737 -0.7552104560 0.0514308956
C 1.7215036168 -0.6577431008 -0.9537274218
C 0.3461468859 -0.8823484143 -0.3288896403
C -0.7547573026 -0.9041505457 -1.3890922864
C -2.1630441834 -1.1023348581 -0.8096542880
C -2.9717870679 0.1896788526 -0.6649434022
C -2.4155331385 1.2077492995 0.3312451892
C -2.4620416398 0.7211933369 1.7751802530
H 3.8289957066 1.8342357527 0.0212957880
H 3.0393111035 2.4155185364 1.4883115171
H 2.0729779111 1.9987153713 0.0778642544
H 1.9301125596 0.1824796117 1.7542465680
H 3.6843574138 0.0921882199 1.8367612717
H 2.8533514707 -1.7485079543 0.5072436271
H 3.8140109130 -0.6593933734 -0.4923092009
H 1.8823912272 -1.4123570453 -1.7284306429
H 1.7421596834 0.3169956762 -1.4441351363
H 0.1422346958 -0.0947468081 0.3952108943
H 0.3469796355 -1.8356237445 0.2062483795
H -0.5353754714 -1.7161808947 -2.0866277988
H -0.7247256393 0.0262137545 -1.9606253008
H -2.7284523341 -1.7618578227 -1.4719840368
H -2.0926785227 -1.6046982201 0.1558887304
H -3.0390883017 0.6655250969 -1.6467830080
H -3.9880170723 -0.0734941073 -0.3595400704
H -1.3907036464 1.4652130125 0.0607134977
H -3.0106371001 2.1210838374 0.2509239917
H -3.4803431586 0.4576541073 2.0529997052
H -1.8321014426 -0.1533402684 1.9151710481
H -2.1138303252 1.5017633416 2.4478431022
32
CONF686
C 2.9727840510 1.7130056837 0.6690674230
C 2.8370474395 0.2806053973 1.1728275850
C 2.8624001001 -0.7601143609 0.0513418607
C 1.7182876212 -0.6503073379 -0.9584407777
C 0.3398563549 -0.8748773339 -0.3405094249
C -0.7584800873 -0.8837950060 -1.4034988235
C -2.1678023310 -1.0893723821 -0.8293150510
C -2.9749874329 0.2008476100 -0.6613162126
C -2.4150655196 1.2039129569 0.3479216610
C -2.4498475844 0.6935495135 1.7839316602
H 3.0513859333 2.4009427233 1.5076480794
H 2.1098219128 2.0021798544 0.0752778340
H 3.8644897994 1.8167043795 0.0546408798
H 1.9148221045 0.1825446341 1.7474276314
H 3.6662590192 0.0658706607 1.8514192274
H 2.8364443474 -1.7557110247 0.5016989092
H 3.8089075375 -0.6675277690 -0.4873535648
H 1.8795975607 -1.3995209241 -1.7382576634
H 1.7444604705 0.3281028372 -1.4411840334
H 0.1369940982 -0.0926401017 0.3895230911
H 0.3355074954 -1.8326742525 0.1865092761
H -0.5376386409 -1.6875499290 -2.1101378667
H -0.7275837846 0.0533091695 -1.9638384730
H -2.7336877701 -1.7353176985 -1.5045295376
H -2.0994218506 -1.6099331008 0.1267027170
H -3.0461303778 0.6917888501 -1.6354164928
H -3.9900464208 -0.0669262019 -0.3560126862
H -1.3930657164 1.4693923349 0.0744724640
H -3.0136779716 2.1164641489 0.2868400848
H -3.4653068222 0.4223565319 2.0646989507
H -1.8163713689 -0.1812334700 1.9050336077
H -2.0990480308 1.4640743609 2.4667515331
32
CONF405
C 3.6225749818 -0.0851824955 1.8459442601
C 2.7055650428 -0.8228691275 0.8775976761
C 2.0374105113 0.1289684837 -0.1123977031
C 1.1194072320 -0.6125894380 -1.0813844913
C 0.4730425199 0.2988182200 -2.1250349052
C -0.5377645488 1.3110824383 -1.5790450808
C -1.7727547607 0.6737087860 -0.9251953136
C -1.7070094121 0.6556803246 0.6021441837
C -2.9469686505 0.0350470815 1.2483448545
C -3.0350438341 -1.4739900848 1.0474266993
H 4.4111727345 0.4320897463 1.3038237776
H 4.0836496987 -0.7814603353 2.5423389017
H 3.0605120016 0.6508934479 2.4166695635
H 1.9355172311 -1.3544374185 1.4418713438
H 3.2836898093 -1.5688005045 0.3271968418
H 2.8073686360 0.6575920206 -0.6798256990
H 1.4670131749 0.8746829937 0.4441191988
H 0.3443473502 -1.1388520743 -0.5223694111
H 1.7086220074 -1.3692643792 -1.6066270188
H -0.0328909214 -0.3270940386 -2.8646889686
H 1.2623987871 0.8466497509 -2.6464599758
H -0.8598055436 1.9291151009 -2.4202370199
H -0.0473094477 1.9748558608 -0.8658207191
H -2.6647428488 1.2341263730 -1.2154754809
H -1.8914672441 -0.3421282374 -1.3038388071
H -0.8244125056 0.1074965347 0.9336438672
H -1.6076879538 1.6855452515 0.9554703479
H -2.9227807531 0.2441297370 2.3205053067
H -3.8425192051 0.5092047032 0.8400153547
H -2.1415411435 -1.9607190387 1.4328052914
H -3.8974908361 -1.8750348390 1.5746707981
H -3.1366058506 -1.7236453984 -0.0053512975
32
CONF565
C 3.7577860618 0.8435360193 -1.2667071726
C 3.6349333082 -0.5572384376 -0.6751703533
C 3.1718009465 -0.5594762704 0.7891182420
C 1.6790516165 -0.8387942309 0.9765752039
C 0.7640669940 0.2328308106 0.3891140326
C -0.7033955523 -0.0336650745 0.7196300298
C -1.6223772300 1.0206466006 0.1061199241
C -3.0866927202 0.8707089361 0.5227310720
C -3.7578848648 -0.4275783374 0.0700732908
C -3.8314050295 -0.5707116657 -1.4459457553
H 4.0712828886 0.7877688337 -2.3069578787
H 4.4991639084 1.4204426840 -0.7179733605
H 2.8114362512 1.3746398373 -1.2216088307
H 4.6120066185 -1.0406038434 -0.7432885305
H 2.9405733667 -1.1479249787 -1.2758338778
H 3.4180267042 0.4004085285 1.2475325999
H 3.7204092390 -1.3301634064 1.3351787272
H 1.4773136979 -0.9198469035 2.0480821594
H 1.4367952617 -1.8042195467 0.5251332473
H 0.8800501062 0.2614121347 -0.6955671689
H 1.0515070157 1.2099534385 0.7849985929
H -0.8353552103 -0.0396313418 1.8045311019
H -0.9738195043 -1.0231975686 0.3468735599
H -1.2792856598 2.0091940965 0.4225838047
H -1.5420692628 0.9835491388 -0.9814579461
H -3.1475577930 0.9307122349 1.6123354144
H -3.6501075589 1.7137201863 0.1147711050
H -3.2283675408 -1.2832433245 0.4918011030
H -4.7728351251 -0.4420072272 0.4748965791
H -4.4092724680 -1.4524531819 -1.7129767327
H -4.3106752999 0.3007471570 -1.8867960028
H -2.8393328211 -0.6739985318 -1.8772935749
32
CONF566
C 3.7761675682 0.8540634935 -1.2447617462
C 3.6685958007 -0.5479165087 -0.6530368560
C 3.1727779867 -0.5579376837 0.8002857267
C 1.6789975432 -0.8509642029 0.9561105516
C 0.7658154767 0.2164148579 0.3578631518
C -0.7023351173 -0.0450814036 0.6897104951
C -1.6190883714 1.0108860032 0.0754380679
C -3.0779745865 0.8840958705 0.5181587312
C -3.7713583550 -0.4129283022 0.0966540881
C -3.8836286443 -0.5714816291 -1.4154652851
H 4.4889870252 1.4487533519 -0.6773964391
H 2.8173489311 1.3639279626 -1.2278330996
H 4.1197673446 0.8028337923 -2.2756913290
H 4.6568844020 -1.0109714015 -0.6973148485
H 3.0005736062 -1.1540165827 -1.2680583197
H 3.4006431581 0.4028567536 1.2663151550
H 3.7164221322 -1.3252251225 1.3560679885
H 1.4576680001 -0.9393999426 2.0231918264
H 1.4537227277 -1.8160298941 0.4953400293
H 0.8834904880 0.2364735964 -0.7268649770
H 1.0533375628 1.1963336687 0.7467131021
H -0.8324473438 -0.0471531041 1.7748803045
H -0.9765826848 -1.0349164342 0.3205468384
H -1.2600659874 1.9996599176 0.3730484526
H -1.5563754441 0.9582456191 -1.0126420159
H -3.1194571053 0.9612440314 1.6076392809
H -3.6386967045 1.7273916670 0.1070538161
H -3.2389065620 -1.2685449509 0.5147544508
H -4.7761662178 -0.4138841541 0.5263092764
H -4.3702728258 0.2975137877 -1.8531483423
H -2.9031718916 -0.6832976441 -1.8704997680
H -4.4716716303 -1.4533343487 -1.6588491531
32
CONF536
C 3.6121894830 0.5278456404 -1.6983221844
C 3.7075949791 -0.5526333681 -0.6266937653
C 2.8474411134 -0.2606200665 0.6038550990
C 1.3471044821 -0.3184267363 0.3230731124
C 0.5285218593 -0.1255585506 1.5985289398
C -0.9799482703 -0.2462953463 1.3742914306
C -1.5713009085 0.9404951481 0.6132011592
C -3.0844031214 0.8145904118 0.3820393658
C -3.4630579180 0.3354535594 -1.0211383177
C -2.9878736554 -1.0772696160 -1.3385747206
H 3.8641997647 1.4999264278 -1.2801907935
H 2.6088850434 0.5798798817 -2.1124209525
H 4.3026655249 0.3141039902 -2.5108106581
H 4.7490974532 -0.6408490939 -0.3085658243
H 3.4104722527 -1.5135767582 -1.0528858704
H 3.1030325372 0.7269164634 0.9953419110
H 3.0869542412 -0.9935404725 1.3786667633
H 1.1018015172 -1.2879945156 -0.1178600309
H 1.0840624154 0.4551588605 -0.3982697046
H 0.7530209543 0.8539709471 2.0276960414
H 0.8354844481 -0.8811306626 2.3262771748
H -1.4729906318 -0.3102578638 2.3477716573
H -1.1872658986 -1.1742386850 0.8401234071
H -1.3666665872 1.8456660425 1.1897084687
H -1.0721111808 1.0511947459 -0.3500452000
H -3.5092729159 0.1315494840 1.1206568903
H -3.5524472405 1.7894660029 0.5352779942
H -4.5515294698 0.3703193934 -1.1133073219
H -3.0498003189 1.0283265719 -1.7580896831
H -1.9025367699 -1.1262239878 -1.3587840977
H -3.3553227239 -1.7789049494 -0.5928649135
H -3.3585849477 -1.3876101245 -2.3130649875
32
CONF476
C 2.4042775886 1.3735654359 -1.2982596689
C 3.3248650926 0.3727032278 -0.6065664717
C 2.6766659455 -1.0018301143 -0.3839704560
C 2.1499467415 -1.2265397087 1.0360187803
C 1.0118881401 -0.3026765981 1.4712271686
C -0.2836968580 -0.5302095163 0.6952531065
C -1.4086404928 0.3688612437 1.2048872698
C -2.7577198243 0.0905365160 0.5408301442
C -2.7999845344 0.4681037428 -0.9387912037
C -4.1933686296 0.2751205653 -1.5261935448
H 1.5015842663 1.5466957677 -0.7196118891
H 2.1152359453 1.0046618540 -2.2802784373
H 2.9139859268 2.3258880570 -1.4291139637
H 3.6504416025 0.7796448325 0.3528905126
H 4.2172433554 0.2516530194 -1.2247458284
H 3.4191892218 -1.7796031047 -0.5770006198
H 1.8705053122 -1.1450616920 -1.1043573057
H 2.9817643400 -1.1037919209 1.7345280652
H 1.8069642786 -2.2615105863 1.1158674848
H 1.3225147864 0.7381789534 1.3699051513
H 0.8172600393 -0.4790886817 2.5327198608
H -0.5840066870 -1.5759235149 0.7980736426
H -0.1144888438 -0.3339859898 -0.3633230698
H -1.5141557954 0.2202478092 2.2827011379
H -1.1371018578 1.4151932559 1.0435510392
H -3.0002330565 -0.9693290802 0.6492110667
H -3.5286360234 0.6597161966 1.0665431505
H -2.5001677310 1.5125629412 -1.0517936181
H -2.0908065014 -0.1451080565 -1.4968328261
H -4.5036417100 -0.7634521719 -1.4345564241
H -4.9176323120 0.8952118440 -1.0023782977
H -4.2062874465 0.5462403389 -2.5790543708
32
CONF562
C 3.9685358155 -0.6344333188 1.5457292591
C 3.1715888854 0.1212824215 0.4885239359
C 2.3654071455 -0.8299057348 -0.3935586024
C 1.6700506840 -0.1356796380 -1.5661182843
C 0.6234514981 0.9085308370 -1.1723441251
C -0.5556933695 0.3252021188 -0.3957178043
C -1.6422101327 1.3723351236 -0.1627558275
C -2.7907830857 0.8954222717 0.7288782911
C -3.6270565466 -0.2435957400 0.1274487197
C -3.2338449475 -1.6224425384 0.6483669686
H 4.6694678151 -1.3216257213 1.0767631820
H 3.3024299793 -1.2099181379 2.1849057053
H 4.5302964125 0.0572188718 2.1689345116
H 3.8555695226 0.6992211101 -0.1374614609
H 2.4999591214 0.8233249755 0.9850291661
H 1.6278970765 -1.3528449488 0.2176731611
H 3.0426910035 -1.5852992067 -0.8006811814
H 1.1871219660 -0.8983944590 -2.1823023931
H 2.4297709069 0.3518550651 -2.1824053361
H 0.2438671874 1.3699623018 -2.0879254056
H 1.0926561328 1.6985528760 -0.5834601470
H -0.2127123419 -0.0485277696 0.5705356460
H -0.9670657357 -0.5134935341 -0.9597734002
H -1.1859544331 2.2488215222 0.3054770843
H -2.0469195517 1.6917003544 -1.1265179449
H -2.3894865294 0.5786687391 1.6937160677
H -3.4403322480 1.7539511163 0.9138513594
H -4.6802079675 -0.0793189836 0.3660590803
H -3.5360311143 -0.2244354791 -0.9603111506
H -2.1923523563 -1.8429905941 0.4333198165
H -3.3783869635 -1.6737688600 1.7254750760
H -3.8498324656 -2.3902190231 0.1850680556
32
CONF455
C 3.1907682630 1.1026580909 -1.6336224334
C 3.6797512331 0.3841984056 -0.3806236698
C 2.6108333942 0.2787302865 0.7081878904
C 1.4560205581 -0.6484959047 0.3342428326
C 0.4455355575 -0.7763660070 1.4737106688
C -0.7669402641 -1.6496136686 1.1208687311
C -1.9995510042 -0.8611038916 0.6720770377
C -1.8100251092 -0.1113492737 -0.6449298073
C -3.1109487045 0.4814733647 -1.1893745959
C -3.6633215298 1.6092802542 -0.3246735097
H 2.8104541120 2.0898684558 -1.3803659215
H 2.3977981890 0.5421335534 -2.1212305580
H 4.0067618305 1.2209365000 -2.3426359628
H 4.5361387125 0.9283958501 0.0246079588
H 4.0219041877 -0.6183891010 -0.6469740842
H 2.2181282734 1.2758047013 0.9221323285
H 3.0774930035 -0.0938255255 1.6237872542
H 1.8538782102 -1.6384008038 0.0967224880
H 0.9568659253 -0.2693616878 -0.5561411363
H 0.1024744969 0.2181672861 1.7666405821
H 0.9604712809 -1.2057672269 2.3365576127
H -1.0524112845 -2.2314267437 2.0001850316
H -0.4870926404 -2.3595246889 0.3394777200
H -2.8309479201 -1.5618828057 0.5567626393
H -2.2690912619 -0.1561178425 1.4605633826
H -1.0882583773 0.6955616804 -0.5086845336
H -1.4069535607 -0.8047508326 -1.3875137334
H -2.9222889190 0.8685784664 -2.1936721022
H -3.8597495981 -0.3093246755 -1.2762179040
H -4.5404654270 2.0490334625 -0.7936239923
H -3.9519423019 1.2422648969 0.6565442384
H -2.9159649034 2.3892410867 -0.1959829522
32
CONF427
C 2.9373588211 -1.2246104926 1.8620526411
C 2.4124377212 -0.0197173333 1.0898716774
C 2.3649250275 -0.2920353161 -0.4125299914
C 1.8917805763 0.9091693977 -1.2341368113
C 0.4108864756 1.2549193427 -1.0617708513
C -0.5215913669 0.2405674506 -1.7243772408
C -2.0074476366 0.5448227957 -1.4830234190
C -2.6466673180 -0.3065540880 -0.3837671126
C -2.0477039094 -0.0867851274 1.0032996471
C -2.8029272497 -0.8705768124 2.0707827733
H 2.9681451289 -1.0125249035 2.9280071616
H 3.9421242772 -1.4804413530 1.5329320634
H 2.2957744273 -2.0884855853 1.7021081247
H 3.0567178435 0.8422247333 1.2783749843
H 1.4145256040 0.2278226852 1.4556066667
H 1.7183183070 -1.1503151799 -0.6032170931
H 3.3696803650 -0.5634475273 -0.7463614940
H 2.0812575878 0.7091622687 -2.2917182704
H 2.4912509996 1.7780891329 -0.9516896194
H 0.2304889220 2.2334401347 -1.5143498883
H 0.1756105321 1.3411884430 -0.0017982812
H -0.3007319878 -0.7631648815 -1.3597385170
H -0.3178496201 0.2450199946 -2.7977275504
H -2.1257650348 1.6015305453 -1.2337473504
H -2.5649082326 0.3654121158 -2.4048472885
H -3.7140363572 -0.0732860802 -0.3441090327
H -2.5530427811 -1.3625206936 -0.6497512033
H -1.0036628010 -0.4031086966 1.0052566836
H -2.0799549889 0.9781310797 1.2455952700
H -3.8435038250 -0.5558031692 2.1116689974
H -2.7769002015 -1.9355962948 1.8503088711
H -2.3568958933 -0.7113196241 3.0496331530
32
CONF558
C 3.4548709938 0.8859864133 1.7837376171
C 2.8596444769 0.6274700673 0.4043229292
C 2.3398972084 -0.8029272403 0.2778328388
C 1.8432553059 -1.1539898130 -1.1259619875
C 0.6705091087 -0.3099301449 -1.6296404885
C -0.5758457646 -0.4156993212 -0.7528486026
C -1.7624796189 0.3166028348 -1.3742589050
C -3.0652434462 0.1752545625 -0.5838448387
C -3.0297814309 0.8174459094 0.8110674520
C -2.7809158402 -0.1872165016 1.9317625695
H 2.7067591775 0.7236162226 2.5567493194
H 3.8123101529 1.9099744148 1.8611633247
H 4.2903288969 0.2149578908 1.9713447045
H 3.6209809364 0.8027137163 -0.3594066316
H 2.0454892780 1.3329678973 0.2316193787
H 1.5402492689 -0.9622821205 1.0032990973
H 3.1493718851 -1.4919717599 0.5329236963
H 1.5442343512 -2.2052470941 -1.1319424526
H 2.6734083171 -1.0444946804 -1.8284703610
H 0.4207382643 -0.6463907072 -2.6394668641
H 0.9730169547 0.7361632343 -1.7041092553
H -0.3633964927 0.0127416592 0.2261607806
H -0.8322779796 -1.4692250833 -0.6168714543
H -1.5173698970 1.3772453129 -1.4728649467
H -1.9278286663 -0.0746223104 -2.3818072897
H -3.8581223562 0.6432658903 -1.1715115377
H -3.3141760748 -0.8835518592 -0.4883128513
H -2.2588241476 1.5901084639 0.8350081494
H -3.9853591293 1.3099142667 1.0041535969
H -1.8409154826 -0.7125193667 1.7891661105
H -2.7483467745 0.3205285778 2.8934278038
H -3.5810343856 -0.9237617590 1.9622877512
32
CONF682
C 2.0235506558 1.9066354445 0.1428201032
C 3.0678395272 0.7943490086 0.1332365956
C 2.5984656961 -0.4942268144 0.8244414810
C 2.0928896956 -1.5777563016 -0.1323229699
C 0.8543416833 -1.2115749624 -0.9507800647
C -0.3965791791 -1.0082881615 -0.0988621623
C -1.6115902997 -0.6677764333 -0.9588946133
C -2.9094757883 -0.5454028678 -0.1583329417
C -2.9224295654 0.5738618136 0.8851596000
C -2.7467686998 1.9634711558 0.2831553300
H 2.4176278734 2.7970063298 -0.3427755994
H 1.7571440881 2.1665280150 1.1653692790
H 1.1200904092 1.6062720301 -0.3796736311
H 3.9603705020 1.1662527867 0.6414641392
H 3.3530045241 0.5703942480 -0.8967084125
H 1.8244381874 -0.2542711485 1.5543957977
H 3.4365946842 -0.9235871728 1.3784127113
H 1.8707408984 -2.4744658576 0.4523285269
H 2.9012162690 -1.8308113039 -0.8234002463
H 0.6649708916 -2.0192698545 -1.6632269865
H 1.0520527615 -0.3101489059 -1.5329093470
H -0.2217474331 -0.2035515393 0.6145513959
H -0.5986585027 -1.9202615793 0.4685177699
H -1.4241447251 0.2615353414 -1.4999272189
H -1.7454170326 -1.4544716632 -1.7062829305
H -3.7320977838 -0.3777852368 -0.8582842758
H -3.0980660652 -1.4946272894 0.3497173557
H -3.8809529116 0.5352405105 1.4085851594
H -2.1417718063 0.3969494177 1.6265897558
H -2.8752006538 2.7243355601 1.0494578635
H -1.7552258282 2.0821218556 -0.1456780566
H -3.4837156308 2.1349379202 -0.4984932025
32
CONF465
C 2.5183174254 -0.4132091255 -2.0622971876
C 3.1605598843 0.4112738867 -0.9518145810
C 2.1910023235 0.7460323665 0.1833113104
C 1.8497776200 -0.4625706677 1.0553919359
C 0.8250813792 -0.1423568216 2.1535956173
C -0.6019827070 -0.5831186545 1.8199818017
C -1.2042086278 0.1305686698 0.6123112737
C -2.6568142931 -0.2822021473 0.3815190066
C -3.3257133399 0.4754172337 -0.7665114638
C -2.7382547443 0.1391908232 -2.1328421793
H 3.2299082613 -0.5817927832 -2.8671006054
H 1.6562652467 0.1091647586 -2.4720591853
H 2.1908407353 -1.3813242664 -1.6928271479
H 3.5324687285 1.3447781473 -1.3805680566
H 4.0180968704 -0.1300890673 -0.5457943809
H 1.2799633500 1.1699541555 -0.2409685336
H 2.6442351251 1.5117507063 0.8181446968
H 2.7751314985 -0.8190604127 1.5139354448
H 1.4644369070 -1.2722269446 0.4348658868
H 0.8316847346 0.9309706573 2.3550696759
H 1.1190391705 -0.6468468096 3.0765432463
H -1.2341687899 -0.3943755642 2.6919133371
H -0.6096984758 -1.6609541624 1.6389937583
H -1.1590999460 1.2107467585 0.7722935667
H -0.6179187834 -0.1074952810 -0.2745808952
H -2.6988095595 -1.3547618064 0.1769471843
H -3.2243024344 -0.0999763477 1.2978640772
H -4.3901273164 0.2289374270 -0.7713296491
H -3.2368439366 1.5494536595 -0.5879196959
H -2.7770710873 -0.9334525797 -2.3090658262
H -3.3023790127 0.6368329963 -2.9181343932
H -1.7033532983 0.4630418466 -2.2036374346
32
CONF458
C 3.1971318573 -0.4180543451 -1.5612662049
C 2.5461849815 -1.1878496753 -0.4177832031
C 2.8150790911 -0.5679660854 0.9539253605
C 2.1719946148 0.8009561330 1.1920078787
C 0.6361340689 0.7806438136 1.1790944052
C 0.0365307590 1.2892761373 -0.1321148813
C -1.4929234224 1.2641196408 -0.1427310950
C -2.0731469927 -0.1468507996 -0.2199759640
C -3.5967544986 -0.1326289544 -0.3225892055
C -4.1738175657 -1.5415953381 -0.3942032139
H 2.7899618449 0.5865542687 -1.6397706354
H 3.0253434548 -0.9288545873 -2.5060422655
H 4.2706963481 -0.3410969736 -1.4030005958
H 2.9406320984 -2.2072270638 -0.4136341173
H 1.4704331922 -1.2573801864 -0.5846277898
H 3.8959246238 -0.4694261242 1.0848739131
H 2.4545615156 -1.2561976481 1.7228796443
H 2.5351050256 1.5132792628 0.4501197884
H 2.5155690569 1.1532124604 2.1671973243
H 0.2587051737 1.4112794927 1.9874816446
H 0.2918972042 -0.2356355765 1.3743498155
H 0.4050744025 0.6946259878 -0.9688390827
H 0.3698006979 2.3188527370 -0.2871887180
H -1.8696760939 1.7624506898 0.7537953492
H -1.8461896193 1.8319215565 -1.0072805598
H -1.6599418387 -0.6580694188 -1.0931255352
H -1.7850657478 -0.7157993784 0.6657707861
H -4.0106192220 0.3857881960 0.5453873411
H -3.8929923563 0.4265755539 -1.2131624281
H -3.7821462155 -2.0692455416 -1.2610766266
H -3.9107979522 -2.1064895209 0.4974410073
H -5.2577085344 -1.5080802646 -0.4727433419
32
CONF483
C 3.0295072409 1.8709535753 -0.3377701862
C 3.2999928098 0.7646602416 0.6762644960
C 2.1200483309 -0.1929515151 0.8523771144
C 1.8818979467 -1.0813483756 -0.3687095572
C 0.7212612652 -2.0694347290 -0.1835733739
C -0.5984828209 -1.6130341025 -0.8096059311
C -1.1875717590 -0.3547640718 -0.1767330089
C -2.5653630249 -0.0317422993 -0.7526103744
C -3.1532548383 1.2766319340 -0.2216583402
C -3.5127972470 1.2163662225 1.2589091065
H 2.8816337553 1.4616144465 -1.3335267894
H 3.8700589349 2.5598029989 -0.3771398055
H 2.1398058401 2.4316895039 -0.0591387824
H 3.5231350104 1.2228301279 1.6427635631
H 4.1817209913 0.1976536698 0.3686101360
H 1.2229719607 0.3856069812 1.0756965549
H 2.3194278006 -0.8361791619 1.7134626868
H 2.8018533188 -1.6383695130 -0.5621438230
H 1.6859792723 -0.4638485517 -1.2458946085
H 0.5685932629 -2.2557775579 0.8816561525
H 0.9897766547 -3.0229305745 -0.6438034204
H -1.3238691110 -2.4250926613 -0.7102910651
H -0.4466509044 -1.4408039848 -1.8781984013
H -1.2642480506 -0.5041965137 0.9015158476
H -0.5245500039 0.4927312221 -0.3578954877
H -2.4807346328 0.0391114799 -1.8401156220
H -3.2529430389 -0.8511025506 -0.5292636457
H -2.4390609958 2.0861058211 -0.3891297831
H -4.0549736805 1.5092137004 -0.7931521183
H -2.6256175817 1.0800022335 1.8714110594
H -3.9979349453 2.1397099813 1.5665902372
H -4.1942989059 0.3903385680 1.4500606073
32
CONF395
C 4.2958294333 0.3679904267 -1.4924333947
C 3.1215868619 -0.4375049439 -0.9489860246
C 2.2480250313 0.3918825830 -0.0103444455
C 1.0693754894 -0.4091603151 0.5380181621
C 0.2003526554 0.4283992908 1.4738347840
C -0.9621636458 -0.3543685365 2.0857467694
C -2.0501284126 -0.7825404021 1.0972208987
C -2.8033135787 0.3926211891 0.4562729753
C -2.3638327474 0.7147188176 -0.9745279840
C -2.8553384334 -0.3171258754 -1.9837889557
H 3.9394514677 1.2321976807 -2.0486767802
H 4.9038697420 -0.2417223360 -2.1562554874
H 4.9240372873 0.7213774479 -0.6777447514
H 3.4981153223 -1.3109683839 -0.4116590980
H 2.5134937368 -0.7988867552 -1.7815104502
H 1.8715608830 1.2658215075 -0.5480147244
H 2.8570130994 0.7550204704 0.8211895616
H 1.4454556390 -1.2804581739 1.0800039192
H 0.4716656291 -0.7749097168 -0.2987864837
H -0.1837247321 1.2971176991 0.9368698961
H 0.8280063934 0.8017006775 2.2874191688
H -1.4240011304 0.2600248809 2.8629478897
H -0.5629927407 -1.2490313653 2.5708148202
H -1.6093080989 -1.4087073168 0.3219470762
H -2.7598900312 -1.4062739798 1.6449837931
H -3.8729755471 0.1722061877 0.4368308838
H -2.6705736738 1.2799696283 1.0787801020
H -2.7644800015 1.6929131816 -1.2519285109
H -1.2763517042 0.7783291098 -1.0237391275
H -3.9423547506 -0.3620266819 -1.9816394588
H -2.5243862424 -0.0551302945 -2.9861209290
H -2.4746240572 -1.3079332916 -1.7478261626
32
CONF462
C 4.1312965192 -0.0644456625 1.0728373506
C 2.7365863489 0.5083501271 1.3000858280
C 1.6378461299 -0.2630080859 0.5664128231
C 1.7093673556 -0.1122533372 -0.9533975660
C 0.5565040085 -0.8108689240 -1.6896265047
C -0.5760402808 0.1252027094 -2.1204945455
C -1.3485819880 0.7939322044 -0.9829781546
C -2.1540967126 -0.1901092653 -0.1376699413
C -2.9581145327 0.5175358280 0.9508945999
C -3.7595268149 -0.4670342614 1.7943755976
H 4.1586098812 -1.1161605326 1.3496004046
H 4.8606208661 0.4686700575 1.6782649022
H 4.4262361210 0.0256440001 0.0308580306
H 2.7171914486 1.5531244736 0.9810121339
H 2.5196555737 0.4868722253 2.3708731128
H 0.6706752101 0.0947185754 0.9215519316
H 1.7123371397 -1.3224243473 0.8247168786
H 2.6543410205 -0.5352506901 -1.2975039256
H 1.7150571098 0.9491059375 -1.2111586476
H 0.1573682302 -1.6117050829 -1.0659394737
H 0.9472940231 -1.2781470253 -2.5964819616
H -1.2812151932 -0.4464768575 -2.7297133277
H -0.1529783426 0.9060159361 -2.7577901764
H -0.6588949694 1.3482353541 -0.3446529331
H -2.0383831975 1.5209275611 -1.4203308999
H -2.8362365698 -0.7457638816 -0.7859115249
H -1.4840562321 -0.9119955120 0.3325732705
H -2.2762600704 1.0765928210 1.5962686095
H -3.6377551978 1.2369891546 0.4882793750
H -3.0965413864 -1.1795833902 2.2801071473
H -4.3236215073 0.0565369841 2.5623678790
H -4.4583829784 -1.0204403999 1.1711432553
32
CONF464
C 2.7337387081 -0.2788714549 2.1220814499
C 3.3155242502 -0.5396604555 0.7369319491
C 2.6558189922 0.2953974115 -0.3617013014
C 1.2007854203 -0.0904082465 -0.6218578353
C 0.6030620186 0.7145188636 -1.7730858013
C -0.8255772240 0.3066128774 -2.1401693714
C -1.8494189849 0.5442500489 -1.0204617894
C -2.1929437335 -0.7267345586 -0.2430755242
C -3.1559446794 -0.4765689590 0.9191235131
C -2.5035740189 0.2532664858 2.0884230743
H 3.2908179109 -0.8318104448 2.8747430958
H 1.6941296419 -0.5909610712 2.1746001009
H 2.7886038595 0.7803565376 2.3633844978
H 3.2121263452 -1.5996168502 0.4936257376
H 4.3831425358 -0.3081519442 0.7551537627
H 3.2242720248 0.1680894447 -1.2866749561
H 2.7054931390 1.3522257263 -0.0884099686
H 0.6159169664 0.0849416705 0.2804453872
H 1.1492321986 -1.1555225211 -0.8612403494
H 1.2354358294 0.5890842501 -2.6562168667
H 0.6152724579 1.7756553409 -1.5115145575
H -0.8364635943 -0.7477073283 -2.4247137662
H -1.1170845153 0.8827467368 -3.0210028965
H -1.4623295646 1.3034976799 -0.3401774427
H -2.7741374291 0.9365524112 -1.4501372109
H -2.6524950751 -1.4388555341 -0.9333555548
H -1.2822432865 -1.1864170984 0.1429452140
H -4.0113429011 0.1007951519 0.5609698138
H -3.5325107991 -1.4385928456 1.2744990445
H -1.6446740650 -0.3065622111 2.4529310239
H -2.1690521072 1.2446587949 1.7946863610
H -3.2112991344 0.3641197773 2.9065324024
32
CONF572
C 4.0887096745 -0.4829393316 1.1687380594
C 3.8231984613 0.3997798935 -0.0455135365
C 2.9857882624 -0.2906634407 -1.1239123134
C 1.5823488954 -0.7104898779 -0.6830825007
C 0.6947065039 0.4626817777 -0.2728842963
C -0.7355684481 0.0133786881 0.0204138406
C -1.6240781130 1.1843294656 0.4327281445
C -3.0318519318 0.7765621646 0.8725209939
C -3.8854295968 0.1500721687 -0.2398401349
C -3.9106139244 -1.3745861319 -0.1951168084
H 4.5362515991 -1.4259230266 0.8623339934
H 3.1680923071 -0.6961219999 1.7052428219
H 4.7712142368 0.0148514903 1.8536092511
H 4.7798210864 0.6834228347 -0.4912661166
H 3.3287867523 1.3187978911 0.2730414111
H 3.5212119803 -1.1809449812 -1.4634908019
H 2.8963839791 0.3853959132 -1.9780430783
H 1.6512826451 -1.4189923417 0.1439593324
H 1.1076692111 -1.2328991159 -1.5178987858
H 0.6828109172 1.2044914514 -1.0753923495
H 1.1041262517 0.9431068640 0.6174920998
H -0.7212254069 -0.7286538313 0.8225356717
H -1.1453952836 -0.4628381387 -0.8717644375
H -1.1449900533 1.7106604222 1.2627333728
H -1.6989947029 1.8882379652 -0.3999116483
H -2.9585023530 0.0779356899 1.7084374833
H -3.5324741756 1.6740615547 1.2426095773
H -4.9131034391 0.5085121067 -0.1482804418
H -3.5138407470 0.4810000967 -1.2115700071
H -4.5167225168 -1.7658199173 -1.0094116256
H -2.9101458421 -1.7880753214 -0.2831640380
H -4.3398372655 -1.7170573699 0.7440977652
32
CONF561
C 3.9131692247 1.3760755314 -0.2021636856
C 3.8882792826 -0.1487501511 -0.2411241439
C 3.0363777605 -0.7712874965 0.8746946967
C 1.6281732164 -1.1814640160 0.4385366777
C 0.7376454736 -0.0134567816 0.0221383370
C -0.6919786027 -0.4671067035 -0.2678522120
C -1.5828845069 0.7010486757 -0.6852461320
C -2.9849628731 0.2738083688 -1.1234077224
C -3.8244717832 -0.4016221641 -0.0371823104
C -4.1055509013 0.5033991833 1.1570066198
H 2.9129006859 1.7892512417 -0.2939268809
H 4.5211325329 1.7642325800 -1.0165634581
H 4.3404162478 1.7220155009 0.7366832618
H 4.9161321736 -0.5066447304 -0.1493043065
H 3.5156929080 -0.4834787132 -1.2111663749
H 2.9639971068 -0.0696105400 1.7081319999
H 3.5378253173 -1.6672850711 1.2473542655
H 1.1507150158 -1.7043973833 1.2716232595
H 1.7023598600 -1.8891147914 -0.3910124826
H 1.1458352493 0.4595322033 -0.8725077241
H 0.7227649372 0.7320533654 0.8209979638
H -1.0999293040 -0.9430671120 0.6255986960
H -0.6786537309 -1.2138360885 -1.0657799884
H -1.6538822094 1.4146388470 0.1372133165
H -1.1097156792 1.2193458757 -1.5234689287
H -3.5205722225 1.1584753979 -1.4770671299
H -2.8925758294 -0.4143073811 -1.9675437998
H -4.7757359467 -0.7017216996 -0.4835879000
H -3.3252197213 -1.3100620016 0.3033166112
H -3.1905154769 0.7348214385 1.6955268285
H -4.5582378528 1.4363785027 0.8282379224
H -4.7891424817 0.0142921715 1.8470723115
32
CONF461
C 3.4252751433 -1.3545213950 -1.4363742015
C 2.5521695944 -0.9487837880 -0.2544490688
C 2.7701080893 0.5145491869 0.1297133493
C 1.9043774537 0.9763225448 1.3110177559
C 0.6654373317 1.7794589591 0.9054931363
C -0.3679376166 1.0253789230 0.0672910740
C -1.0609535248 -0.0981860585 0.8357193075
C -2.0945547193 -0.8524430989 -0.0026449383
C -3.3444592093 -0.0318388202 -0.3156977899
C -4.3842630101 -0.8565730583 -1.0656150438
H 3.2669673361 -2.4003761327 -1.6882730552
H 4.4776148002 -1.2132805187 -1.1993663200
H 3.1885492105 -0.7507696844 -2.3098623273
H 2.7905149624 -1.5819094879 0.6037591977
H 1.5049941860 -1.1174274483 -0.5076494302
H 2.5715799406 1.1489308179 -0.7367400781
H 3.8249598507 0.6403706092 0.3849433962
H 2.5034540476 1.6182031635 1.9608797658
H 1.6070872075 0.1112260917 1.9052356915
H 0.9951638560 2.6556138779 0.3411270509
H 0.1775182709 2.1416777506 1.8142652910
H 0.1083687505 0.6176384897 -0.8255079543
H -1.1185942495 1.7459174058 -0.2636832776
H -0.3109346029 -0.8126664641 1.1797128430
H -1.5494892965 0.3185992477 1.7199141991
H -1.6330602073 -1.1770919446 -0.9385544898
H -2.3981930203 -1.7500008674 0.5422697866
H -3.7766478810 0.3331065146 0.6189343623
H -3.0759731552 0.8362512420 -0.9197225532
H -4.6894632005 -1.7162165459 -0.4728797973
H -5.2655275582 -0.2571947581 -1.2810063591
H -3.9758627391 -1.2182109784 -2.0067342860
32
CONF423
C 4.3211872248 -0.6195064935 0.5678460801
C 3.3924307279 -1.1202555922 -0.5327772984
C 1.9391142328 -0.6868909447 -0.3358772471
C 1.7369684425 0.8212836402 -0.4786850056
C 0.2624115006 1.2278852288 -0.4995313877
C -0.4217710588 1.0680570581 0.8582781830
C -1.9094802365 1.4481500893 0.8315209115
C -2.8571426673 0.2497331990 0.7471750307
C -2.7257275568 -0.5605900387 -0.5400995362
C -3.7734495484 -1.6656544049 -0.6153225731
H 5.3214868383 -1.0229750880 0.4294401628
H 3.9564276343 -0.9330255064 1.5435329198
H 4.3885386186 0.4649494195 0.5568504717
H 3.4290937198 -2.2121066591 -0.5548749961
H 3.7486113409 -0.7587407439 -1.5002169199
H 1.6054917004 -1.0142794837 0.6503920193
H 1.3212195104 -1.1936304213 -1.0818124062
H 2.2021197593 1.1465457305 -1.4127236509
H 2.2361576255 1.3414037290 0.3406116851
H -0.2607391435 0.6369848626 -1.2526644718
H 0.1929886950 2.2769032476 -0.7990684406
H 0.1025320467 1.7027715759 1.5764074990
H -0.3234862448 0.0385998209 1.2040785240
H -2.1550370448 1.9988264543 1.7421609108
H -2.0988435013 2.1158964456 -0.0117032731
H -2.6796074520 -0.4071551461 1.6024298662
H -3.8840605008 0.6166943501 0.8247507196
H -2.8398607415 0.1056528795 -1.3983986826
H -1.7327683658 -1.0097163364 -0.5907536276
H -3.6600354825 -2.2389886700 -1.5322602975
H -3.6717285089 -2.3439498423 0.2290587826
H -4.7759414022 -1.2437147204 -0.5953525640
32
CONF466
C 2.8645581005 2.0461781263 -0.7645775287
C 2.5777340932 0.5490459061 -0.7631702299
C 2.3441042076 0.0229840583 0.6514222803
C 2.1253678182 -1.4890239994 0.7101879609
C 0.8329664967 -1.9910883404 0.0608403579
C -0.4479370023 -1.4880934210 0.7433428064
C -1.1220437792 -0.3338383763 0.0018835861
C -2.3771098808 0.1437254182 0.7300389891
C -3.0538276674 1.3379774960 0.0553157807
C -3.6868149705 0.9903297748 -1.2875596617
H 3.0283666023 2.4042011922 -1.7781603456
H 3.7520045839 2.2654763820 -0.1747702928
H 2.0277249750 2.5949660448 -0.3375205507
H 3.4217701392 0.0171049688 -1.2085861922
H 1.6999884454 0.3538138242 -1.3812930810
H 1.4902584908 0.5362044464 1.0962334577
H 3.2199907555 0.2651980048 1.2593958097
H 2.1264250816 -1.7993123463 1.7582718042
H 2.9705680712 -1.9823817289 0.2229073360
H 0.8540598266 -3.0823415160 0.1028762039
H 0.8183301584 -1.7132824015 -0.9938033694
H -0.2176153101 -1.1776347185 1.7648237140
H -1.1665040299 -2.3081618260 0.8121990111
H -0.4293976110 0.5030635091 -0.0976445521
H -1.3854206906 -0.6696879520 -1.0027227140
H -3.0905929476 -0.6809580051 0.8003537529
H -2.1022486615 0.4275611088 1.7493279619
H -3.8316004001 1.7184860360 0.7217113233
H -2.3204909161 2.1354318282 -0.0848086168
H -4.2199887076 1.8500088813 -1.6865873191
H -2.9315389591 0.6950870207 -2.0108683725
H -4.3933189410 0.1711875331 -1.1725762244
32
CONF529
C 3.7879051622 -1.3616968307 -1.1408456536
C 3.7080040230 0.1228735753 -0.8024550889
C 2.8535804637 0.4144906726 0.4321031321
C 1.3660204735 0.1373947461 0.2220600018
C 0.5453206741 0.5338739163 1.4482158264
C -0.9400821199 0.1899484915 1.3245388360
C -1.6780198340 1.0693542062 0.3149161827
C -3.1782406965 0.7540782171 0.2215580475
C -3.5600784941 -0.1306129033 -0.9672442021
C -2.9619373168 -1.5310487448 -0.9113646978
H 4.4661186055 -1.5216623415 -1.9757077577
H 2.8123985321 -1.7521295897 -1.4177865217
H 4.1558227083 -1.9258409740 -0.2866511928
H 3.3030068126 0.6689778743 -1.6574731427
H 4.7185276291 0.4966451509 -0.6211464515
H 2.9766619755 1.4665920281 0.7015439159
H 3.2179738311 -0.1841974139 1.2703904382
H 1.2130874379 -0.9248431500 0.0235365377
H 1.0229305807 0.6960239306 -0.6506340198
H 0.6537700985 1.6068067134 1.6253534816
H 0.9524933220 0.0145157722 2.3194692962
H -1.4091571726 0.3218420271 2.3030480363
H -1.0415919135 -0.8608485947 1.0511217134
H -1.5463286143 2.1108143876 0.6178711907
H -1.2282608329 0.9601074286 -0.6726157229
H -3.5067615124 0.2735923285 1.1456131545
H -3.7342170781 1.6895465407 0.1275701099
H -4.6494866843 -0.2136441699 -0.9958421184
H -3.2447754414 0.3586941527 -1.8919046971
H -3.3446870429 -2.1353761745 -1.7308842793
H -1.8792888461 -1.4940026822 -0.9961247012
H -3.2226874494 -2.0189605649 0.0252274152
32
CONF457
C 2.9028651675 2.0392159101 -0.7625662764
C 2.5910804596 0.5470492423 -0.7623860826
C 2.3476423691 0.0238928520 0.6516417362
C 2.1214208575 -1.4869757089 0.7108353956
C 0.8293359723 -1.9839775412 0.0570671647
C -0.4522784012 -1.4831942507 0.7398766891
C -1.1265196548 -0.3264552747 0.0024341748
C -2.3858005935 0.1422666377 0.7292034732
C -3.0688681351 1.3339491913 0.0563372043
C -3.7034391912 0.9837372041 -1.2851162549
H 3.7942285614 2.2428524911 -0.1730227340
H 2.0756568207 2.6016030235 -0.3345629771
H 3.0723353803 2.3953735284 -1.7758751661
H 3.4269005667 0.0017881545 -1.2072351140
H 1.7108668804 0.3664951127 -1.3815103831
H 1.4943745378 0.5420863887 1.0917677073
H 3.2219456213 0.2620102452 1.2635169595
H 2.1173468096 -1.7966687789 1.7590854324
H 2.9662638961 -1.9843275313 0.2269633792
H 0.8489873166 -3.0754378332 0.0943437232
H 0.8168318556 -1.7013947132 -0.9963164386
H -0.2231501939 -1.1765520273 1.7627746382
H -1.1708099913 -2.3036459538 0.8048292462
H -0.4359388183 0.5130727299 -0.0896400314
H -1.3852761078 -0.6570957014 -1.0051082799
H -3.0944557044 -0.6868763483 0.7960697234
H -2.1145675999 0.4250537722 1.7497341600
H -3.8468939095 1.7109068044 0.7244730603
H -2.3392604275 2.1345565840 -0.0850847187
H -4.2387443603 1.8420902718 -1.6841861875
H -2.9488986451 0.6889624179 -2.0093813097
H -4.4083993323 0.1635472672 -1.1681435564
32
CONF420
C 4.3514714158 -0.7732151226 1.1260565588
C 2.9190244468 -0.3030297891 0.9011793475
C 2.4474842911 -0.5955483776 -0.5221057631
C 0.9791358473 -0.2396602179 -0.7606573386
C 0.7145395947 1.2641054777 -0.7330999837
C -0.7059399835 1.6479957046 -1.1540312963
C -1.7976849479 1.1452665168 -0.1982565830
C -2.4869613742 -0.1286658391 -0.6871001961
C -3.5531233237 -0.6423764063 0.2824054436
C -2.9654565253 -1.2325157733 1.5598388810
H 5.0284520959 -0.2715177430 0.4381415541
H 4.4312124846 -1.8457284257 0.9623338420
H 4.6708021331 -0.5558944018 2.1424527036
H 2.8613312453 0.7690225152 1.0957029232
H 2.2570766782 -0.8073486336 1.6090770190
H 2.5845633389 -1.6616389826 -0.7207995043
H 3.0733240622 -0.0462508116 -1.2297047963
H 0.3708678414 -0.7339070848 -0.0014625124
H 0.6810275403 -0.6281815446 -1.7377648032
H 1.4189936531 1.7547141767 -1.4101155842
H 0.8982231880 1.6511093331 0.2709331454
H -0.8996259295 1.2689141476 -2.1598317507
H -0.7509735527 2.7381485232 -1.2045015036
H -1.3575932161 0.9757175695 0.7849586766
H -2.5618961694 1.9176098286 -0.0826806448
H -2.9611489447 0.0831614571 -1.6489402311
H -1.7484124527 -0.9141018504 -0.8513162301
H -4.2323593810 0.1742526982 0.5377652855
H -4.1396808103 -1.4142485044 -0.2213805749
H -2.4339332811 -0.4768943175 2.1321832536
H -3.7562705382 -1.6371159502 2.1871157969
H -2.2719606164 -2.0362601328 1.3216395101
32
CONF545
C 3.2281232030 1.5198387302 -0.8645828937
C 3.6164710495 0.2189201960 -0.1689800999
C 2.7725262694 -0.9843685304 -0.6143879902
C 1.6292266186 -1.3387465622 0.3389349566
C 0.5481257049 -0.2657168392 0.4437174858
C -0.6243987382 -0.7379893945 1.3014558469
C -1.6749741562 0.3463957542 1.5492359871
C -2.3656120855 0.8779678043 0.2918848011
C -3.1509459056 -0.1870658081 -0.4706832830
C -3.9302392549 0.4163749404 -1.6335851185
H 3.3689857106 1.4289782692 -1.9396146586
H 3.8496911113 2.3383351106 -0.5075947341
H 2.1884168207 1.7721398815 -0.6770215280
H 3.5286249667 0.3425672572 0.9121036482
H 4.6680412013 0.0195998061 -0.3865744289
H 3.4179543838 -1.8620974121 -0.6928401213
H 2.3648734383 -0.7918564966 -1.6088850224
H 2.0399885380 -1.5346370808 1.3326640886
H 1.1662105804 -2.2656084619 -0.0106547697
H 0.1963524356 -0.0209535883 -0.5598882329
H 0.9671920638 0.6382866984 0.8885892939
H -0.2385486639 -1.0641888520 2.2709972057
H -1.0923886623 -1.6052646278 0.8324385603
H -2.4364826413 -0.0581895744 2.2208429044
H -1.1971672862 1.1852625149 2.0616786856
H -3.0554336769 1.6705858309 0.5935230480
H -1.6272439618 1.3284953970 -0.3735822387
H -2.4669531773 -0.9440224377 -0.8574109731
H -3.8441122767 -0.6816514435 0.2138090936
H -4.4784876941 -0.3553328876 -2.1685795609
H -4.6413827089 1.1567811935 -1.2737657863
H -3.2537469212 0.9042738281 -2.3319662053
32
CONF479
C 2.4298337327 1.4575583948 1.1990018403
C 3.3381074357 0.4023657002 0.5751583582
C 2.6760438196 -0.9779388838 0.4504437976
C 2.1427519485 -1.2957236987 -0.9491341968
C 1.0094174271 -0.3958430054 -1.4429869202
C -0.2867946205 -0.5650548747 -0.6531690420
C -1.4065742430 0.3065546319 -1.2189275978
C -2.7609823924 0.0677385239 -0.5504307091
C -2.8088905118 0.5118660683 0.9103939466
C -4.2092740006 0.3642246483 1.4943709463
H 1.5280087406 1.6014389639 0.6110162216
H 2.9503015860 2.4107651880 1.2650403569
H 2.1385186672 1.1586675602 2.2038748903
H 4.2318224664 0.3157309089 1.1971701379
H 3.6635823630 0.7388069961 -0.4112679403
H 1.8707713053 -1.0627583251 1.1809950096
H 3.4117035630 -1.7475811427 0.6953428705
H 1.7923924757 -2.3312779369 -0.9568858639
H 2.9729545465 -1.2270142660 -1.6569089332
H 0.8127045995 -0.6401644653 -2.4905398437
H 1.3258644700 0.6476442552 -1.4101364411
H -0.1154273001 -0.3024046487 0.3905925020
H -0.5935792542 -1.6133437511 -0.6887622168
H -1.1337499067 1.3596586498 -1.1135896856
H -1.5054607302 0.0990752180 -2.2876309618
H -3.5248423102 0.6177504102 -1.1060374714
H -3.0104170319 -0.9942697088 -0.6121736655
H -2.1124532394 -0.0854612231 1.5007681997
H -2.4954809748 1.5561746415 0.9790627912
H -4.2255415944 0.6783520196 2.5351560464
H -4.9200904832 0.9732982966 0.9401005421
H -4.5349653963 -0.6723884451 1.4427636464
32
CONF695
C 3.6886776737 0.4556056867 -1.2855113178
C 2.5131027280 -0.5085313288 -1.1744229040
C 2.3265685236 -1.0730722267 0.2349088989
C 2.0258953667 -0.0310213695 1.3154868238
C 0.7831408672 0.8241501564 1.0625006262
C -0.5068440306 0.0114432566 0.9760822761
C -1.7333050525 0.9150413368 0.8507267374
C -3.0459380087 0.1371285760 0.6784780355
C -3.5299589780 0.0388177242 -0.7700342866
C -2.5962590160 -0.7472253195 -1.6827208242
H 3.5127818778 1.3545586031 -0.7006563038
H 3.8382294840 0.7496264160 -2.3219050104
H 4.6013239920 -0.0158156267 -0.9272441730
H 2.6785631634 -1.3469656188 -1.8556440665
H 1.5994365031 -0.0061699287 -1.4958980905
H 3.2392651450 -1.6020826130 0.5214776466
H 1.5204628372 -1.8088881222 0.2120972683
H 2.8872365487 0.6307758945 1.4243929842
H 1.9001514042 -0.5572054357 2.2653509433
H 0.9102668560 1.3989094838 0.1432780941
H 0.6916862295 1.5427418920 1.8816390205
H -0.6053851363 -0.6023881565 1.8750860378
H -0.4595084168 -0.6598253477 0.1197348140
H -1.7936828959 1.5333804125 1.7495292553
H -1.5993249147 1.5923518776 0.0044067722
H -2.9266005902 -0.8688654009 1.0862784403
H -3.8317096750 0.6297787636 1.2554181297
H -4.5106972752 -0.4435359555 -0.7707835732
H -3.6605535512 1.0468321550 -1.1710195292
H -3.0402827411 -0.8547752513 -2.6699920276
H -1.6432113894 -0.2376945482 -1.7958818799
H -2.4156374141 -1.7409242722 -1.2785081079
32
CONF507
C 3.1735021799 -1.3100615506 1.1094183856
C 2.9236755492 -1.0783227505 -0.3764069608
C 3.1917131425 0.3621655802 -0.8136237388
C 2.2472409448 1.4154521614 -0.2285500763
C 0.7850149059 1.2717615791 -0.6754847400
C -0.1076761455 0.5807396013 0.3549516438
C -1.5537811780 0.4776503771 -0.1258199277
C -2.4465045836 -0.2103977905 0.9051623361
C -3.9248972030 -0.2281059834 0.5142476754
C -4.2178176100 -1.1132922703 -0.6920595073
H 2.4889755406 -0.7250065732 1.7178491732
H 4.1913753874 -1.0283463906 1.3705295942
H 3.0340294140 -2.3601139733 1.3562859576
H 1.8982173782 -1.3537213373 -0.6258406250
H 3.5841737898 -1.7348402513 -0.9486602854
H 3.1302033383 0.4116339784 -1.9038692002
H 4.2151075750 0.6244236905 -0.5323345346
H 2.6197276947 2.3918190317 -0.5467797847
H 2.2994632428 1.3941282345 0.8606097363
H 0.7451503080 0.7201635515 -1.6172439026
H 0.3692784994 2.2640377079 -0.8663787865
H -0.0799808832 1.1480785137 1.2889817571
H 0.2680959350 -0.4209429279 0.5669864811
H -1.9404160583 1.4804274391 -0.3246498946
H -1.5760570965 -0.0790477098 -1.0642694806
H -2.1017960881 -1.2363767072 1.0542861246
H -2.3444918017 0.3129925787 1.8592890412
H -4.5051404363 -0.5913443762 1.3657497603
H -4.2524553629 0.7923786199 0.3031687085
H -5.2880362859 -1.1492547093 -0.8814913685
H -3.7286953756 -0.7312309117 -1.5839559401
H -3.8665096416 -2.1269910479 -0.5126253316
32
CONF513
C 4.2119957430 1.1185718899 -0.6765651180
C 3.9224661497 0.2248135017 0.5243413300
C 2.4434536246 0.1962271812 0.9123289981
C 1.5537586203 -0.4737035674 -0.1330307203
C 0.1084155335 -0.5938822338 0.3459751214
C -0.7846381351 -1.2563049034 -0.7027210296
C -2.2465518309 -1.4110218260 -0.2583068398
C -3.1911567352 -0.3458243899 -0.8211539335
C -2.9204719766 1.0854915420 -0.3561704347
C -3.1677180235 1.2887095056 1.1342737029
H 3.8421696220 2.1258024982 -0.4977424879
H 3.7380978833 0.7308386207 -1.5742561235
H 5.2832134630 1.1729109985 -0.8556720534
H 4.4982286969 0.5868654915 1.3794262123
H 4.2568256479 -0.7924909192 0.3083330730
H 2.0958927826 1.2183876501 1.0802902828
H 2.3413100214 -0.3453694614 1.8562354998
H 1.9450673013 -1.4699337413 -0.3543042234
H 1.5727754094 0.1040010748 -1.0587593376
H -0.2691867573 0.4005883202 0.5869811472
H 0.0829212365 -1.1877654933 1.2634310178
H -0.3694249629 -2.2429689355 -0.9215806402
H -0.7450842579 -0.6787455877 -1.6288123451
H -2.6185663284 -2.3808598764 -0.5963274966
H -2.2984253107 -1.4119181948 0.8310948021
H -3.1314825691 -0.3738412540 -1.9122797615
H -4.2142657834 -0.6127051905 -0.5432754842
H -1.8949285020 1.3642194837 -0.6016855234
H -3.5808774571 1.7541223716 -0.9143447854
H -3.0246102228 2.3332806919 1.4014331573
H -4.1860229264 1.0050011496 1.3914301126
H -2.4841198097 0.6897813721 1.7301521950
32
CONF579
C 3.5897567183 1.2354813607 -0.8953257582
C 4.1230934779 0.1696864801 0.0544084826
C 3.0778509566 -0.3627509444 1.0371036660
C 1.9096514061 -1.1035046977 0.3698584082
C 0.6514333538 -0.2469750894 0.2291572479
C -0.4642781207 -1.0009520001 -0.4922913432
C -1.7248361086 -0.1622139138 -0.7121880023
C -2.5013881222 0.1041712654 0.5761789168
C -3.7401865989 0.9762625064 0.3638979303
C -4.8362099796 0.2855268881 -0.4402043209
H 2.8343368315 0.8221570608 -1.5579726654
H 4.3975560380 1.6296839784 -1.5080355773
H 3.1510766915 2.0588130330 -0.3357919685
H 4.9501586103 0.5928261567 0.6300803776
H 4.5221384701 -0.6643530784 -0.5278231255
H 2.6888595495 0.4670188754 1.6309591713
H 3.5871246073 -1.0422008448 1.7240173117
H 1.6534970324 -1.9850603674 0.9621050930
H 2.2200171775 -1.4585126220 -0.6151909295
H 0.8808311895 0.6644922489 -0.3242502200
H 0.3154103438 0.0456737649 1.2256324720
H -0.7228069512 -1.8978038003 0.0759214492
H -0.0882898877 -1.3268565798 -1.4656419830
H -1.4477144876 0.7905795147 -1.1698172410
H -2.3709674069 -0.6923801947 -1.4139442688
H -2.8038203091 -0.8488202308 1.0169702478
H -1.8477127847 0.6073238989 1.2909156344
H -4.1431676176 1.2492815546 1.3421540583
H -3.4468535141 1.8994389064 -0.1411142965
H -5.1127934901 -0.6570218879 0.0271739618
H -5.7204266551 0.9166424674 -0.4897257263
H -4.5080394572 0.0835435536 -1.4562321274
32
CONF684
C 2.0330845866 1.8673489329 0.3948774747
C 3.0694526063 0.7560883955 0.2574070016
C 2.5810259780 -0.6060170394 0.7718538199
C 2.0805889695 -1.5535385324 -0.3221626956
C 0.8576317529 -1.0726659737 -1.1039640736
C -0.4051695724 -0.9711734195 -0.2513420644
C -1.5987713672 -0.4885633500 -1.0725226862
C -2.9157349039 -0.4915749095 -0.2940012117
C -2.9407121885 0.4149343495 0.9385684570
C -2.7141129991 1.8865283310 0.6110779310
H 1.7535856271 1.9966156653 1.4385431047
H 1.1352983385 1.6444089624 -0.1741936611
H 2.4406020269 2.8089886183 0.0327361318
H 3.9573517552 1.0521266471 0.8206384296
H 3.3675068356 0.6628425404 -0.7888505248
H 1.7987431327 -0.4539843042 1.5164364063
H 3.4079881018 -1.1104226349 1.2772519232
H 1.8423208312 -2.5153369325 0.1398268429
H 2.8970307595 -1.7242314957 -1.0287718094
H 0.6737256595 -1.7785796085 -1.9186124460
H 1.0708420685 -0.1048155616 -1.5603628522
H -0.2308590460 -0.2802194371 0.5728387759
H -0.6313627868 -1.9513510142 0.1758241398
H -1.3969720478 0.5156922773 -1.4498114367
H -1.7160443735 -1.1417843367 -1.9414123179
H -3.7165188146 -0.1820529567 -0.9705183893
H -3.1316052828 -1.5144662352 0.0249689693
H -3.9172279257 0.3062576160 1.4170095826
H -2.1898258384 0.0817589804 1.6566536310
H -1.7052558252 2.0550952150 0.2437578841
H -3.4182204886 2.2198360848 -0.1482612426
H -2.8545658049 2.4957169110 1.5009681062
32
CONF526
C 2.8984795378 1.4965401383 -0.9909713781
C 3.5377092361 0.1132429470 -0.9767478329
C 3.1823866397 -0.7189281617 0.2573311355
C 1.6903613717 -1.0656028937 0.3703835715
C 0.9396300251 -0.1673906395 1.3537027249
C -0.5458018785 -0.5134250759 1.4711556947
C -1.3558555744 -0.1374205202 0.2315426405
C -2.8455097007 -0.4100528160 0.4315087548
C -3.6864779506 -0.1358486182 -0.8162585532
C -3.7551837224 1.3430029309 -1.1813795219
H 3.2530726537 2.0647710592 -1.8482013417
H 3.1556218608 2.0440287591 -0.0867813394
H 1.8164190173 1.4230456791 -1.0585696206
H 4.6241741201 0.2263710431 -1.0127766068
H 3.2353658056 -0.4322263873 -1.8739488837
H 3.4996722708 -0.1826672976 1.1542487433
H 3.7625393570 -1.6431384561 0.2103448989
H 1.5827624322 -2.0988677952 0.7085508351
H 1.2330181929 -0.9995637088 -0.6174108189
H 1.0400276222 0.8773598953 1.0571383986
H 1.4009786999 -0.2752283356 2.3388007611
H -0.9613801921 0.0191844970 2.3303121831
H -0.6535948072 -1.5835436720 1.6647009714
H -1.2007260213 0.9214353570 0.0172635670
H -1.0051776279 -0.7101590592 -0.6289053416
H -2.9729253124 -1.4577215931 0.7157061369
H -3.2174065789 0.2019852833 1.2567337320
H -3.2759763307 -0.6988934064 -1.6576024275
H -4.7006574437 -0.5013087586 -0.6384398208
H -4.4281211556 1.4924947527 -2.0223945664
H -4.1236850006 1.9245814716 -0.3391883402
H -2.7758905631 1.7223668711 -1.4602942548
32
CONF548
C 4.0149966386 -0.4620682785 -1.5719273656
C 3.1920301768 0.1748165758 -0.4579243459
C 2.3722454370 -0.8667035968 0.3012505410
C 1.6611373757 -0.3048213105 1.5337244042
C 0.6177205907 0.7757702174 1.2433112294
C -0.5626404298 0.2749339775 0.4129005721
C -1.6371243939 1.3499854879 0.2681703906
C -2.7944934940 0.9600647025 -0.6538786340
C -3.6437830887 -0.2122683433 -0.1412512864
C -3.2713810710 -1.5501388320 -0.7726114362
H 4.5842960694 0.2937986284 -2.1075735294
H 3.3658572873 -0.9705860424 -2.2814008172
H 4.7112333985 -1.1911767770 -1.1631866974
H 2.5275178327 0.9238124148 -0.8914303349
H 3.8599797640 0.6848996263 0.2402009301
H 3.0429951874 -1.6641459148 0.6317728584
H 1.6433574825 -1.3168350018 -0.3748321211
H 2.4128476470 0.1130896680 2.2082474188
H 1.1722253464 -1.1300634079 2.0577052323
H 1.0897628752 1.6182766981 0.7350333880
H 0.2382231139 1.1463984034 2.1992976637
H -0.9852894973 -0.6054673174 0.8997083720
H -0.2185340445 -0.0166440987 -0.5808537415
H -2.0350283830 1.5961594233 1.2559776650
H -1.1714493048 2.2555696167 -0.1302631316
H -3.4333215462 1.8388804254 -0.7669783491
H -2.4006109887 0.7161321060 -1.6426142111
H -3.5483398126 -0.2812219703 0.9441228444
H -4.6955436322 -0.0156306501 -0.3607868374
H -2.2315884344 -1.7999941743 -0.5829779391
H -3.8945191547 -2.3445884092 -0.3675203496
H -3.4228287034 -1.5139061050 -1.8493675663
32
CONF685
C 2.4423783948 -0.8901868978 1.7024803934
C 2.4100653941 -1.2322734126 0.2172876470
C 2.9737903483 -0.1208762676 -0.6689084522
C 2.1625135720 1.1773930348 -0.6951090576
C 0.7584050670 1.0312695392 -1.2997652113
C -0.3484500255 0.9132266408 -0.2521779656
C -1.7188657495 0.7324792734 -0.9014665949
C -2.8738257658 0.7404683052 0.1018016835
C -2.8415882180 -0.3890337664 1.1336497181
C -2.9308438507 -1.7776373413 0.5108289346
H 2.0867209352 -1.7325258914 2.2915516854
H 1.8118028595 -0.0324941004 1.9215435155
H 3.4579800707 -0.6569890243 2.0150993167
H 1.3881412740 -1.4624705123 -0.0868056901
H 3.0072268974 -2.1329676992 0.0532130841
H 3.0522741012 -0.4984517887 -1.6917732480
H 3.9861199435 0.1131409493 -0.3288484029
H 2.7301690614 1.8985141448 -1.2875873209
H 2.0844944660 1.5850105260 0.3135450077
H 0.7332806720 0.1557552619 -1.9524215590
H 0.5421686275 1.9021820523 -1.9232743834
H -0.3588436073 1.8180066734 0.3613187845
H -0.1427551751 0.0687350306 0.4041163351
H -1.8805569730 1.5469325701 -1.6127956086
H -1.7305649757 -0.1990248450 -1.4700199462
H -2.8686701510 1.6954389015 0.6335064063
H -3.8134598735 0.6781828375 -0.4530746025
H -1.9326463302 -0.3164578327 1.7328010981
H -3.6881836682 -0.2513895141 1.8108399467
H -3.0127636856 -2.5339496167 1.2879737284
H -3.8049306264 -1.8499942232 -0.1327866637
H -2.0471619624 -1.9977659135 -0.0821607439
32
CONF506
C 4.2115443150 1.1185652588 -0.7068545559
C 3.9297865380 0.2295758491 0.4992977456
C 2.4547541838 0.2097253015 0.9027452071
C 1.5542165832 -0.4768447223 -0.1223442986
C 0.1112075776 -0.5787680048 0.3677020245
C -0.7868072930 -1.2780451030 -0.6525135918
C -2.2460204498 -1.4188166582 -0.1945326782
C -3.1977209625 -0.3828731573 -0.7985922642
C -2.9276057696 1.0683161351 -0.4000066512
C -3.1735257695 1.3391652312 1.0798508194
H 3.7158085046 0.7384732222 -1.5958352755
H 5.2800979459 1.1566657414 -0.9051391605
H 3.8604327473 2.1311951475 -0.5214398311
H 4.5168487185 0.5908112191 1.3469793908
H 4.2562873999 -0.7900408374 0.2824545277
H 2.1102695449 1.2349632867 1.0573979142
H 2.3612625683 -0.3162821374 1.8562945635
H 1.9384165836 -1.4800272093 -0.3239460624
H 1.5708691283 0.0799207752 -1.0608606613
H -0.2652237138 0.4237202120 0.5753274585
H 0.0900615683 -1.1400419727 1.3055893520
H -0.3713089572 -2.2711557202 -0.8393769776
H -0.7531423914 -0.7329508410 -1.5982683061
H -2.6157767370 -2.4039590187 -0.4878821057
H -2.2927151754 -1.3721706278 0.8941379537
H -3.1451115975 -0.4601623986 -1.8876654760
H -4.2182087642 -0.6393729125 -0.5019883637
H -1.9023553948 1.3359004397 -0.6585912198
H -3.5887609338 1.7103554606 -0.9876669655
H -3.0348164259 2.3955853854 1.2982936649
H -4.1902331733 1.0631555244 1.3514349868
H -2.4864831274 0.7712813718 1.7016302930
32
CONF363
C 5.0255314834 1.1542316458 0.2674796249
C 4.0624876491 -0.0229899958 0.1683205842
C 2.6168612591 0.4374405158 -0.0052824594
C 1.6487227504 -0.7369614458 -0.1274330441
C 0.2024816176 -0.2749791031 -0.2902419440
C -0.7602319167 -1.4510510015 -0.4407807850
C -2.2173943757 -1.0069092820 -0.5825315112
C -2.8031111301 -0.4263002295 0.7157715146
C -3.2780443296 1.0208540867 0.5759615936
C -4.5330780810 1.1431169078 -0.2807632023
H 6.0466760694 0.8036181121 0.3954565166
H 4.7692556652 1.7851906922 1.1156116213
H 4.9801235589 1.7597174599 -0.6350058405
H 4.1398189103 -0.6327909577 1.0713834636
H 4.3439661340 -0.6517260527 -0.6795329945
H 2.5427346526 1.0598602015 -0.9002637052
H 2.3303997180 1.0543537620 0.8498627525
H 1.7289091452 -1.3650549148 0.7631922982
H 1.9313870569 -1.3490951415 -0.9874360123
H 0.1262669264 0.3645095606 -1.1730772457
H -0.0802839706 0.3251604558 0.5767438235
H -0.6650309241 -2.1136962870 0.4226869027
H -0.4766597132 -2.0243833457 -1.3269028090
H -2.2714562196 -0.2610046441 -1.3775319066
H -2.8113044397 -1.8645421231 -0.9029621878
H -3.6451750010 -1.0362285284 1.0487848151
H -2.0477116946 -0.4699126608 1.5022809871
H -3.4904682743 1.4208950669 1.5703548556
H -2.4774211177 1.6232337249 0.1412563816
H -4.8405371319 2.1833203296 -0.3588192628
H -4.3580344928 0.7617502055 -1.2835652924
H -5.3491284285 0.5758020128 0.1615199845
32
CONF552
C 3.8469259941 -1.6595538253 0.2654972617
C 3.6464470093 -0.2735883514 0.8686042272
C 2.2253263422 0.2612375845 0.6852753164
C 1.8813359560 0.5620766117 -0.7729867917
C 0.5468319548 1.2911345216 -0.9376248874
C -0.6606485139 0.4242183371 -0.5848499581
C -1.9736650563 1.1674616394 -0.8181355471
C -3.2224293573 0.3053240054 -0.6202960597
C -3.4159316931 -0.2079126617 0.8141622694
C -2.9357285855 -1.6425056855 1.0110580275
H 3.7297195822 -1.6349439973 -0.8144850249
H 3.1226664407 -2.3598767464 0.6757904734
H 4.8453037880 -2.0276367594 0.4899267088
H 4.3556979123 0.4244281276 0.4177534043
H 3.8645624411 -0.3204857083 1.9382305536
H 2.1214256525 1.1819505361 1.2650318248
H 1.5209435065 -0.4677003897 1.0896937905
H 1.8483610737 -0.3668299907 -1.3447483482
H 2.6735098165 1.1853728447 -1.1956187485
H 0.4524406445 1.6173647691 -1.9766637093
H 0.5441855801 2.1865809501 -0.3111449451
H -0.5958578954 0.1270907691 0.4615314022
H -0.6435224188 -0.4795962641 -1.1987157759
H -2.0224388837 2.0277195218 -0.1457575201
H -1.9818689124 1.5525967740 -1.8414698667
H -4.0868969761 0.9107914946 -0.9017834144
H -3.1843621209 -0.5439683866 -1.3054991028
H -2.8923585253 0.4517182384 1.5088677979
H -4.4771792921 -0.1681396820 1.0693929599
H -3.4991299045 -2.3193653464 0.3721805969
H -1.8821238116 -1.7424077023 0.7670964015
H -3.0797625932 -1.9504214853 2.0445198796
32
CONF494
C 2.7633752542 1.9770025094 0.0249938769
C 3.2311264197 0.7267330478 -0.7122794396
C 2.1502001353 -0.3518906802 -0.8054445369
C 1.8854270058 -1.0521729307 0.5276843262
C 0.7442663259 -2.0769019475 0.4512021154
C -0.5918563933 -1.5605692433 0.9900593354
C -1.1590717856 -0.3756728120 0.2120260655
C -2.5442765256 0.0188981773 0.7219661582
C -3.0783042191 1.3045867831 0.0887508362
C -3.3574211124 1.1694139254 -1.4040509833
H 2.5140954896 1.7524625423 1.0587347859
H 1.8830589492 2.3947106795 -0.4591097833
H 3.5459449548 2.7320477222 0.0225402128
H 4.1100195593 0.3150031632 -0.2109349488
H 3.5306175574 1.0098906871 -1.7240541842
H 2.4657009907 -1.1045199643 -1.5326458288
H 1.2304293931 0.0996566629 -1.1790282522
H 1.6501051026 -0.3147217390 1.2957145282
H 2.8061551589 -1.5546372286 0.8333673107
H 1.0153945526 -2.9601362180 1.0336218300
H 0.6146611181 -2.3991280141 -0.5841971386
H -0.4673122927 -1.2749111042 2.0377617729
H -1.3159548941 -2.3791314352 0.9590337875
H -0.4915343400 0.4816735282 0.3122721395
H -1.2177834247 -0.6416161518 -0.8447513542
H -3.2469909987 -0.7958896547 0.5316248714
H -2.4908627853 0.1607352023 1.8045334498
H -4.0048501962 1.5828932600 0.5965859914
H -2.3587305401 2.1104230154 0.2511879077
H -3.8080971764 2.0820673541 -1.7869331121
H -2.4401072220 0.9871554082 -1.9573247467
H -4.0419263867 0.3445111806 -1.5890013552
32
CONF484
C 3.4167837692 -1.3852817869 1.1498362795
C 3.0937510318 -1.2656306262 -0.3354137001
C 2.5448575274 0.1079029813 -0.7244389736
C 1.1666882381 0.3980556410 -0.1321832495
C 0.5954170995 1.7120677279 -0.6593719110
C -0.7367568798 2.1115750690 -0.0208834474
C -1.8835487442 1.1298422257 -0.3028756701
C -2.1523680077 0.1736257479 0.8593796595
C -3.2573077944 -0.8408145999 0.5584463380
C -2.8302728359 -1.9107816719 -0.4406429181
H 4.1092491803 -0.6024787858 1.4514765102
H 3.8755682281 -2.3488211766 1.3590234540
H 2.5168893044 -1.3008969810 1.7530789540
H 2.3677296736 -2.0338407851 -0.6114385752
H 4.0045014781 -1.4513873364 -0.9097164589
H 2.4743110768 0.1590427623 -1.8140786060
H 3.2477717025 0.8807162976 -0.4041224196
H 1.2371624356 0.4540717736 0.9554072702
H 0.4953000158 -0.4228511905 -0.3891336162
H 0.4640504906 1.6377336420 -1.7419297118
H 1.3204110740 2.5088757729 -0.4728167944
H -1.0053583007 3.0970420164 -0.4075231944
H -0.6023465908 2.2128285247 1.0581604667
H -2.8014788190 1.6891238293 -0.4985267463
H -1.6521989496 0.5631017007 -1.2052709189
H -1.2393952059 -0.3630326503 1.1203103792
H -2.4465593950 0.7647942754 1.7304838263
H -3.5455050301 -1.3300918338 1.4918142941
H -4.1355551393 -0.3153196538 0.1764266383
H -1.9502543762 -2.4378321777 -0.0780090288
H -3.6288675924 -2.6351507964 -0.5824266016
H -2.5959010285 -1.4731861747 -1.4074211501
32
CONF668
C 3.3258407146 -0.8612017598 -1.6080238000
C 3.0613166262 -1.1537529551 -0.1351641930
C 1.7647854549 -0.5259355137 0.3794045732
C 1.8066382386 1.0005346397 0.4008580294
C 0.6392543280 1.6431861213 1.1534237616
C -0.7341733897 1.4190261360 0.5043609222
C -1.5164380819 0.2598060670 1.1211375892
C -2.9398365309 0.1345210065 0.5732831690
C -3.0338269991 -0.1966132089 -0.9175741006
C -2.4325667050 -1.5515159910 -1.2735125130
H 3.4851745487 0.2012384924 -1.7713398233
H 2.4827911578 -1.1819770407 -2.2162064468
H 4.2129031171 -1.3928068686 -1.9444449052
H 3.9000491591 -0.7900123426 0.4630220280
H 3.0020443650 -2.2359875247 0.0040250001
H 1.5827218709 -0.8865709215 1.3948384786
H 0.9394039953 -0.8621137457 -0.2504495723
H 1.8172559212 1.3823951506 -0.6216786284
H 2.7369910829 1.3158306705 0.8810730044
H 0.8344226433 2.7168937174 1.2035873441
H 0.6224075699 1.2691855714 2.1795501692
H -0.5975144609 1.2495017191 -0.5642697215
H -1.3347875836 2.3251933091 0.6163192831
H -0.9826889571 -0.6775554322 0.9713347113
H -1.5856489649 0.4243951205 2.1998409612
H -3.4584071262 -0.6465680407 1.1351491822
H -3.4680305051 1.0745527874 0.7531819653
H -4.0901994016 -0.1965628626 -1.1976334786
H -2.5441068142 0.5843841941 -1.5011589958
H -2.8760658840 -2.3361743019 -0.6643991777
H -2.6176757050 -1.7824892602 -2.3200470913
H -1.3578698716 -1.5574343069 -1.1121371097
32
CONF410
C 4.2404024128 1.3190959241 0.6124966066
C 3.3253675274 0.1000074743 0.5850806765
C 2.7270311889 -0.1224751586 -0.8035844622
C 1.7806451460 -1.3288973444 -0.8796107175
C 0.2961611315 -0.9729528472 -0.7709242279
C -0.1060338493 -0.4008534624 0.5868097586
C -1.6214579115 -0.2854101740 0.7607711448
C -2.2557814370 0.7396179078 -0.1783973786
C -3.7205181679 1.0302764784 0.1521798115
C -4.6386730003 -0.1609302754 -0.0977692505
H 5.0560224796 1.1999297399 -0.0974501324
H 4.6649027171 1.4570121129 1.6039055336
H 3.6863823280 2.2171558108 0.3478480498
H 2.5288869928 0.2310496691 1.3180703637
H 3.8966166580 -0.7859538859 0.8727315975
H 3.5522176503 -0.2678991994 -1.5048616573
H 2.1937799459 0.7776528638 -1.1163506205
H 2.0395059217 -2.0424412312 -0.0942860480
H 1.9270380728 -1.8336630020 -1.8371421710
H -0.2869113341 -1.8797974418 -0.9524807827
H 0.0484550046 -0.2582759169 -1.5579240198
H 0.3405489323 0.5863441043 0.7175020446
H 0.2841327766 -1.0539129905 1.3715927112
H -2.0722930165 -1.2656686633 0.5965211755
H -1.8316772308 0.0091633303 1.7922750010
H -1.6915463154 1.6731055025 -0.1092160849
H -2.1898227654 0.3861900871 -1.2087669778
H -3.8004030562 1.3362349791 1.1979289811
H -4.0561587288 1.8685282804 -0.4631286412
H -4.3931746064 -0.9872213793 0.5638387800
H -5.6748211226 0.1183170498 0.0783317321
H -4.5451410330 -0.5024531879 -1.1263017745
32
CONF730
C 3.6776796694 1.0078811563 -0.7087465808
C 3.9314368754 -0.0901018075 0.3171214503
C 2.7089654971 -0.4429551838 1.1673065544
C 1.5436217909 -1.0570300750 0.3784783918
C 0.4595764214 -0.0464789877 0.0042467191
C -0.6892136473 -0.7111782765 -0.7519035030
C -1.7183129249 0.2830188191 -1.2928446563
C -2.4104174928 1.1422623949 -0.2318266347
C -3.1577270602 0.3587870765 0.8485283686
C -4.3033492029 -0.4823481982 0.2973051463
H 4.6079900646 1.2828149639 -1.2011068557
H 3.2710090820 1.8936428114 -0.2255920991
H 2.9791247895 0.6737554549 -1.4709110940
H 4.7305509688 0.2343332175 0.9885364495
H 4.2803857062 -0.9891622128 -0.1964273836
H 2.3624783720 0.4532377753 1.6863674806
H 3.0345839274 -1.1539442362 1.9300384519
H 1.0778246628 -1.8416366810 0.9798973937
H 1.9279031156 -1.5321742921 -0.5267376539
H 0.8825237663 0.7462341726 -0.6137344796
H 0.0794044016 0.4120192106 0.9190038172
H -1.1798053775 -1.4371218896 -0.1008890179
H -0.2770837569 -1.2657475187 -1.5994331159
H -1.2182873770 0.9546349306 -1.9956516263
H -2.4732535802 -0.2693818516 -1.8555570178
H -1.6683176680 1.7812593163 0.2505794058
H -3.1213669859 1.7987154011 -0.7404094457
H -2.4607727752 -0.2846478858 1.3876411611
H -3.5611076521 1.0754458797 1.5684214549
H -4.9867941169 0.1379413809 -0.2786572672
H -3.9310711009 -1.2746266265 -0.3467084037
H -4.8595239528 -0.9410456744 1.1116469545
32
CONF396
C 2.8368727053 0.2516043433 -1.9981154603
C 2.3338330799 -0.7438617983 -0.9584667687
C 2.7865639408 -0.3897264986 0.4606426983
C 2.0541354641 0.8138082733 1.0723563618
C 0.9686776333 0.4296142048 2.0815983258
C -0.2008489582 -0.3690267216 1.5047148185
C -1.0694221833 0.4363785016 0.5407373716
C -2.2399391602 -0.3878980120 0.0096863272
C -3.1040676743 0.4020990735 -0.9706905613
C -4.2671775123 -0.4287618892 -1.4994943678
H 2.4763973833 1.2552019723 -1.7857637181
H 2.4938420064 -0.0303445587 -2.9908164276
H 3.9244129999 0.2762476806 -2.0047372010
H 2.7163324248 -1.7359330152 -1.2110911481
H 1.2452059263 -0.7904416044 -1.0001798809
H 3.8592644803 -0.1860294985 0.4293733657
H 2.6443539655 -1.2575178100 1.1081888814
H 1.6150539324 1.4223295027 0.2821306495
H 2.7761688776 1.4444336591 1.5956096942
H 0.5773595200 1.3442268208 2.5347315092
H 1.4308111951 -0.1581770711 2.8789188676
H -0.8268879191 -0.7085559587 2.3341476933
H 0.1767648558 -1.2591414208 0.9990700233
H -1.4529133044 1.3213800828 1.0543874472
H -0.4691982229 0.7802352871 -0.3033973291
H -1.8545967335 -1.2802541641 -0.4902434295
H -2.8576889168 -0.7215503050 0.8470487503
H -3.4912403788 1.2934954561 -0.4717679214
H -2.4860709371 0.7344099197 -1.8080396867
H -3.8990153234 -1.3121583179 -2.0165528160
H -4.9060343810 -0.7534208534 -0.6811410826
H -4.8676492822 0.1519935577 -2.1952999910
32
CONF522
C 4.2102927786 -0.7199336255 0.8799646905
C 2.7839133346 -0.4805708768 1.3624833426
C 2.0036998514 0.4989034172 0.4840304803
C 1.7315792181 -0.0365100052 -0.9222070787
C 0.7993788087 0.8698207992 -1.7401399350
C -0.6543187828 0.3939867349 -1.7876231881
C -1.3570887088 0.4038453570 -0.4323330787
C -2.8318908837 0.0266737893 -0.5620161605
C -3.5959669119 0.1066126890 0.7605726751
C -3.1594467690 -0.9472174685 1.7724650138
H 4.7451422795 0.2234727277 0.7950163182
H 4.2170681794 -1.2090024487 -0.0903592204
H 4.7441192082 -1.3549560294 1.5831367106
H 2.8192768050 -0.0816224396 2.3791225776
H 2.2501874733 -1.4331413065 1.4008272062
H 2.5632062923 1.4345577774 0.4073515508
H 1.0553402606 0.7237587011 0.9744262047
H 1.2963662830 -1.0356068110 -0.8513789715
H 2.6831783221 -0.1331927942 -1.4468230701
H 1.1620445420 0.9204441135 -2.7691242214
H 0.8325494751 1.8835244775 -1.3352753602
H -0.6859143920 -0.6176160805 -2.2000799938
H -1.2059760827 1.0430286895 -2.4732277814
H -0.8621429420 -0.3008866049 0.2353301843
H -1.2801486995 1.4017432789 0.0067359570
H -3.3048308575 0.7019523223 -1.2798225801
H -2.9116010735 -0.9867485634 -0.9627168364
H -3.4632044697 1.1012558779 1.1923564309
H -4.6610076740 -0.0240330744 0.5546538395
H -3.7849903379 -0.8980006590 2.6606306485
H -3.2485417103 -1.9433300947 1.3446249264
H -2.1277514918 -0.7933185387 2.0768692183
32
CONF694
C 3.7337427413 0.4208869410 1.2728047990
C 2.5406995838 -0.5221060096 1.1662690681
C 2.3263547244 -1.0664380149 -0.2470535961
C 2.0194604452 -0.0075702990 -1.3092831306
C 0.7789916492 0.8444109677 -1.0350442216
C -0.5120572364 0.0317862525 -0.9638802280
C -1.7382501251 0.9339668665 -0.8264699282
C -3.0530688094 0.1540259782 -0.6818635114
C -3.5488033533 0.0233030672 0.7600705787
C -2.6232217018 -0.7847600385 1.6617257871
H 3.5658714717 1.3290925605 0.7000347869
H 4.6336630057 -0.0619388406 0.8978661552
H 3.9013531711 0.7009074497 2.3102958413
H 1.6399159884 -0.0085517770 1.5058859303
H 2.7012787043 -1.3712145504 1.8353235929
H 1.5133062733 -1.7944205637 -0.2212062807
H 3.2291912143 -1.6006585611 -0.5544391458
H 1.8866003252 -0.5187427443 -2.2663608288
H 2.8807473061 0.6549335467 -1.4138186266
H 0.6870464670 1.5802012135 -1.8387128448
H 0.9089697621 1.3994803867 -0.1042114214
H -0.4669269448 -0.6535987970 -0.1186229017
H -0.6093928354 -0.5669401979 -1.8731664456
H -1.6095797072 1.5917680684 0.0358704845
H -1.7914862276 1.5725019059 -1.7115084789
H -3.8337194834 0.6605535399 -1.2537198074
H -2.9316272281 -0.8426418078 -1.1113916203
H -3.6814866630 1.0220144459 1.1830172447
H -4.5300722209 -0.4576444697 0.7418827676
H -2.4392841949 -1.7684982487 1.2353159585
H -1.6710751668 -0.2785300059 1.7952943070
H -3.0757995594 -0.9158541746 2.6422087811
32
CONF463
C 3.4474178446 -1.5096146249 1.2581344215
C 2.5507759256 -0.9684102746 0.1503898460
C 2.7741264493 0.5270982407 -0.0731866801
C 1.9002115006 1.1221431485 -1.1867951531
C 0.6625321017 1.8703127647 -0.6840894626
C -0.3703587833 1.0219382722 0.0591213073
C -1.0585245230 -0.0075271061 -0.8351822138
C -2.0984435111 -0.8494944013 -0.0937867421
C -3.3485248048 -0.0664441372 0.3035679120
C -4.3949871052 -0.9682703979 0.9481119182
H 3.2810212324 -2.5747917546 1.3996200392
H 3.2411554854 -1.0015236345 2.1977354689
H 4.4953868889 -1.3552192919 1.0100673126
H 1.5082674215 -1.1573292192 0.4084362845
H 2.7633244895 -1.5034309708 -0.7784862477
H 3.8270644906 0.6739028290 -0.3254487002
H 2.5895841836 1.0634827542 0.8600510623
H 1.6008380838 0.3321134977 -1.8767616823
H 2.4950117626 1.8369663187 -1.7599979511
H 0.1730898776 2.3398549655 -1.5415257994
H 0.9938240887 2.6718770997 -0.0187734570
H -1.1237622945 1.6980077052 0.4684424740
H 0.1048137946 0.5157153719 0.9006610053
H -1.5406597411 0.5063680561 -1.6704701120
H -0.3065918736 -0.6801502483 -1.2517289432
H -2.4007139815 -1.6782737592 -0.7391853079
H -1.6430532367 -1.2800908065 0.8015264659
H -3.0818791579 0.7259151165 1.0047085630
H -3.7739368574 0.4044949411 -0.5857202687
H -3.9951587097 -1.4324605096 1.8469551132
H -5.2780648402 -0.3954356049 1.2207150813
H -4.6949223617 -1.7564923670 0.2609774202
32
CONF407
C 4.7051209785 -0.0230939008 1.0088665376
C 3.4074893535 -0.7420949587 0.6591181770
C 2.5147709669 0.1024099643 -0.2474563008
C 1.2192117439 -0.6211928396 -0.6095378525
C 0.2992674709 0.2230855879 -1.4951276017
C -0.4282886011 1.3503076440 -0.7475085875
C -1.8796091963 1.0192865844 -0.3925794218
C -2.0167286467 -0.1144724004 0.6214792193
C -3.4531634855 -0.3126570626 1.1087416886
C -4.3909981606 -0.8229748805 0.0202484460
H 5.3240423765 -0.6418060115 1.6540237160
H 4.4955214291 0.9108174641 1.5256727745
H 5.2686639774 0.2047753500 0.1068681120
H 2.8655303049 -0.9798167568 1.5774585934
H 3.6386136011 -1.6855595277 0.1590661206
H 3.0591128326 0.3450991739 -1.1634805063
H 2.2850139918 1.0437056582 0.2560932258
H 0.6967033607 -0.9017832758 0.3059277079
H 1.4729966735 -1.5424096763 -1.1401765916
H -0.4428548752 -0.4271546477 -1.9624763429
H 0.9033181626 0.6493928820 -2.2991830762
H -0.4349810884 2.2471344868 -1.3706825184
H 0.1134719483 1.5963839437 0.1671265349
H -2.3472275994 1.9164084034 0.0221677122
H -2.4145856097 0.7611136517 -1.3082539515
H -1.6619682877 -1.0476454405 0.1805886764
H -1.3857591155 0.1108848853 1.4851530156
H -3.4445753022 -1.0322686715 1.9310015374
H -3.8345229528 0.6326806862 1.5019053762
H -4.0052731686 -1.7440126850 -0.4113833451
H -5.3756999209 -1.0247385796 0.4353594547
H -4.5023160920 -0.0895736657 -0.7738401590
32
CONF442
C 4.9587635036 0.3420909193 0.2866233484
C 3.4646192918 0.5225200127 0.0442093916
C 2.6522807292 -0.6079694752 0.6730563944
C 1.1405406820 -0.4134975648 0.5479746341
C 0.6407904006 -0.5072338061 -0.8932524785
C -0.8846927250 -0.5456532342 -1.0003070148
C -1.5456144736 0.7790094226 -0.6188153059
C -3.0719256983 0.7652274239 -0.7887247448
C -3.8458761386 0.5334394187 0.5108740588
C -3.6027344123 -0.8337120680 1.1384877591
H 5.3018521414 -0.5980089063 -0.1397077797
H 5.1742135570 0.3322816176 1.3528935742
H 5.5214794463 1.1524221470 -0.1704376305
H 3.2793950260 0.5550602033 -1.0304827624
H 3.1409371280 1.4759567350 0.4680306647
H 2.9091722954 -0.6726960206 1.7334855284
H 2.9343634064 -1.5557070584 0.2080256187
H 0.8735384504 0.5567368589 0.9705539352
H 0.6414199301 -1.1841751456 1.1410613133
H 1.0439299188 -1.4187559829 -1.3417305829
H 1.0148203738 0.3406037699 -1.4699688117
H -1.2674986984 -1.3502184792 -0.3713495524
H -1.1533099095 -0.7800178897 -2.0337210350
H -1.3035126977 1.0305683483 0.4143324413
H -1.1196571821 1.5609701224 -1.2519252513
H -3.3940217082 1.7260889970 -1.1962402582
H -3.3500789875 -0.0033502455 -1.5130513957
H -3.5785268007 1.3120470978 1.2293102035
H -4.9125252739 0.6378486216 0.2965759770
H -4.2509073053 -0.9709797366 2.0013096828
H -3.8138413478 -1.6244553865 0.4218697661
H -2.5728585672 -0.9300270076 1.4713500080
32
CONF456
C 4.5953434689 -0.3181837005 0.9402519409
C 3.4037054503 -0.2539000745 -0.0083269342
C 2.0863861678 -0.4900852270 0.7280471909
C 0.8692326146 -0.5519237807 -0.1960329350
C 0.5489024704 0.7854457862 -0.8647267394
C -0.7594364809 0.7604813524 -1.6697990979
C -1.9469035915 1.4095133169 -0.9533869596
C -2.3926841125 0.7192182379 0.3360142526
C -3.0052907869 -0.6608149593 0.1066355418
C -3.4759186710 -1.2893937082 1.4132132872
H 4.5019713427 0.4354498413 1.7191608987
H 5.5234968488 -0.1427387990 0.4016905362
H 4.6527364024 -1.2951384505 1.4153694405
H 3.5195873480 -1.0102182594 -0.7881616161
H 3.3861751311 0.7240184975 -0.4918818522
H 1.9394206941 0.3029956627 1.4654708887
H 2.1580795844 -1.4354645505 1.2721849545
H 0.0094174228 -0.8772904093 0.3911407339
H 1.0435403939 -1.3051943950 -0.9686839489
H 1.3718141005 1.0445488514 -1.5325446397
H 0.4914505916 1.5653523820 -0.1023964554
H -1.0051819526 -0.2686467156 -1.9348317677
H -0.6124129908 1.3039747183 -2.6058287717
H -1.6826853800 2.4440378331 -0.7195055600
H -2.7937491527 1.4372932736 -1.6442592741
H -1.5469792434 0.6348632999 1.0200485171
H -3.1401140608 1.3522050240 0.8218630214
H -3.8516944343 -0.5680074340 -0.5779535125
H -2.2722907302 -1.3196395155 -0.3617677625
H -3.9113989482 -2.2691654808 1.2323702689
H -2.6415706831 -1.4061460268 2.1017852236
H -4.2260246781 -0.6622008162 1.8900788734
32
CONF413
C 4.5972609661 0.5905945305 -1.1987027218
C 3.5252591263 -0.3180168754 -0.6085510929
C 2.3366227015 0.4771418693 -0.0730279104
C 1.2579330190 -0.4268015670 0.5193285380
C 0.0777980462 0.3755304430 1.0642112669
C -1.0271345923 -0.5130991245 1.6413951837
C -1.8626828266 -1.2492112219 0.5835364417
C -3.2269796971 -0.6080796677 0.3157633383
C -3.1781791390 0.7875849793 -0.3076377604
C -2.6342542260 0.7887252990 -1.7319288322
H 4.9703550471 1.2788219674 -0.4435133937
H 4.1906061504 1.1740935180 -2.0217233391
H 5.4328623820 0.0040494750 -1.5726226951
H 3.9566493162 -0.9094685828 0.2022975189
H 3.1769172394 -1.0138996907 -1.3753253596
H 1.9060689786 1.0700772723 -0.8838432348
H 2.6853866751 1.1731259311 0.6938524946
H 1.6902192860 -1.0235166102 1.3264229999
H 0.9123821560 -1.1204585273 -0.2501367644
H -0.3260288574 1.0037296687 0.2694357653
H 0.4436784050 1.0384127116 1.8525620177
H -1.6922232252 0.0987094777 2.2544499138
H -0.5587397909 -1.2420577018 2.3065667299
H -1.3043779181 -1.3168575581 -0.3496950357
H -2.0445020566 -2.2719880166 0.9208025591
H -3.7938975113 -1.2654526061 -0.3487828632
H -3.7733993772 -0.5491066145 1.2606805801
H -4.1942168410 1.1901808451 -0.3219097407
H -2.5758053623 1.4480789205 0.3176413276
H -3.2240862400 0.1277579959 -2.3634731691
H -2.6761565746 1.7915810584 -2.1509046009
H -1.6005832530 0.4538119985 -1.7584257842
32
CONF439
C 3.7372616901 -1.2796065010 1.1517247337
C 2.7547832775 -1.1999637201 -0.0116349558
C 2.7974014495 0.1559995537 -0.7207979116
C 2.1272572202 1.2922852898 0.0663937669
C 0.7377793132 1.6660255293 -0.4541803543
C -0.3036650172 0.5634762126 -0.2763275383
C -1.6839538588 1.0196658654 -0.7464741455
C -2.7470214531 -0.0772327562 -0.6738684434
C -3.1172114388 -0.4731540881 0.7544264740
C -4.2646240869 -1.4764628854 0.7790427866
H 4.7556282707 -1.1321171038 0.7983411072
H 3.6782630319 -2.2530796271 1.6329352696
H 3.5225630696 -0.5173746546 1.8967137506
H 1.7450294723 -1.3935797842 0.3529023150
H 3.0027839820 -1.9826231122 -0.7326916437
H 2.3125386618 0.0659107772 -1.6948605637
H 3.8440476734 0.4069317094 -0.9062365644
H 2.7537797675 2.1850831343 0.0145268454
H 2.0463677720 1.0150297975 1.1185905343
H 0.8097492415 1.9264920373 -1.5132130837
H 0.3959036301 2.5573488514 0.0786461921
H -0.3468982851 0.2841889035 0.7779081536
H -0.0085454987 -0.3176566439 -0.8486885449
H -2.0068755200 1.8735668885 -0.1457918267
H -1.6033476886 1.3590717524 -1.7823692186
H -3.6484298119 0.2779019312 -1.1799017070
H -2.3931991496 -0.9594351198 -1.2127759846
H -2.2508247603 -0.9106527672 1.2528134714
H -3.4063193107 0.4212969504 1.3111183321
H -4.5119979833 -1.7506025133 1.8018809694
H -5.1515134101 -1.0529787537 0.3124762010
H -3.9916282725 -2.3792296058 0.2370734582
32
CONF418
C 4.0507022776 -0.1278208874 1.6945954484
C 2.6599354990 -0.1301202503 1.0705575911
C 2.7207611942 -0.3724872562 -0.4365461074
C 1.3432354370 -0.4712619228 -1.0941877388
C 0.6080903161 0.8678586641 -1.1521100601
C -0.7570219903 0.7807513431 -1.8499661184
C -1.9455945205 0.6719827347 -0.8922255827
C -1.9619726271 -0.6159119064 -0.0716443474
C -3.2699078835 -0.8202446959 0.6950457674
C -3.4889732046 0.2133260938 1.7943921272
H 4.6641268644 0.6540063226 1.2521664516
H 4.5441820910 -1.0832387710 1.5299518759
H 3.9899020203 0.0477156554 2.7659323177
H 2.1779743782 0.8277904605 1.2723039130
H 2.0556947803 -0.9127381320 1.5354958716
H 3.2606174613 -1.3058902580 -0.6150178498
H 3.2899954722 0.4320044698 -0.9086416411
H 0.7428781771 -1.2052070876 -0.5554023262
H 1.4717318966 -0.8376297152 -2.1160175526
H 1.2430393005 1.5755794038 -1.6904893744
H 0.4683002458 1.2594766337 -0.1439396638
H -0.7632134727 -0.0729832387 -2.5311973651
H -0.9043368500 1.6784628002 -2.4545942884
H -1.9352460879 1.5338836662 -0.2225812670
H -2.8655828362 0.7216308106 -1.4810371678
H -1.8195100249 -1.4634709031 -0.7468481654
H -1.1346183338 -0.6089329112 0.6400124061
H -4.1075287292 -0.7870364199 -0.0056403279
H -3.2562861792 -1.8157449194 1.1454118047
H -3.6064407146 1.2088567858 1.3749644644
H -4.3864409895 -0.0236642868 2.3610627832
H -2.6436801560 0.2239400415 2.4790453017
32
CONF445
C 2.4938779089 -1.3697393609 1.4018773001
C 2.6361910020 0.1294771271 1.1651338604
C 3.1771233564 0.4710394860 -0.2237689708
C 2.2495267164 0.1295521905 -1.3929671645
C 0.9301991601 0.9159671611 -1.3990571953
C -0.2572239797 0.1153445934 -0.8646822857
C -1.5375788107 0.9482893176 -0.8485650640
C -2.7763278998 0.1485193094 -0.4431229924
C -2.7541056023 -0.3149139026 1.0124065440
C -4.0543675015 -1.0103680914 1.3989949757
H 2.1633373186 -1.5610928381 2.4203212825
H 3.4484649962 -1.8692760954 1.2511617607
H 1.7679311060 -1.8072737877 0.7215679968
H 3.3270855425 0.5361673980 1.9081059782
H 1.6736093900 0.6199655275 1.3156040856
H 4.1223581398 -0.0589672901 -0.3679416944
H 3.3945581196 1.5417450262 -0.2583008933
H 2.0363088458 -0.9400797512 -1.3947898190
H 2.7975463166 0.3471775541 -2.3124249116
H 0.6978110019 1.2241550823 -2.4212243175
H 1.0468838627 1.8270762031 -0.8082646137
H -0.0395262207 -0.2351720061 0.1433898441
H -0.4096318392 -0.7623823598 -1.4980939641
H -1.4120623187 1.7901555549 -0.1631447329
H -1.7000371203 1.3602359619 -1.8479905954
H -3.6599043953 0.7736245100 -0.5954783672
H -2.8727455147 -0.7218147677 -1.0967236431
H -1.9228971557 -1.0042812756 1.1680464011
H -2.5977952408 0.5493984404 1.6620420838
H -4.0216856430 -1.3340036732 2.4364549249
H -4.8992648759 -0.3364808027 1.2752251916
H -4.2191940573 -1.8833242812 0.7713608416
32
CONF554
C 3.3026113669 0.1397511251 1.9768349507
C 3.7684187556 -0.0929271540 0.5437173083
C 2.7708773629 0.4076488983 -0.5020641945
C 1.4809975589 -0.4094151006 -0.5472927003
C 0.5471608351 0.0739001121 -1.6565344394
C -0.7704346766 -0.7111931896 -1.7308234456
C -1.9578228702 -0.0233754736 -1.0530930339
C -1.8038113294 0.1334629303 0.4578972917
C -3.0461519190 0.7245982534 1.1283148129
C -4.2287472345 -0.2372837052 1.1643863709
H 3.0910742432 1.1942812006 2.1399446090
H 4.0744878572 -0.1678612655 2.6783633354
H 2.4027524977 -0.4298943966 2.1925544790
H 3.9470187944 -1.1593151511 0.3882884058
H 4.7184045020 0.4258423525 0.3948277903
H 3.2448067489 0.3674444016 -1.4863019334
H 2.5297598160 1.4533773897 -0.2962404955
H 0.9720867386 -0.3450914551 0.4135743433
H 1.7295337436 -1.4592140940 -0.7226308091
H 1.0760991472 -0.0196232266 -2.6080857996
H 0.3312739047 1.1346565532 -1.5124126629
H -0.6280609434 -1.6991743785 -1.2878024786
H -1.0346790483 -0.8620313993 -2.7798803082
H -2.1040618466 0.9626104339 -1.5014626781
H -2.8509029191 -0.6153851893 -1.2622343333
H -1.5871764151 -0.8408642005 0.9024902938
H -0.9586887535 0.7928503410 0.6623071345
H -2.7895189962 0.9995643475 2.1541839142
H -3.3364972501 1.6384073324 0.6048570417
H -5.0584163003 0.2065015893 1.7096559098
H -4.5728047945 -0.4747082419 0.1612507966
H -3.9484187662 -1.1639437240 1.6604585528
32
CONF411
C 4.2429339259 1.3084256849 0.6258726973
C 3.3312255241 0.0872638340 0.5845295252
C 2.7235427254 -0.1150343480 -0.8031683961
C 1.7774736536 -1.3212461273 -0.8887109360
C 0.2934148142 -0.9650314422 -0.7765346546
C -0.1042282106 -0.3908474734 0.5816878857
C -1.6190930900 -0.2754850343 0.7602810243
C -2.2588625485 0.7385170772 -0.1871509595
C -3.7238680693 1.0274065388 0.1437636107
C -4.6356528743 -0.1747134298 -0.0760811722
H 4.6780877585 1.4279467893 1.6150636712
H 3.6834803423 2.2097370455 0.3852379821
H 5.0508869024 1.2057802381 -0.0952482376
H 2.5391564770 0.2040379636 1.3247794111
H 3.9068365774 -0.8016250560 0.8538373677
H 3.5436839286 -0.2491648199 -1.5125355886
H 2.1872482748 0.7890916561 -1.0987689694
H 2.0361785581 -2.0403450079 -0.1083868910
H 1.9233705353 -1.8194944409 -1.8497351438
H -0.2904228864 -1.8718823662 -0.9554160066
H 0.0439811278 -0.2510853054 -1.5636418798
H 0.3431704393 0.5964231789 0.7093351468
H 0.2882293238 -1.0427393873 1.3663257704
H -2.0691399057 -1.2580282100 0.6078174878
H -1.8255779929 0.0294154762 1.7895275881
H -1.6976513373 1.6746683492 -0.1289519701
H -2.1944395351 0.3748067813 -1.2141116474
H -3.8013463144 1.3554973063 1.1829909633
H -4.0669523737 1.8500705575 -0.4882801816
H -4.5343347671 -0.5462546217 -1.0934625632
H -4.3907989920 -0.9797765739 0.6114022660
H -5.6740409727 0.1051437159 0.0854053995
32
CONF547
C 4.1988463085 -0.7375944917 0.8795978067
C 2.7710620755 -0.4977694363 1.3576196371
C 2.0015358058 0.4992471576 0.4895698315
C 1.7316920655 -0.0156880468 -0.9248194488
C 0.7973734704 0.8997119686 -1.7302200551
C -0.6535983443 0.4166537265 -1.7882507660
C -1.3593274712 0.4052301323 -0.4345515486
C -2.8258842084 -0.0012635360 -0.5687669222
C -3.5997850383 0.0811264647 0.7478999158
C -3.1327785030 -0.9333775751 1.7860594106
H 4.7403141747 0.2037012531 0.8156965248
H 4.2083960366 -1.2083963428 -0.0997194741
H 4.7240526642 -1.3892348204 1.5740130228
H 2.8025433557 -0.1151941715 2.3806815704
H 2.2319254888 -1.4478925294 1.3777274006
H 2.5676544976 1.4319438292 0.4279709104
H 1.0527595207 0.7241461082 0.9790653317
H 1.2986964886 -1.0166827696 -0.8688567092
H 2.6838668652 -0.1027294511 -1.4500380176
H 1.1621154009 0.9689279767 -2.7573734560
H 0.8243483562 1.9068096146 -1.3088035007
H -0.6780043930 -0.5898912666 -2.2133917224
H -1.2074587264 1.0708641089 -2.4671234996
H -0.8519723608 -0.2932772248 0.2302265449
H -1.3027737225 1.4021491949 0.0098268254
H -3.3074776423 0.6555035718 -1.2979367767
H -2.8834780336 -1.0211028958 -0.9568479172
H -3.5045096593 1.0892652940 1.1577854542
H -4.6583246696 -0.0912403739 0.5391249634
H -2.1108350750 -0.7327777521 2.0960419067
H -3.7681909332 -0.8893862356 2.6674743183
H -3.1791734026 -1.9411538997 1.3793488006
32
CONF719
C 4.3376585425 0.5177992484 -0.1904327307
C 3.2188692915 -0.2921530864 -0.8356610584
C 2.4341437046 -1.1410945613 0.1659126973
C 1.6990465177 -0.3485946987 1.2496293417
C 0.6706778462 0.6584623001 0.7317727033
C -0.4699310126 0.0124801218 -0.0521776193
C -1.5483279748 1.0316026166 -0.4195042452
C -2.7367332746 0.4167904322 -1.1728624856
C -3.9513492968 0.1181897899 -0.2911359739
C -3.6971504760 -0.9418276242 0.7739004321
H 3.9363382157 1.2703297772 0.4831310535
H 4.9241497887 1.0245715234 -0.9533161509
H 5.0000797574 -0.1337588733 0.3754874317
H 3.6539272849 -0.9632701303 -1.5805291466
H 2.5401289999 0.3801546874 -1.3626853112
H 3.1283293722 -1.8254123152 0.6607325568
H 1.7139239275 -1.7514442887 -0.3822159584
H 2.4297659127 0.1830727014 1.8619589929
H 1.1890023467 -1.0625047876 1.9017226300
H 1.1629356918 1.4064356879 0.1076874909
H 0.2493184432 1.1844387975 1.5929135104
H -0.9028782994 -0.7905489387 0.5454445239
H -0.0803783141 -0.4298534635 -0.9709769775
H -1.9086355919 1.5235754053 0.4865822013
H -1.0865283492 1.8026671819 -1.0409047371
H -3.0598631084 1.1077644097 -1.9546970482
H -2.4163667576 -0.5035775905 -1.6656749800
H -4.2769806897 1.0426515441 0.1917912211
H -4.7667980122 -0.2193170116 -0.9358724793
H -4.6207583313 -1.1738104734 1.2997843489
H -3.3231109752 -1.8564824477 0.3189836917
H -2.9720308733 -0.5929039965 1.5039882002
32
CONF593
C 3.8773297775 1.4184578549 0.1883913550
C 3.7540162930 -0.0166223938 -0.3143893866
C 2.4918515461 -0.2560836291 -1.1568909071
C 1.3554299295 -0.9539085024 -0.4058174661
C 0.7856506433 -0.1319444276 0.7474309378
C -0.3623285879 -0.8325258075 1.4782646914
C -1.6337341050 -1.0386342638 0.6523910394
C -2.2939339163 0.2671110020 0.2145816147
C -3.6465610589 0.0255274513 -0.4522214491
C -4.2983034709 1.3278962155 -0.9021924217
H 3.9427689632 2.1075688237 -0.6509511877
H 4.7748380855 1.5315253012 0.7927200334
H 3.0191675048 1.6983750792 0.7928663006
H 3.7593794744 -0.7024589115 0.5349921993
H 4.6371910908 -0.2425600133 -0.9158618654
H 2.7489830357 -0.8789582533 -2.0165609612
H 2.1306389778 0.6983705597 -1.5452777217
H 1.7154197843 -1.9110727988 -0.0198077156
H 0.5602343911 -1.1664618331 -1.1229593082
H 0.4485056359 0.8355975560 0.3720805226
H 1.5767352852 0.0530375639 1.4762357811
H -0.6177631837 -0.2440615201 2.3632522815
H -0.0111640345 -1.8084986356 1.8230824644
H -1.4129529093 -1.6458635351 -0.2271267080
H -2.3450034051 -1.6016191721 1.2625958456
H -2.4330327833 0.9106784424 1.0867598322
H -1.6450109913 0.7930393711 -0.4877562860
H -3.5100231348 -0.6297055982 -1.3157562857
H -4.3084130697 -0.4874767191 0.2495620267
H -3.6637373739 1.8432707045 -1.6197621266
H -5.2596657555 1.1331558652 -1.3711718077
H -4.4576543640 1.9869781236 -0.0516118269
32
CONF568
C 3.0671760615 0.5966254532 1.6583569796
C 3.9228029420 0.0924767292 0.5024024519
C 3.2231242827 0.1485531635 -0.8573984287
C 1.9999965128 -0.7727311614 -0.9737613377
C 0.6710430624 -0.0431982821 -0.7782848738
C -0.5132774527 -1.0053416206 -0.8509803615
C -1.8732611244 -0.3086049892 -0.7822589339
C -2.1600346627 0.3203282599 0.5802216001
C -3.5423334552 0.9711788760 0.6618898092
C -4.6850351362 -0.0380638220 0.6769433690
H 2.7151138852 1.6064697103 1.4590402882
H 3.6498335064 0.6123055451 2.5768459916
H 2.2070345858 -0.0484205605 1.8153902263
H 4.2291419960 -0.9369040984 0.7032896128
H 4.8301683737 0.6990789706 0.4455111105
H 3.9558829989 -0.1331254168 -1.6167471651
H 2.9220626784 1.1778078548 -1.0635599114
H 2.0812242934 -1.5790047897 -0.2417133465
H 1.9897011139 -1.2372442336 -1.9626289306
H 0.5633542575 0.7162885220 -1.5567720910
H 0.6721068983 0.4662621012 0.1844268129
H -0.4399134473 -1.7308653018 -0.0370926471
H -0.4536406774 -1.5602503592 -1.7910044203
H -1.9209935705 0.4647846545 -1.5527427724
H -2.6458995300 -1.0465245419 -1.0051898420
H -2.0776883937 -0.4453631406 1.3552387208
H -1.4083836612 1.0842710756 0.7862329167
H -3.5921007345 1.5678785406 1.5757041669
H -3.6690524721 1.6513810579 -0.1832445225
H -4.7215190586 -0.6031097429 -0.2504809293
H -4.5626660143 -0.7368071437 1.5014583257
H -5.6370169261 0.4731959436 0.7989336102
32
CONF430
C 3.9806324245 -1.1978156273 1.0583658136
C 3.2586191173 -1.1513749537 -0.2838141764
C 2.5259402288 0.1683409441 -0.5299042230
C 1.3522283280 0.3934107291 0.4224720376
C 0.5307884142 1.6310583154 0.0502936482
C -0.3872159310 1.4306033335 -1.1644826666
C -1.8505774320 1.1741684903 -0.7972145500
C -2.0781169241 -0.1391783909 -0.0529756846
C -3.5610938980 -0.3988143632 0.2047733413
C -3.7852115822 -1.7068154537 0.9546822807
H 3.2738836570 -1.1547043677 1.8826243437
H 4.6680443576 -0.3595485127 1.1483192033
H 4.5501790595 -2.1199024203 1.1480693790
H 2.5431696006 -1.9752137730 -0.3385113727
H 3.9904549532 -1.2967102011 -1.0821268127
H 2.1585702308 0.1728813967 -1.5584945523
H 3.2327107348 0.9959823738 -0.4315129249
H 1.7354834411 0.5228052262 1.4362103409
H 0.7122865703 -0.4900305605 0.4174900849
H 1.2256100205 2.4501222302 -0.1481627773
H -0.0776554691 1.9282633697 0.9067378747
H -0.0241514387 0.5971555719 -1.7681153693
H -0.3533972420 2.3237134678 -1.7920037917
H -2.2176690302 2.0022697026 -0.1856881918
H -2.4410024608 1.1612318051 -1.7173320763
H -1.6678640078 -0.9630351223 -0.6422475219
H -1.5532503890 -0.1155302544 0.9034714395
H -3.9755802125 0.4285710880 0.7855301490
H -4.0932309197 -0.4314221866 -0.7488870568
H -4.8456132556 -1.8716321812 1.1292655336
H -3.3966653948 -2.5454986672 0.3811913468
H -3.2773903568 -1.6858377320 1.9163654287
32
CONF528
C 3.9848356431 0.4996408661 -1.2766080765
C 3.4710623578 -0.8059019387 -0.6776870500
C 3.0103934615 -0.6687464207 0.7806957652
C 1.5003424414 -0.4870019493 0.9508225866
C 0.9648581032 0.8211726542 0.3722082282
C -0.4828578647 1.1064641568 0.7755554829
C -1.4847068274 0.1158519310 0.1851244078
C -2.9227098155 0.5092433083 0.5188177503
C -3.9586752549 -0.5084347541 0.0389830476
C -4.0757930856 -0.5764851045 -1.4797192500
H 4.2937318395 0.3448951243 -2.3081319652
H 4.8436566537 0.8600290024 -0.7143689206
H 3.2191680811 1.2695716675 -1.2600832142
H 4.2764720567 -1.5419684286 -0.7302586103
H 2.6462628655 -1.1859627563 -1.2836380116
H 3.5299340580 0.1712442456 1.2464495189
H 3.2951024707 -1.5702009409 1.3281739147
H 1.2712255955 -0.5138053988 2.0195316094
H 0.9910650928 -1.3316100512 0.4829349190
H 1.0283672731 0.7955929755 -0.7169179773
H 1.5908574691 1.6433242464 0.7278963651
H -0.7467210617 2.1119164931 0.4374088359
H -0.5628837416 1.0952878599 1.8654233922
H -1.3523056092 0.0827153570 -0.8976393697
H -1.2912434905 -0.8833750705 0.5792843727
H -3.0120035338 0.6136827947 1.6032054691
H -3.1438652105 1.4832009954 0.0754927114
H -3.6994165841 -1.4958503297 0.4277258250
H -4.9316808073 -0.2354560798 0.4543864790
H -4.8706934424 -1.2611990519 -1.7658237789
H -4.3057542694 0.4058498042 -1.8865155559
H -3.1497044666 -0.9270329889 -1.9272037615
32
CONF530
C 4.8601070538 0.6881200807 0.7500734143
C 3.3607677405 0.6764991550 0.4748384932
C 2.9677188199 -0.4737269851 -0.4502728104
C 1.4909892742 -0.4574916139 -0.8473551327
C 0.5496978901 -0.7205590349 0.3275348910
C -0.8978496272 -0.9640320124 -0.1024401362
C -1.5504504694 0.2623885728 -0.7411297176
C -3.0507641689 0.0721894189 -1.0111746724
C -3.9611921276 0.7305466067 0.0278107392
C -3.8399330402 0.1297696953 1.4230833118
H 5.4174781298 0.8046469386 -0.1768685336
H 5.1675057495 -0.2443473824 1.2184361788
H 5.1213670393 1.5087209148 1.4138537656
H 3.0691638375 1.6232192390 0.0141793121
H 2.8252918977 0.5866806346 1.4211824668
H 3.2008690917 -1.4234849397 0.0373090348
H 3.5732765219 -0.4127800476 -1.3582063298
H 1.3265661877 -1.2275320636 -1.6053629699
H 1.2572750113 0.5085058249 -1.2983963568
H 0.5763995690 0.1247972088 1.0175750983
H 0.9039821714 -1.6021935581 0.8677658655
H -1.4729930727 -1.2633811044 0.7749388653
H -0.9270411828 -1.7939051583 -0.8131405626
H -1.4048196891 1.1285290711 -0.0921981710
H -1.0427439386 0.4738559500 -1.6833104675
H -3.2968783119 0.5021141587 -1.9845719361
H -3.2774153203 -0.9948314483 -1.0620652413
H -3.7341819021 1.7983268813 0.0745387165
H -4.9957818740 0.6301177554 -0.3099534506
H -4.5630852472 0.5894741143 2.0932114559
H -4.0321120834 -0.9406223989 1.3945603495
H -2.8471142982 0.2949621737 1.8325113853
32
CONF523
C 2.9645355540 1.5664992863 -1.1216572462
C 3.4342069265 0.1492138387 -0.8085771150
C 3.2198103867 -0.2501911910 0.6589417155
C 1.9735231753 -1.1041425126 0.9021432790
C 0.6594438565 -0.3872679747 0.6018510025
C -0.5469806582 -1.2452651081 0.9792733083
C -1.8839728109 -0.5295971478 0.7809354052
C -2.2053069541 -0.2511305489 -0.6870571608
C -3.6404066929 0.2301870516 -0.9061354953
C -3.9106207183 1.6032132074 -0.3005519600
H 3.1224615519 1.7929103525 -2.1739862052
H 3.5238532793 2.2882803082 -0.5301341892
H 1.9085292125 1.6893780579 -0.8989860921
H 4.4980813090 0.0842639865 -1.0469234508
H 2.9149309014 -0.5593019201 -1.4568217731
H 3.1630929186 0.6501841817 1.2740161180
H 4.0834123561 -0.8239094886 1.0025851414
H 1.9708797723 -1.4162824203 1.9500543585
H 2.0352333011 -2.0092567214 0.2926602673
H 0.6126147865 -0.1496852756 -0.4605896228
H 0.6229856964 0.5493203627 1.1635334078
H -0.4580348835 -1.5331685983 2.0300998395
H -0.5366124891 -2.1629126369 0.3858416229
H -2.6776364552 -1.1541154535 1.1990323827
H -1.8687020486 0.4074684225 1.3400571972
H -1.5185821876 0.5004597680 -1.0803700231
H -2.0554275593 -1.1709573400 -1.2581173481
H -3.8317114750 0.2752752253 -1.9810015154
H -4.3338619051 -0.4974723349 -0.4780112934
H -4.9156196140 1.9346651156 -0.5511191554
H -3.8230563369 1.5750149730 0.7822016253
H -3.2022744482 2.3334494136 -0.6857651370
32
CONF416
C 3.0569377133 0.9352095361 -1.7303833533
C 3.5875620522 0.5883811174 -0.3435208866
C 2.4801271177 0.2528344918 0.6572030850
C 1.8007229264 -1.0865255045 0.3720197847
C 0.6964494610 -1.4329106351 1.3813027532
C -0.7192997313 -1.1206386730 0.8910684985
C -0.9830411727 0.3681105951 0.6754124069
C -2.4559406847 0.6845230627 0.4107730824
C -2.9671420203 0.1335443903 -0.9191235239
C -4.4018032029 0.5700964313 -1.1928632983
H 2.3531408611 1.7626824926 -1.6706793618
H 2.5520032544 0.0846263512 -2.1803981885
H 3.8747860614 1.2276813438 -2.3847490838
H 4.1543493330 1.4412324425 0.0373810020
H 4.2748013277 -0.2575739095 -0.4182111119
H 1.7417478461 1.0553691562 0.6524732270
H 2.9157856799 0.2120631699 1.6589382503
H 2.5683001404 -1.8638623794 0.3957645623
H 1.3754334496 -1.0814398184 -0.6321043237
H 0.8796234649 -0.9013337836 2.3176688052
H 0.7391809064 -2.5018103998 1.6020631352
H -1.4298049052 -1.4967919744 1.6320191788
H -0.8949984762 -1.6632714984 -0.0396732560
H -0.6669856611 0.9119185446 1.5692086101
H -0.3891225525 0.7285706292 -0.1661297488
H -3.0642944775 0.2826527581 1.2247742428
H -2.5842397947 1.7700745627 0.4096349612
H -2.3208171468 0.4862272455 -1.7262590387
H -2.9226771750 -0.9565672128 -0.9075935715
H -4.4691496697 1.6550278104 -1.2359673562
H -4.7510634701 0.1660357155 -2.1399629422
H -5.0630054458 0.2180634947 -0.4040749213
32
CONF419
C 3.9236509733 0.2692938030 1.7581206985
C 2.5656271181 0.0861723307 1.0905929333
C 2.7066465686 -0.4192062344 -0.3443241087
C 1.3645773253 -0.6942393906 -1.0249403504
C 0.5990581394 0.5810270359 -1.3784826029
C -0.7684007371 0.3063750019 -2.0211325037
C -1.9455413145 0.4197112803 -1.0497659354
C -1.9291375322 -0.6273690721 0.0616909465
C -3.2027670749 -0.6217821950 0.9090805806
C -3.3548692503 0.6387428662 1.7534029944
H 3.8042304215 0.6295116432 2.7770873058
H 4.5239503647 0.9895916692 1.2067341058
H 4.4642334957 -0.6742468080 1.7879307698
H 2.0349224579 1.0396077812 1.0972957906
H 1.9733102505 -0.6295742086 1.6657076785
H 3.2878180341 -1.3446285109 -0.3289268711
H 3.2674369766 0.3118429116 -0.9317238546
H 0.7586333544 -1.3257182279 -0.3741062467
H 1.5472246423 -1.2524612535 -1.9467828291
H 1.2145135646 1.1620883811 -2.0693053116
H 0.4557198524 1.1883370566 -0.4841501091
H -0.7656780063 -0.6887632531 -2.4711972531
H -0.9353604782 1.0254833250 -2.8261153428
H -1.9419135635 1.4196618583 -0.6121905113
H -2.8732257535 0.3108624623 -1.6181207214
H -1.8162174656 -1.6158502027 -0.3908925888
H -1.0724149259 -0.4559948949 0.7155150205
H -4.0718910919 -0.7282121981 0.2557287738
H -3.1815553245 -1.4890972300 1.5734046492
H -2.4797031383 0.7805715468 2.3838176478
H -3.4735883605 1.5170934781 1.1247384208
H -4.2299977170 0.5600950001 2.3942066069
32
CONF733
C 3.1694841177 1.2723561162 -1.1527140069
C 3.2352264803 -0.2407795105 -0.9701656995
C 3.0391805790 -0.6864618749 0.4862682815
C 1.6191589115 -1.1494106401 0.8193312654
C 0.5630415995 -0.0523510947 0.7089449084
C -0.8015983227 -0.5375189649 1.1943191067
C -1.8672794454 0.5598190960 1.2073515246
C -2.2003583662 1.1591385274 -0.1613976798
C -2.7013864268 0.1561366783 -1.2019457514
C -3.9988298945 -0.5337490826 -0.7959552522
H 3.9571589410 1.7556084642 -0.5785496806
H 2.2144044573 1.6688267416 -0.8207196092
H 3.3034487681 1.5320173637 -2.2006541108
H 4.2119570140 -0.5816964113 -1.3205755092
H 2.4821311889 -0.7182133621 -1.6000492122
H 3.3160061570 0.1314894672 1.1545704847
H 3.7132115996 -1.5198348242 0.6970473047
H 1.6169230453 -1.5361977282 1.8421478300
H 1.3480002355 -1.9763378693 0.1579445609
H 0.4832690936 0.2672488128 -0.3298954993
H 0.8715075269 0.8077883571 1.3083886866
H -0.6961275184 -0.9199033967 2.2132941532
H -1.1326237440 -1.3698525862 0.5708139056
H -2.7786901467 0.1545146785 1.6507670768
H -1.5247604360 1.3701648064 1.8562507957
H -2.9689075804 1.9229395424 -0.0165513824
H -1.3165778901 1.6621242375 -0.5587045999
H -2.8661356007 0.6945389744 -2.1386681494
H -1.9335369900 -0.5955241658 -1.3913922250
H -4.7616266717 0.2036198698 -0.5551539882
H -4.3663070623 -1.1543658399 -1.6099820953
H -3.8476860106 -1.1694978199 0.0723751376
32
CONF549
C 4.2499940664 0.1468175668 1.1573016814
C 3.0438615520 -0.7832310758 1.0864158389
C 1.8097649121 -0.1308938885 0.4591516266
C 1.9616414420 0.1167157668 -1.0397915820
C 0.7606136341 0.8203170942 -1.6761014400
C -0.5387921455 0.0020062140 -1.6477650997
C -1.4979809999 0.4274810477 -0.5363410630
C -2.7449601806 -0.4541682111 -0.5022042838
C -3.7862950945 0.0059608837 0.5189700194
C -3.3211501268 -0.1483034303 1.9628498153
H 3.9971621888 1.0547098494 1.7006092332
H 4.5909381862 0.4241057806 0.1633486651
H 5.0730525743 -0.3433318078 1.6721114304
H 2.7899598768 -1.1029999988 2.0999060160
H 3.3071369223 -1.6764696587 0.5152332069
H 1.6099477430 0.8173140691 0.9640464775
H 0.9547458964 -0.7879948526 0.6261095590
H 2.1248039710 -0.8387223616 -1.5449043110
H 2.8439599158 0.7357419573 -1.2130836787
H 1.0208626021 1.0404837785 -2.7137242581
H 0.5977267602 1.7761474953 -1.1737257501
H -0.2991955251 -1.0572249409 -1.5329523441
H -1.0569857225 0.1115020724 -2.6033699612
H -0.9875563872 0.3786142356 0.4249213428
H -1.7977252400 1.4654279723 -0.7019307173
H -3.2031390087 -0.4509895742 -1.4947069420
H -2.4532627871 -1.4832544951 -0.2785109326
H -4.0385293376 1.0516338397 0.3286580487
H -4.6952234207 -0.5836335419 0.3773470912
H -4.1246206670 0.1135247069 2.6472967739
H -3.0253023133 -1.1767158722 2.1581426760
H -2.4743841479 0.4999323869 2.1712673732
32
CONF409
C 3.6201779445 1.8124095498 -0.8306273519
C 3.4153676380 0.3710284567 -0.3790890970
C 1.9371335064 0.0414188846 -0.1802987685
C 1.7341681583 -1.3987481084 0.2840192434
C 0.2653614054 -1.8145400949 0.3907837813
C -0.5192310405 -1.0568920142 1.4721601359
C -1.3854030561 0.0819939548 0.9280524943
C -2.6457133705 -0.4256693686 0.2292370423
C -3.5405852346 0.7005648966 -0.2907426603
C -2.9283874705 1.4613111911 -1.4620002532
H 3.1066114934 1.9929915858 -1.7724347569
H 4.6777011724 2.0234105015 -0.9699584104
H 3.2265305918 2.5035072576 -0.0884885556
H 3.9503708282 0.2045092506 0.5587950726
H 3.8387432299 -0.3062285975 -1.1245514422
H 1.4064568995 0.1948368743 -1.1232430087
H 1.5190113557 0.7284796334 0.5573205703
H 2.2174384122 -1.5346717620 1.2548230076
H 2.2313866208 -2.0669704714 -0.4243143479
H 0.2384092883 -2.8838108490 0.6109411660
H -0.2127843567 -1.6721656552 -0.5794383201
H 0.1852448272 -0.6534520567 2.2023291019
H -1.1699268859 -1.7532562565 2.0061266915
H -1.6859982182 0.7259031459 1.7586116403
H -0.7983043589 0.6838150431 0.2355390446
H -2.3715372975 -1.0743790414 -0.6051337737
H -3.2180573253 -1.0291061570 0.9386077408
H -4.4915183859 0.2687912710 -0.6119165268
H -3.7529713850 1.3970370914 0.5236850083
H -2.6801870497 0.7769704961 -2.2704767179
H -3.6318631289 2.1988657749 -1.8410762049
H -2.0233350928 1.9815110530 -1.1602546041
32
CONF551
C 3.6711409249 -1.3461525565 -1.0725472799
C 3.4419644657 0.1610517572 -1.0966423348
C 2.7646325798 0.6884783705 0.1690867813
C 1.3312510991 0.1883927233 0.3423172775
C 0.6484784427 0.8513827684 1.5362833351
C -0.7363116701 0.2859711264 1.8596685694
C -1.7867968120 0.5235796888 0.7648678198
C -1.9928493853 -0.6894195497 -0.1428418564
C -2.9265386455 -0.4089477278 -1.3216323944
C -4.3691691321 -0.1509301837 -0.9009377732
H 4.2340118433 -1.6301912354 -0.1861474865
H 4.2336849460 -1.6554905039 -1.9502886385
H 2.7270462840 -1.8841441206 -1.0690476577
H 2.8328059504 0.4209206368 -1.9653972647
H 4.4064286757 0.6621620678 -1.2082847336
H 2.7514748474 1.7807173647 0.1281073258
H 3.3565863821 0.3994848250 1.0409024719
H 1.3353755843 -0.8924897725 0.4928285485
H 0.7709209256 0.4044139818 -0.5689325387
H 0.5615879729 1.9249203224 1.3504322817
H 1.2848349640 0.7233828163 2.4161484521
H -1.0741708516 0.7566496849 2.7856093185
H -0.6513241648 -0.7853712233 2.0535967986
H -2.7395773592 0.7690840386 1.2361703111
H -1.4919921384 1.3832621785 0.1593402488
H -1.0285138077 -1.0147530176 -0.5353120918
H -2.4014596119 -1.5124033216 0.4487803622
H -2.5523667950 0.4525239581 -1.8797506655
H -2.9056624894 -1.2707572726 -1.9930534376
H -4.4472104094 0.7583935009 -0.3111559126
H -5.0033101853 -0.0414142556 -1.7776119943
H -4.7449848553 -0.9811801186 -0.3069570886
32
CONF648
C 3.1237265180 1.5051483361 -1.4502285065
C 2.4672470310 0.8954189683 -0.2169636213
C 2.3991502064 -0.6273666816 -0.3124081193
C 1.8932339254 -1.3005419837 0.9652602058
C 0.4817204516 -0.8967030517 1.3961922401
C -0.5905362471 -1.2629913449 0.3719280311
C -2.0016395098 -0.9116490324 0.8505501289
C -2.3229444924 0.5891477138 0.7986525362
C -3.1274361493 1.0103513410 -0.4332612323
C -2.3761394601 0.8351781568 -1.7477581216
H 3.1582454699 2.5889472140 -1.3695843245
H 2.5650048684 1.2446188533 -2.3465067838
H 4.1407708792 1.1363906781 -1.5632095097
H 1.4609948448 1.3044382807 -0.1131848614
H 3.0350012175 1.1756331938 0.6733813501
H 3.4022525421 -1.0087499788 -0.5207454566
H 1.7660019723 -0.9085724876 -1.1556566908
H 2.5826444422 -1.0642509126 1.7799572481
H 1.9181820917 -2.3832285820 0.8172784250
H 0.4554964900 0.1750375802 1.5961134297
H 0.2550285327 -1.4051444507 2.3372375342
H -0.5375159814 -2.3384247078 0.1835296336
H -0.3898014395 -0.7498757707 -0.5671397154
H -2.7311832486 -1.4497455753 0.2416823855
H -2.1123904603 -1.2718285740 1.8760054637
H -2.9034744317 0.8615430648 1.6827356548
H -1.3974801130 1.1661288715 0.8305267056
H -4.0550556956 0.4339914572 -0.4688723743
H -3.3999549439 2.0629297803 -0.3214424903
H -2.1764915616 -0.2147518362 -1.9440900192
H -2.9670854649 1.2272326501 -2.5726295918
H -1.4302352413 1.3721360816 -1.7204937554
32
CONF431
C 3.8005693553 1.6173572928 -1.0872880779
C 3.5689088151 0.3800492897 -0.2277806827
C 2.0838523154 0.1438844711 0.0405383437
C 1.8513067353 -1.1056418628 0.8862576298
C 0.3861034464 -1.3316050090 1.2655614789
C -0.5279511384 -1.6206636254 0.0656999421
C -1.3527283639 -0.4149382112 -0.3935768611
C -2.5258150109 -0.1261228951 0.5421783782
C -3.2703597747 1.1649670792 0.1991526579
C -3.9996559112 1.1020795719 -1.1383689905
H 3.4008342093 2.5019557201 -0.5962805530
H 3.3077926279 1.5091184014 -2.0510212176
H 4.8631393663 1.7704773529 -1.2596679597
H 4.0938022622 0.4953202165 0.7235055397
H 3.9870531424 -0.4949051287 -0.7310105399
H 1.5642316272 0.0441472715 -0.9139179096
H 1.6713904713 1.0127609545 0.5594155542
H 2.4369120706 -1.0193607143 1.8055461242
H 2.2210903608 -1.9800559804 0.3447511025
H 0.0223308992 -0.4548604423 1.8039064521
H 0.3485196312 -2.1751917514 1.9580024997
H -1.2206840767 -2.4260489377 0.3197539797
H 0.0833390333 -1.9754090422 -0.7664695775
H -0.7148744869 0.4681218765 -0.4526296769
H -1.7367360352 -0.6174379306 -1.3949657663
H -3.2260235433 -0.9644115469 0.5098434497
H -2.1556285683 -0.0490833579 1.5668060070
H -3.9994557056 1.3653988973 0.9880334466
H -2.5615540443 1.9962617412 0.1864912487
H -4.5795638267 2.0087794862 -1.2940681339
H -3.2969260347 1.0038728304 -1.9614376771
H -4.6785718355 0.2523069629 -1.1604033715
32
CONF496
C 3.9003134232 -1.5899980195 0.0553332560
C 3.6258559097 -0.3500277132 -0.7885091009
C 2.2160315952 0.2109272407 -0.5931236824
C 1.9938762241 0.7981656209 0.7989634255
C 0.6573937017 1.5269956031 0.9564140141
C -0.5718365288 0.6133026289 0.8387019426
C -1.2318807272 0.6711740332 -0.5394646530
C -2.3285494071 -0.3778967248 -0.7288112218
C -3.5512779085 -0.1533556648 0.1587058619
C -4.6579789395 -1.1558551327 -0.1480835452
H 3.8728086097 -1.3540370018 1.1156862445
H 4.8831893496 -1.9936091110 -0.1764029394
H 3.1575320265 -2.3585190651 -0.1472346947
H 3.7538017237 -0.6072951907 -1.8427590659
H 4.3588315973 0.4231410064 -0.5465227206
H 1.4929357116 -0.5853795217 -0.7769421802
H 2.0488286655 0.9963734458 -1.3346960574
H 2.7994741599 1.5064882223 1.0107826753
H 2.0479439216 0.0039085527 1.5456743282
H 0.5899153408 2.3236401623 0.2124239395
H 0.6561198552 2.0019689530 1.9399871528
H -1.3075753978 0.9079036302 1.5886229044
H -0.2799787940 -0.4161570146 1.0565171748
H -1.6573591754 1.6665582530 -0.6899273490
H -0.4732766441 0.5193730076 -1.3085828522
H -2.6497414333 -0.3609621643 -1.7734312811
H -1.9164534061 -1.3699089540 -0.5280183744
H -3.2673711653 -0.2463180989 1.2081285826
H -3.9267374440 0.8606677788 0.0026572676
H -4.3045914284 -2.1722212149 0.0115035340
H -5.5179466130 -0.9860532178 0.4952267620
H -4.9793985059 -1.0646623799 -1.1833666800
32
CONF534
C 4.3822699031 0.4722073484 1.2181855353
C 3.8478451752 -0.5224542171 0.1933826175
C 2.3201210211 -0.6018681790 0.1646873578
C 1.6653090302 0.6506949783 -0.4151022335
C 0.1364366973 0.5927522817 -0.4026789269
C -0.4348702939 -0.4609235339 -1.3492967000
C -1.9504013116 -0.3652388607 -1.5396283722
C -2.7654239747 -0.6601515188 -0.2723334800
C -3.2186079165 0.5965795077 0.4700978549
C -4.0082687077 0.2514526148 1.7276344987
H 4.0800819883 1.4872443269 0.9743350501
H 5.4690019047 0.4398513455 1.2425843017
H 4.0091952788 0.2305258283 2.2110931281
H 4.2427435905 -1.5133678775 0.4299515060
H 4.2115616018 -0.2513772816 -0.8003701551
H 1.9504079448 -0.7652689150 1.1798514795
H 2.0324837951 -1.4656111460 -0.4374201443
H 2.0131423871 0.7957822608 -1.4409586743
H 1.9776781407 1.5197942571 0.1666531372
H -0.2483994254 1.5719628154 -0.6987904766
H -0.1994084851 0.3932711985 0.6162779533
H -0.1916570767 -1.4589571054 -0.9801083370
H 0.0408702770 -0.3452204256 -2.3268617816
H -2.2055448497 0.6296914086 -1.9109875761
H -2.2292080998 -1.0819540903 -2.3153309110
H -3.6575676797 -1.2301202585 -0.5426725598
H -2.1759200505 -1.2856086084 0.4012846874
H -2.3531724171 1.2010046771 0.7430702118
H -3.8442804900 1.1966675752 -0.1949986607
H -4.3327536916 1.1559992106 2.2362621874
H -4.8884400452 -0.3363565622 1.4759760832
H -3.3958577329 -0.3284612264 2.4147330693
32
CONF577
C 2.2710947488 -1.1537872858 -1.8493368226
C 3.0881332237 -0.5785590290 -0.6971922469
C 2.3052932354 0.4224446911 0.1543725526
C 1.2050418704 -0.2320189152 0.9881302349
C 0.4244602359 0.7797379772 1.8312550477
C -0.5402663881 1.6620849108 1.0255934499
C -1.9989807706 1.1989423525 1.0758591725
C -2.2752606696 -0.1659030173 0.4439824207
C -2.0661617515 -0.1904852197 -1.0688851646
C -2.4031133344 -1.5546971059 -1.6595911577
H 1.4324404680 -1.7394089594 -1.4822221270
H 2.8912325474 -1.8015644939 -2.4644995112
H 1.8844118338 -0.3534965245 -2.4769973155
H 3.9660498550 -0.0744336389 -1.1082646096
H 3.4430222139 -1.3927358174 -0.0611251112
H 1.8740790620 1.1819391060 -0.5010766925
H 2.9993437613 0.9298667149 0.8294946653
H 1.6665547359 -0.9645407834 1.6557049502
H 0.5195649409 -0.7672859902 0.3334474243
H 1.1464313409 1.4136719586 2.3515339778
H -0.1421524158 0.2448141589 2.5964786813
H -0.2130891163 1.7192707707 -0.0121421170
H -0.5097558241 2.6781766738 1.4253780393
H -2.3155920424 1.1673529975 2.1216863586
H -2.6155579049 1.9473702346 0.5707514455
H -1.6450947821 -0.9227985100 0.9136328141
H -3.3141368498 -0.4350113723 0.6535274631
H -2.6982209744 0.5717447849 -1.5306830317
H -1.0292269066 0.0524100881 -1.3059005302
H -3.4420279674 -1.8104657367 -1.4628596610
H -2.2462033775 -1.5559791482 -2.7355809278
H -1.7741059775 -2.3263979095 -1.2202315006
32
CONF451
C 4.1006194247 0.9509206243 1.5440348076
C 3.6692395485 0.0941221324 0.3595128519
C 2.1677023387 0.1963233435 0.0994694798
C 1.7320893476 -0.6854168936 -1.0693102206
C 0.2554769224 -0.5277971651 -1.4353214203
C -0.6909922965 -1.0580873151 -0.3593413619
C -2.1597624608 -0.9987288594 -0.7867633910
C -2.7577867856 0.4158738515 -0.7832081136
C -3.6036150961 0.7283401101 0.4532942568
C -2.8027461422 0.7631522018 1.7495667989
H 3.5855566615 0.6359917202 2.4488833922
H 3.8648402506 1.9972546062 1.3629053062
H 5.1715636927 0.8634169208 1.7099589111
H 3.9296774521 -0.9491423863 0.5525641734
H 4.2128377194 0.4098411771 -0.5340522487
H 1.9101458477 1.2359391707 -0.1173376583
H 1.6331197405 -0.0979012774 1.0041918032
H 1.9334157085 -1.7315228024 -0.8259728609
H 2.3368995407 -0.4293532738 -1.9430727623
H 0.0672519262 -1.0722006950 -2.3643397539
H 0.0476737869 0.5268918767 -1.6264805731
H -0.5566035459 -0.4890184887 0.5595067582
H -0.4281034357 -2.0982835928 -0.1502506261
H -2.2384106874 -1.4243885240 -1.7898235483
H -2.7503547185 -1.6335149320 -0.1228676024
H -1.9586039579 1.1544493022 -0.8595341573
H -3.3954683167 0.5370968133 -1.6614882120
H -4.0792973395 1.7014704722 0.3072448223
H -4.3994201762 -0.0153721208 0.5403396708
H -2.3935074563 -0.2168985589 1.9794878209
H -1.9830217024 1.4741327704 1.6709175990
H -3.4403527938 1.0666023590 2.5770533396
32
CONF422
C 3.7441668800 1.6936689221 0.8333161841
C 3.2991457999 0.4199090527 0.1241815998
C 2.0144688244 -0.1444968144 0.7281958631
C 1.5378629635 -1.4160965860 0.0216911462
C 0.8905769982 -1.1639885996 -1.3483549980
C -0.6387041744 -1.2152690217 -1.3269647051
C -1.2787596050 -0.1043247061 -0.4979732209
C -2.8037125364 -0.1544845443 -0.5734252146
C -3.4853061466 0.9916342402 0.1757164176
C -3.3077234726 0.9115590643 1.6880199816
H 4.6628117154 2.0756645498 0.3946180571
H 3.9219096961 1.4993997688 1.8888344054
H 2.9786521072 2.4622668378 0.7519345149
H 4.0894839948 -0.3309046852 0.1973713928
H 3.1461893583 0.6331306736 -0.9355156780
H 1.2345310440 0.6171695784 0.6856350097
H 2.1977375425 -0.3719324132 1.7814384107
H 0.8209856053 -1.9343489723 0.6615793176
H 2.3979594904 -2.0788346139 -0.0969608884
H 1.2392428429 -1.9194376645 -2.0555419726
H 1.2055479461 -0.1923449463 -1.7320673117
H -0.9599043883 -2.1845706234 -0.9373729127
H -1.0020172978 -1.1402255387 -2.3554938733
H -0.9644278402 -0.2039409608 0.5406897321
H -0.9336491013 0.8649450879 -0.8666677365
H -3.1047391388 -0.1134085437 -1.6235027903
H -3.1539123399 -1.1070362694 -0.1684536112
H -3.0894580631 1.9432608549 -0.1863329242
H -4.5532337651 0.9699854622 -0.0541666992
H -3.8767827190 1.6992960550 2.1761104951
H -3.6598954627 -0.0477673857 2.0607899380
H -2.2635443161 1.0271788364 1.9656387924
32
CONF493
C 4.7345911337 1.0551468327 -0.1915177127
C 3.5865869445 0.1072948775 0.1363938796
C 2.3578832215 0.3916367422 -0.7257041337
C 1.2214026855 -0.6118433470 -0.5225228042
C 0.5778505530 -0.5226624873 0.8614487206
C -0.6448255287 -1.4385577482 1.0201937893
C -1.9896319898 -0.7319871624 0.8349190777
C -2.2310527660 -0.2208326681 -0.5838281326
C -3.6628574677 0.2697116820 -0.8071389292
C -4.0005985257 1.5218662093 -0.0054325172
H 5.5978480977 0.8417039363 0.4341945627
H 4.4349989779 2.0873081584 -0.0237282080
H 5.0304399359 0.9503099425 -1.2330985967
H 3.3295900971 0.2117728820 1.1915919112
H 3.9093195175 -0.9233711317 -0.0282731369
H 2.6586715500 0.3679121758 -1.7762616533
H 1.9928397712 1.3990375475 -0.5112643498
H 1.6067492144 -1.6235801470 -0.6721870251
H 0.4624101747 -0.4337977577 -1.2853871018
H 0.2854892295 0.5108198066 1.0585574723
H 1.3243664046 -0.7976088543 1.6081950426
H -0.6371830082 -1.8690308331 2.0241143186
H -0.5712539256 -2.2670686305 0.3124229041
H -2.7849177124 -1.4377563472 1.0899173970
H -2.0475061010 0.0992050869 1.5399490104
H -1.5413009158 0.5956273871 -0.8040885717
H -2.0293855933 -1.0324865951 -1.2875724225
H -3.7933182607 0.4866987049 -1.8701000955
H -4.3621426466 -0.5278585480 -0.5453421460
H -4.9976391657 1.8742987198 -0.2592561588
H -3.9744758514 1.3197891689 1.0619445578
H -3.2899902587 2.3158155104 -0.2246648217
32
CONF563
C 4.5468766974 -0.0362316924 -0.9634366413
C 4.0078285597 0.6543073283 0.2844466128
C 2.8305521547 -0.0851701712 0.9216518219
C 1.5701251261 -0.0792295439 0.0583060405
C 0.3885214719 -0.7128575849 0.7903814998
C -0.8641827123 -0.8530182516 -0.0756964515
C -1.4695511347 0.4901729512 -0.4853578639
C -2.8364444851 0.3466857963 -1.1717907638
C -4.0272491517 0.6408899720 -0.2568131819
C -4.1717127352 -0.3399802775 0.9006146136
H 3.8047887525 -0.0416715991 -1.7571764146
H 4.8207116648 -1.0648401523 -0.7392743559
H 5.4300944125 0.4823147108 -1.3289077194
H 3.6990573111 1.6711745508 0.0315474720
H 4.8114489626 0.7271399586 1.0211092959
H 2.5989311026 0.3879312113 1.8794133187
H 3.1233923456 -1.1176035925 1.1273211136
H 1.7515820799 -0.6327087685 -0.8645371178
H 1.3293821651 0.9514111232 -0.2083502263
H 0.1501621269 -0.1160677015 1.6744676743
H 0.6852119377 -1.7065797799 1.1358952572
H -1.6055577116 -1.4270071254 0.4819313847
H -0.6171069644 -1.4221094803 -0.9753681334
H -1.5716873015 1.1246705473 0.3974999698
H -0.7789614525 0.9902615915 -1.1659611429
H -2.8893774125 1.0388390437 -2.0149809489
H -2.9351727748 -0.6631546987 -1.5754280593
H -3.9291867009 1.6541619431 0.1400895392
H -4.9387925483 0.6117833924 -0.8590858507
H -5.0740994447 -0.1207052011 1.4672051090
H -4.2406852121 -1.3600873838 0.5288462904
H -3.3233990467 -0.2718490581 1.5762670124
32
CONF738
C 4.0296502369 0.5154319886 -0.7700708435
C 2.7308209228 -0.1603921787 -1.1948586162
C 2.2035200838 -1.1579673883 -0.1619852755
C 1.8583412045 -0.5555622901 1.2023471536
C 0.7977388270 0.5464596518 1.1765046439
C -0.5698557025 0.0624165425 0.6982473872
C -1.6160866088 1.1713510564 0.7823423956
C -3.0418522461 0.7126460570 0.4686867230
C -3.2471032378 0.2203552682 -0.9713900518
C -3.2017937012 -1.2989479836 -1.1013172223
H 4.7814740539 -0.2301158721 -0.5201176753
H 3.8733023904 1.1515758054 0.0970744551
H 4.4144999709 1.1334251022 -1.5780657438
H 2.9034766805 -0.7005940143 -2.1291103720
H 1.9741015995 0.5995872967 -1.3955991101
H 2.9611221563 -1.9306395670 -0.0069293484
H 1.3196980685 -1.6504010599 -0.5721595814
H 2.7669412989 -0.1536493724 1.6544507792
H 1.5055784590 -1.3632812955 1.8490125049
H 1.1324113815 1.3696862082 0.5429859794
H 0.6942789842 0.9415402911 2.1908275693
H -0.8869438443 -0.7814155090 1.3160513132
H -0.4910947866 -0.2811044143 -0.3330641539
H -1.6059238562 1.5864470691 1.7939514900
H -1.3405020901 1.9770344544 0.0970290717
H -3.3249941840 -0.0795680046 1.1647646862
H -3.7064401777 1.5596443206 0.6535725287
H -4.2199352369 0.5621175009 -1.3317444373
H -2.4889968246 0.6655799828 -1.6186307903
H -3.3422369486 -1.5934052625 -2.1391511962
H -2.2509503009 -1.6959482381 -0.7578739263
H -3.9941317202 -1.7513654907 -0.5086651499
32
CONF645
C 3.0757290403 -0.3802192240 1.8240305460
C 2.5927474473 -1.0295576029 0.5320486260
C 2.7083725998 -0.1107948876 -0.6856131258
C 1.8768594136 1.1722285056 -0.6092329816
C 0.3717649960 0.9567527733 -0.4385153191
C -0.2624614658 0.2104677193 -1.6097817234
C -1.7922247174 0.1874173143 -1.5733128757
C -2.3826230427 -0.6111758516 -0.4023042170
C -2.8052025931 0.2578792395 0.7817804653
C -3.3649346973 -0.5835621143 1.9232132415
H 4.0914781021 -0.0090432493 1.7054536492
H 3.0675035668 -1.1042264118 2.6356090300
H 2.4357015379 0.4514885640 2.1062296171
H 1.5584851470 -1.3553796600 0.6533695817
H 3.1929628091 -1.9225702495 0.3401909983
H 2.4191175538 -0.6727058491 -1.5758085924
H 3.7569239021 0.1730454633 -0.8082985605
H 2.0473977732 1.7404283392 -1.5275491328
H 2.2378327812 1.7832976493 0.2202368056
H -0.1031027433 1.9374889085 -0.3496747924
H 0.1865247177 0.4147049253 0.4886492308
H 0.1017390803 -0.8184056050 -1.6314446717
H 0.0517980521 0.6915326585 -2.5400891256
H -2.1685441413 1.2122028800 -1.5395314494
H -2.1363094231 -0.2532908045 -2.5116983938
H -3.2630414029 -1.1585585256 -0.7474835017
H -1.6555249760 -1.3530930991 -0.0651286020
H -1.9541596198 0.8354690390 1.1438250697
H -3.5672997241 0.9665888610 0.4488788954
H -3.6712738311 0.0502378906 2.7518403965
H -4.2289011696 -1.1537512323 1.5884989959
H -2.6141329395 -1.2829178328 2.2847479757
32
CONF739
C 4.0129975683 0.5186887849 -0.7876741165
C 2.7167689502 -0.1708119270 -1.1982890595
C 2.2017434023 -1.1603116008 -0.1515265109
C 1.8637936552 -0.5456237035 1.2091455645
C 0.8004436028 0.5535902385 1.1792622323
C -0.5673506872 0.0625721436 0.7089185671
C -1.6174137090 1.1678516255 0.7917804403
C -3.0396541833 0.7041589455 0.4696308974
C -3.2357691898 0.2219564198 -0.9752618477
C -3.1918490350 -1.2965244857 -1.1150629473
H 3.8554782480 1.1669507341 0.0701079843
H 4.3920517887 1.1265725077 -1.6060715635
H 4.7697819314 -0.2186966798 -0.5287194005
H 2.8882636986 -0.7203664449 -2.1272709133
H 1.9537448928 0.5816373922 -1.4035834667
H 2.9640553172 -1.9278935029 0.0057512396
H 1.3172920979 -1.6609770513 -0.5502707000
H 2.7742199280 -0.1373415521 1.6517758702
H 1.5169213408 -1.3479742640 1.8656105778
H 1.1308469590 1.3729492570 0.5384983210
H 0.6995478748 0.9558892073 2.1910018172
H -0.8792371578 -0.7796848021 1.3315403646
H -0.4912437677 -0.2852706991 -0.3211093780
H -1.6131761243 1.5801229315 1.8045763729
H -1.3416247714 1.9764049003 0.1099079116
H -3.3207615268 -0.0951201313 1.1584268037
H -3.7098025599 1.5458100075 0.6586475200
H -4.2052538494 0.5678259424 -1.3405078365
H -2.4722399027 0.6699868062 -1.6141141956
H -3.3234696482 -1.5837950271 -2.1560695846
H -2.2446083157 -1.6972276568 -0.7658564986
H -3.9899910460 -1.7517408580 -0.5324645088
32
CONF470
C 3.6952482811 1.2535179661 -0.6255920690
C 3.7500647511 -0.2506615956 -0.8650402607
C 2.4244518664 -0.9627704368 -0.5869766691
C 1.9955388636 -0.9182465127 0.8873319344
C 0.9104013324 0.1191743735 1.1870194027
C -0.4702578780 -0.3182506541 0.7006162807
C -1.5264238053 0.7531559241 0.9644453580
C -2.9448613811 0.3143539586 0.5985433122
C -3.1557034188 0.1213619635 -0.9021538389
C -4.6127063505 -0.1861150081 -1.2284117392
H 4.6435832929 1.7121373249 -0.8968511946
H 3.4992256986 1.4732475901 0.4204522471
H 2.9114591167 1.7062003469 -1.2291988210
H 4.5301863763 -0.6882204844 -0.2374554136
H 4.0271119217 -0.4319708954 -1.9066232048
H 2.5327776114 -2.0034891468 -0.8996247190
H 1.6482108706 -0.5165608144 -1.2105817884
H 2.8714025955 -0.7090454294 1.5046964366
H 1.6188539048 -1.8982476506 1.1884812571
H 1.1695322637 1.0706728710 0.7208315710
H 0.8643232212 0.2823878357 2.2668236049
H -0.7563337606 -1.2400290681 1.2132806699
H -0.4271088723 -0.5337125651 -0.3675686734
H -1.5045546464 1.0104662498 2.0265608870
H -1.2729908968 1.6556375667 0.4028314420
H -3.1793232939 -0.6177386800 1.1182042124
H -3.6461434149 1.0741007335 0.9529776575
H -2.8506248501 1.0294413488 -1.4273864289
H -2.5304355378 -0.6979243533 -1.2603444425
H -5.2562231603 0.6295446709 -0.9058635338
H -4.7443645390 -0.3253067102 -2.2986868651
H -4.9321241816 -1.0940229880 -0.7215449725
32
CONF515
C 4.3726047922 0.3174660918 -1.0781329311
C 3.4720848473 -0.8328638306 -0.6413079801
C 2.0039055507 -0.4307737996 -0.4901010276
C 1.7597172162 0.5279253093 0.6742548130
C 0.2833362019 0.8865708397 0.8571180208
C -0.5477116889 -0.2591257524 1.4351508174
C -2.0254460259 0.1068747088 1.6362540367
C -2.9523683518 -0.3857393449 0.5229494884
C -2.6820680991 0.2432228683 -0.8417430883
C -3.7262417904 -0.1800749203 -1.8689812425
H 4.0030075876 0.7591477245 -2.0008994249
H 5.3843526077 -0.0418357392 -1.2507460771
H 4.4144869845 1.0921787106 -0.3173678336
H 3.8329723303 -1.2359045929 0.3077320252
H 3.5379992425 -1.6309200313 -1.3847479549
H 1.4156003718 -1.3376498858 -0.3382385370
H 1.6619062493 0.0354539902 -1.4173781831
H 2.3175003988 1.4492901835 0.4984494146
H 2.1389225248 0.0802617332 1.5962599829
H -0.1285480315 1.2018788469 -0.1022926978
H 0.2140163681 1.7374467437 1.5398003823
H -0.1111472115 -0.5375097466 2.3972812007
H -0.4824538224 -1.1329341139 0.7857954795
H -2.3762016200 -0.3316070353 2.5730720499
H -2.1215202008 1.1907113061 1.7299906394
H -2.8656734688 -1.4719967041 0.4395296859
H -3.9829811597 -0.1617288995 0.8111337724
H -2.6904765845 1.3312964608 -0.7446579275
H -1.6945998079 -0.0569506386 -1.1952641896
H -4.7200832085 0.1301066319 -1.5532212748
H -3.5167609100 0.2705960261 -2.8361802955
H -3.7275780559 -1.2616589238 -1.9864984474
32
CONF441
C 4.9628913463 0.3031587874 0.2919160210
C 3.4749456667 0.5049296746 0.0292422364
C 2.6339383710 -0.5791664819 0.7004495452
C 1.1277541625 -0.3607185929 0.5517397055
C 0.6409562304 -0.4941173784 -0.8910593860
C -0.8831736277 -0.5479615516 -1.0087340274
C -1.5597742565 0.7754781827 -0.6514524164
C -3.0871836433 0.7330839356 -0.8056725597
C -3.8432210764 0.5223287016 0.5080321250
C -3.5638029558 -0.8203668190 1.1723971820
H 5.5470478092 1.0784458701 -0.1979404139
H 5.2877037100 -0.6633677424 -0.0872048049
H 5.1704628174 0.3384826320 1.3592370780
H 3.2981295305 0.4933994692 -1.0472903026
H 3.1688220791 1.4829186415 0.4077474783
H 2.8798391284 -0.6013161907 1.7652676293
H 2.9007099606 -1.5523959315 0.2811452733
H 0.8746343536 0.6280617048 0.9384666977
H 0.6086340049 -1.1016140811 1.1652908283
H 1.0539540430 -1.4136451598 -1.3134574090
H 1.0135692854 0.3418267737 -1.4858001698
H -1.2626100694 -1.3462687100 -0.3698331187
H -1.1427781098 -0.8009823856 -2.0400867075
H -1.3122324577 1.0538938244 0.3734473377
H -1.1516326159 1.5493249923 -1.3058744153
H -3.4294480005 1.6775650757 -1.2344603049
H -3.3597706410 -0.0586228201 -1.5068317333
H -3.5855747629 1.3269449378 1.2009048609
H -4.9139840674 0.5975410418 0.3022859700
H -2.5282913370 -0.8851996200 1.4951987344
H -4.1986312439 -0.9454875538 2.0468489675
H -3.7665534555 -1.6362391969 0.4820619007
32
CONF432
C 4.0184893876 -1.1737227571 1.0409498555
C 3.2596724141 -1.1591259040 -0.2814688485
C 2.5156991213 0.1527180315 -0.5360499839
C 1.3517484413 0.3828561702 0.4269422304
C 0.5329623383 1.6248796323 0.0638948427
C -0.3885182927 1.4354787314 -1.1500956666
C -1.8522519576 1.1824074478 -0.7824237757
C -2.0848331101 -0.1383447419 -0.0529072782
C -3.5690466158 -0.3947153849 0.2009088707
C -3.7995959737 -1.7103936594 0.9351378929
H 4.5895469662 -2.0942238753 1.1375010795
H 3.3352979421 -1.1090851083 1.8834327857
H 4.7090365082 -0.3346145149 1.0909916080
H 2.5460124858 -1.9861428398 -0.2986917180
H 3.9702162558 -1.3197257937 -1.0958828898
H 2.1361216620 0.1414970188 -1.5600806511
H 3.2183380217 0.9858449805 -0.4569416166
H 1.7447088904 0.5097495082 1.4372627621
H 0.7075939435 -0.4975323700 0.4273090192
H 1.2299326091 2.4429625144 -0.1312309011
H -0.0723789099 1.9186374450 0.9237129055
H -0.0299278786 0.6046988314 -1.7599910851
H -0.3522698776 2.3325394650 -1.7717810584
H -2.2141511267 2.0053003923 -0.1608781902
H -2.4444863192 1.1827183010 -1.7014694496
H -1.6775771730 -0.9571053231 -0.6512397078
H -1.5602036529 -0.1274885306 0.9038750308
H -3.9803144412 0.4274504985 0.7912128750
H -4.1007842921 -0.4135514156 -0.7533515691
H -4.8610363445 -1.8739336697 1.1043064335
H -3.4118086434 -2.5436375594 0.3533510476
H -3.2950788665 -1.7020107027 1.8986919892
32
CONF517
C 3.7091137079 0.1270840038 -1.8831796991
C 2.6742945703 -0.2706299114 -0.8364328414
C 2.9531096829 0.3963181303 0.5082712625
C 2.0291625306 -0.0609291183 1.6390076105
C 0.5517256634 0.3029163981 1.4317988867
C -0.2836599564 -0.8585048550 0.8926140316
C -1.7593310446 -0.5024143282 0.6998524631
C -2.0026182858 0.4259887399 -0.4889327531
C -3.4733750183 0.8096897922 -0.6620171899
C -4.3560518228 -0.3564683983 -1.0932082985
H 4.7061636114 -0.1730166108 -1.5679692885
H 3.7073077130 1.2051011140 -2.0290807902
H 3.4921103876 -0.3491630437 -2.8362820175
H 2.6864122326 -1.3556515131 -0.7095599159
H 1.6833343726 0.0173242112 -1.1903719234
H 2.8694811905 1.4800203125 0.3939624934
H 3.9843249288 0.1772838666 0.7981734488
H 2.3842959406 0.4040370858 2.5612900091
H 2.1228338435 -1.1418082944 1.7643831335
H 0.4866855466 1.1559581024 0.7553909931
H 0.1190412728 0.6126547408 2.3860579320
H -0.2157243775 -1.6869780298 1.6024911684
H 0.1260054334 -1.2060307001 -0.0565651130
H -2.3177593926 -1.4276366481 0.5479046886
H -2.1386578046 -0.0307119513 1.6097667560
H -1.4243668452 1.3418703492 -0.3534357345
H -1.6482718180 -0.0584221895 -1.4021543942
H -3.8493297534 1.2215499608 0.2773261343
H -3.5400717223 1.5966314482 -1.4171074567
H -5.3718923343 -0.0124935507 -1.2730371215
H -3.9762988921 -0.8004389538 -2.0107986926
H -4.3905410821 -1.1256000895 -0.3263910356
32
CONF469
C 3.7203483456 1.2578563168 0.5886562865
C 3.7640027075 -0.2410873393 0.8609708090
C 2.4293758665 -0.9463034980 0.6096307158
C 1.9915575759 -0.9322180841 -0.8627576197
C 0.9076792586 0.1017966624 -1.1782593647
C -0.4722818073 -0.3235709584 -0.6793817839
C -1.5298424129 0.7389972674 -0.9722939543
C -2.9493185397 0.3031752577 -0.6066737558
C -3.1706301457 0.1429696530 0.8963162706
C -4.6259514738 -0.1769233155 1.2177374016
H 4.6742030827 1.7143859683 0.8433411412
H 2.9444641109 1.7302966675 1.1872825989
H 3.5186880335 1.4561347996 -0.4606012498
H 4.0485657073 -0.4019438819 1.9038658009
H 4.5345877092 -0.6995977283 0.2365462395
H 1.6619906372 -0.4768209688 1.2271619676
H 2.5288620352 -1.9802133992 0.9467799970
H 1.6107097045 -1.9174145398 -1.1408057603
H 2.8641366404 -0.7385268703 -1.4897320980
H 0.8580986021 0.2444541098 -2.2607923134
H 1.1706401719 1.0614559870 -0.7312400825
H -0.4283824603 -0.5103977651 0.3941752210
H -0.7574658705 -1.2590371520 -1.1671645403
H -1.2827921563 1.6540776850 -0.4285731515
H -1.5019322176 0.9735243954 -2.0395332593
H -3.6510295056 1.0517885468 -0.9832728184
H -3.1763655608 -0.6413834585 -1.1068281168
H -2.5372565945 -0.6588467997 1.2789120196
H -2.8823740636 1.0674206635 1.4021400178
H -5.2781424118 0.6208584105 0.8689507895
H -4.9278299315 -1.1019748842 0.7315244119
H -4.7652488953 -0.2908046768 2.2900425123
32
CONF512
C 3.3257044468 1.5683849181 0.5210020939
C 3.9755017325 0.3647905387 -0.1508861298
C 2.9993997120 -0.5009189884 -0.9506303907
C 1.9187858839 -1.1824449186 -0.0984603149
C 0.5760973128 -0.4525588294 -0.1254844212
C -0.4598453122 -1.1452415635 0.7580961500
C -1.7858968730 -0.3879553890 0.8418078678
C -2.5485698305 -0.3645265702 -0.4821078984
C -3.9652452131 0.1961727675 -0.3486509223
C -3.9912190789 1.6800105531 0.0011044437
H 2.6198820539 1.2528156785 1.2843853977
H 2.7994222622 2.1756073154 -0.2122658984
H 4.0838850179 2.1865359239 0.9968866923
H 4.4603184130 -0.2533473368 0.6085221508
H 4.7543058147 0.7192211522 -0.8308835494
H 3.5841524418 -1.2665771295 -1.4651989425
H 2.5221369512 0.1124716182 -1.7177526186
H 2.2679537747 -1.2648674214 0.9330573543
H 1.7572280606 -2.1991156312 -0.4644767665
H 0.2162785411 -0.4207174425 -1.1554431388
H 0.7035417038 0.5759221589 0.2142562189
H -0.0500846545 -1.2422962992 1.7669509243
H -0.6418605660 -2.1543476359 0.3799996727
H -2.4138021203 -0.8670623642 1.5974428920
H -1.5881807000 0.6331604702 1.1721794641
H -2.0011689352 0.2327258504 -1.2132721279
H -2.6121346555 -1.3857256657 -0.8664653677
H -4.4878378165 0.0488285465 -1.2968630452
H -4.5054103068 -0.3663652799 0.4164248862
H -3.4236363007 2.2517527951 -0.7298367777
H -5.0143707881 2.0484569197 0.0056432906
H -3.5634539928 1.8557255853 0.9843792640
32
CONF734
C 4.0271810424 0.5048212559 0.7878434606
C 2.7251993688 -0.1756988444 1.1950480428
C 2.2029916370 -1.1577382071 0.1448103064
C 1.8622796270 -0.5348835364 -1.2114156830
C 0.7979348753 0.5631580686 -1.1730252908
C -0.5696480328 0.0681653186 -0.7059810624
C -1.6195695366 1.1742250750 -0.7809168569
C -3.0423381007 0.7089168067 -0.4635172650
C -3.2394111324 0.2130750363 0.9766404379
C -3.2012513097 -1.3069050402 1.1006996444
H 3.8771704694 1.1519704309 -0.0722540026
H 4.7803886600 -0.2378883464 0.5336741673
H 4.4067061129 1.1122825018 1.6062534340
H 1.9680750691 0.5820919356 1.4023154175
H 2.8919202320 -0.7294697380 2.1223952097
H 1.3180252202 -1.6572506020 0.5438342525
H 2.9619590359 -1.9272468103 -0.0191122095
H 1.5151596747 -1.3333695887 -1.8724368339
H 2.7715973659 -0.1228873664 -1.6528842681
H 0.6964422091 0.9726144778 -2.1818312717
H 1.1280002089 1.3781800508 -0.5265774953
H -0.4936647196 -0.2873475605 0.3214628144
H -0.8814146223 -0.7694794842 -1.3348435091
H -1.3439853915 1.9773927986 -0.0926461611
H -1.6144939097 1.5942830465 -1.7904967750
H -3.7114831522 1.5530528952 -0.6448046048
H -3.3240889068 -0.0834508273 -1.1599544220
H -2.4736460644 0.6515619288 1.6194446251
H -4.2072441811 0.5590218570 1.3462102458
H -4.0022187953 -1.7528943934 0.5147913450
H -2.2561397082 -1.7074839282 0.7455690123
H -3.3321945944 -1.6045640108 2.1388690519
32
CONF468
C 3.7142557562 1.2590141692 0.5886406109
C 3.7597686273 -0.2393126800 0.8640070101
C 2.4273312493 -0.9475435018 0.6096832077
C 1.9921516421 -0.9343169734 -0.8634337185
C 0.9090228032 0.0998964144 -1.1809488482
C -0.4715644943 -0.3247941725 -0.6832099542
C -1.5274250572 0.7408568837 -0.9709086960
C -2.9470794995 0.3056479731 -0.6053870129
C -3.1682764697 0.1446837607 0.8975157858
C -4.6230035532 -0.1792444536 1.2178968927
H 2.9360584783 1.7314285687 1.1842853497
H 3.5151929479 1.4548496388 -0.4615690985
H 4.6667714742 1.7175368911 0.8449246715
H 4.0411351027 -0.3976392275 1.9081503251
H 4.5332534049 -0.6975663445 0.2429958795
H 1.6575681649 -0.4803086019 1.2259245235
H 2.5288960999 -1.9813032610 0.9466556458
H 1.6111824308 -1.9194690063 -1.1414433171
H 2.8659254191 -0.7415233823 -1.4890428797
H 0.8608321678 0.2419071692 -2.2636482786
H 1.1717699934 1.0597279831 -0.7342172682
H -0.4275111261 -0.5161968713 0.3895320149
H -0.7586462775 -1.2577324415 -1.1747065224
H -1.2782210664 1.6534234326 -0.4239313163
H -1.5003194748 0.9794501454 -2.0372741738
H -3.6485403519 1.0547712814 -0.9814010038
H -3.1745457078 -0.6385231186 -1.1060619207
H -2.5328587318 -0.6554156701 1.2803235270
H -2.8827932237 1.0698146152 1.4036506902
H -4.7624407722 -0.2952161267 2.2899407290
H -5.2771272886 0.6173644240 0.8700702170
H -4.9223343585 -1.1042742330 0.7300908051
32
CONF475
C 4.9538853700 0.6612098478 0.2999959247
C 3.6213391711 0.2070764293 -0.2846438495
C 2.7498297747 -0.4770147988 0.7670801336
C 1.4523504565 -1.0558634782 0.2012615405
C 0.4527067549 0.0092005819 -0.2454286289
C -0.8484767842 -0.6159388819 -0.7458805195
C -1.8839523046 0.4317382746 -1.1628242925
C -2.5786718782 1.1244317152 0.0190507379
C -3.9839403100 0.5907518831 0.3059026240
C -4.0019198319 -0.8615564504 0.7678053731
H 5.5607652271 1.1456659953 -0.4610617229
H 5.5079308061 -0.1890515053 0.6918233365
H 4.7921585143 1.3669374762 1.1117974082
H 3.8046760318 -0.4892898972 -1.1062230687
H 3.0974950503 1.0730935000 -0.6921453133
H 2.5118089083 0.2375453061 1.5586289784
H 3.3251990469 -1.2890620413 1.2188935449
H 0.9817288177 -1.6739302742 0.9701566997
H 1.6878951639 -1.7069434652 -0.6441750872
H 0.8859374284 0.6102742703 -1.0468607757
H 0.2442459933 0.6767460164 0.5932653566
H -1.2636114003 -1.2557595305 0.0339848868
H -0.6195353373 -1.2503572118 -1.6059178959
H -1.3805424449 1.1788186764 -1.7804182596
H -2.6415315685 -0.0429054379 -1.7895875706
H -1.9705158443 1.0168855689 0.9185295363
H -2.6637454207 2.1931170379 -0.1886865971
H -4.4378815603 1.2130734786 1.0812573165
H -4.5952417521 0.6908233754 -0.5942153961
H -5.0168124084 -1.1646231903 1.0156150114
H -3.6317677160 -1.5217395756 -0.0119988886
H -3.3820186408 -0.9865731195 1.6530513386
32
CONF531
C 4.4715072930 1.1015823790 0.6553167893
C 3.4028623602 0.0148245346 0.6271178527
C 2.8320531998 -0.1784147638 -0.7775823918
C 1.7281569314 -1.2440054524 -0.8467529230
C 0.3069678819 -0.6775143506 -0.8882545368
C -0.0940076847 0.0724921817 0.3798341275
C -1.5370033914 0.5804341336 0.3447602738
C -2.5742425750 -0.5392669802 0.4224145230
C -3.9985907938 -0.0236096243 0.6336548755
C -4.5334213326 0.7644159293 -0.5569966476
H 4.8747492286 1.2163078504 1.6585058412
H 4.0530827050 2.0555512880 0.3418246175
H 5.2886883707 0.8499814396 -0.0172867434
H 2.6030303843 0.2769030561 1.3208867212
H 3.8384634193 -0.9278518140 0.9668713491
H 3.6536669683 -0.4645600892 -1.4383222490
H 2.4428837767 0.7739569523 -1.1435739502
H 1.8199463518 -1.9163621088 0.0089537526
H 1.8687264389 -1.8457142809 -1.7473071050
H -0.3823779387 -1.5093635843 -1.0448149965
H 0.2141440227 -0.0060211943 -1.7454972725
H 0.5667115431 0.9314772431 0.5086876968
H 0.0362346772 -0.5837842825 1.2439211579
H -1.6889791047 1.2523444969 1.1934665073
H -1.6851166118 1.1593304244 -0.5684342816
H -2.5479331640 -1.1344000623 -0.4920563503
H -2.3155646253 -1.1978790920 1.2554391508
H -4.6543954417 -0.8789647095 0.8131280941
H -4.0256103311 0.6055288249 1.5264336973
H -5.5727805275 1.0381970296 -0.3914715723
H -3.9625664878 1.6765863075 -0.7079380886
H -4.4760303090 0.1667498399 -1.4640987238
32
CONF474
C 4.0188273389 0.8444187746 0.7673060425
C 3.9822491775 -0.6059921006 0.3004498904
C 2.5691440253 -1.1205797138 0.0174756697
C 1.8803541755 -0.4150656216 -1.1605550357
C 0.8470335125 0.6320607937 -0.7371507715
C -0.4556222474 0.0048004410 -0.2433636863
C -1.4596108513 1.0667499694 0.2009727446
C -2.7555823153 0.4827405303 0.7650448486
C -3.6151994397 -0.2193014861 -0.2847215533
C -4.9462922241 -0.6811370162 0.2971784290
H 3.4055953910 0.9730165306 1.6567494625
H 3.6505283660 1.5111574523 -0.0078541349
H 5.0383269037 1.1359844575 1.0098585502
H 4.4318832522 -1.2364016272 1.0717646805
H 4.5885109174 -0.7102146755 -0.6026271376
H 1.9658662767 -1.0059143152 0.9193938995
H 2.6384977180 -2.1900602064 -0.1920973440
H 1.3763475161 -1.1546724915 -1.7865997998
H 2.6410708643 0.0630206871 -1.7808144829
H 0.6204468703 1.2734215900 -1.5926676740
H 1.2630658906 1.2650158831 0.0479432697
H -0.2500140032 -0.6645001771 0.5946537936
H -0.8842636793 -0.5948577700 -1.0482799847
H -0.9928710562 1.6872591164 0.9703479391
H -1.6963777538 1.7162733950 -0.6453895006
H -2.5161761912 -0.2220158480 1.5650333448
H -3.3402304883 1.2944349695 1.2054815327
H -3.8007096948 0.4674602986 -1.1139813658
H -3.0808446671 -1.0841790430 -0.6809397606
H -4.7815669177 -1.3732331428 1.1199133855
H -5.5134825021 0.1675486908 0.6730650645
H -5.5417874915 -1.1838185919 -0.4610249150
32
CONF501
C 4.6346566663 0.1868939667 -1.2074769105
C 3.1781724219 -0.1352634128 -0.8931961097
C 2.9524405542 -0.3083201797 0.6076729040
C 1.5319407274 -0.7468496808 0.9659289417
C 0.4748252572 0.3157468732 0.6714138418
C -0.9052721093 -0.1059746925 1.1729917360
C -1.9868689811 0.9295464566 0.8545250810
C -2.4259310192 0.9374201235 -0.6176198836
C -3.7702152338 0.2481243162 -0.8612909713
C -3.7474770590 -1.2475173271 -0.5690526532
H 5.2855449060 -0.6139595741 -0.8634305881
H 4.9353827685 1.1077369887 -0.7126632518
H 4.7771958313 0.3097120672 -2.2783824304
H 2.8909475628 -1.0550770695 -1.4079611974
H 2.5463528046 0.6702415167 -1.2705826925
H 3.1780398771 0.6319863014 1.1163780098
H 3.6529662549 -1.0601075657 0.9801041355
H 1.5000239499 -0.9843182609 2.0324133449
H 1.2881663848 -1.6606603725 0.4186917811
H 0.4297535502 0.4998094288 -0.4025869269
H 0.7614836361 1.2522373994 1.1564330414
H -0.8549810934 -0.2451813127 2.2559742298
H -1.1708578332 -1.0666034758 0.7293415471
H -2.8592350416 0.7409789641 1.4832811816
H -1.6032484390 1.9149237800 1.1279700017
H -2.5115058852 1.9694866645 -0.9640284627
H -1.6657924144 0.4518727988 -1.2316428581
H -4.5345551060 0.7255875544 -0.2434791311
H -4.0518403643 0.3991791200 -1.9063986023
H -4.7103987826 -1.6925847163 -0.8097614135
H -2.9838717548 -1.7400635863 -1.1672430027
H -3.5401241188 -1.4347374677 0.4811226731
32
CONF527
C 4.4160807428 0.4665443031 1.1668561969
C 3.8349815207 -0.5599288721 0.2006123610
C 2.3056860428 -0.6021310969 0.2064583882
C 1.6675355589 0.6526078608 -0.3870163839
C 0.1380396753 0.6073449653 -0.3880297924
C -0.4334835321 -0.4230964251 -1.3598062173
C -1.9483061398 -0.3193608645 -1.5513218670
C -2.7666414170 -0.6507868167 -0.2951979002
C -3.2251838543 0.5839016781 0.4800931537
C -4.0161176582 0.2020440784 1.7261817818
H 5.5014154135 0.3994856369 1.1785224103
H 4.0501990086 0.2875892687 2.1755186106
H 4.1433313717 1.4772254245 0.8752961230
H 4.2100835596 -1.5490532682 0.4741347947
H 4.1837476799 -0.3436751346 -0.8117654474
H 1.9540926389 -0.7340438679 1.2325723111
H 1.9852339332 -1.4721678839 -0.3693717332
H 2.0254162472 0.7884314222 -1.4106679955
H 1.9828827189 1.5219627832 0.1927018881
H -0.2369641006 1.5948487594 -0.6688152400
H -0.2079393236 0.3914212811 0.6241097729
H -0.1934661323 -1.4302078993 -1.0138702011
H 0.0448939311 -0.2857273273 -2.3332637921
H -2.2008943729 0.6866317651 -1.8934496879
H -2.2262481370 -1.0120959130 -2.3487780974
H -3.6564811912 -1.2153840859 -0.5837280228
H -2.1776697646 -1.2928749230 0.3630736094
H -2.3620340681 1.1833420378 0.7708408577
H -3.8514682053 1.1998905709 -0.1696662224
H -3.4031096260 -0.3945937153 2.3982653164
H -4.3444662631 1.0912139969 2.2588341286
H -4.8939254618 -0.3814482687 1.4568240324
32
CONF537
C 4.9737956113 0.2033674246 -0.2682442723
C 3.7673162292 -0.7050695831 -0.0630482078
C 2.4865398623 0.0928522391 0.1730295604
C 1.2770738967 -0.8197557123 0.3647742840
C -0.0080461530 -0.0697205090 0.7184150781
C -0.5146942616 0.8276366039 -0.4114759233
C -1.9039949231 1.4222443262 -0.1337014977
C -3.0420543403 0.7195552986 -0.8788853935
C -3.2841601271 -0.7367601387 -0.4799663359
C -3.8293246884 -0.8868972087 0.9358028038
H 5.8719094251 -0.3854841630 -0.4377141817
H 5.1323938702 0.8287461086 0.6074434529
H 4.8200944607 0.8516226943 -1.1280379159
H 3.9475557967 -1.3598272355 0.7927768907
H 3.6374744571 -1.3400227486 -0.9425407386
H 2.3198243501 0.7529866060 -0.6798727734
H 2.6103914645 0.7186696324 1.0602045928
H 1.4986710524 -1.5276079044 1.1677971866
H 1.1157323089 -1.3992445180 -0.5477010396
H 0.1648642593 0.5397467988 1.6090321948
H -0.7745390954 -0.8049994002 0.9673925591
H -0.5446134816 0.2543749778 -1.3405699145
H 0.1984934478 1.6406929922 -0.5547823421
H -2.0998456839 1.4072156547 0.9391282579
H -1.9130990952 2.4692741810 -0.4446769739
H -3.9641855844 1.2827457276 -0.7129078712
H -2.8256897167 0.7559951208 -1.9497293893
H -4.0064640896 -1.1660167099 -1.1790353618
H -2.3582986549 -1.3045698452 -0.5809291624
H -3.1190002252 -0.5183431462 1.6713920427
H -4.7563384000 -0.3282131378 1.0457808412
H -4.0311917986 -1.9332292015 1.1535484049
32
CONF444
C 4.6918386348 0.4909586438 0.3814231402
C 3.9380674587 0.0642233362 -0.8733171180
C 2.4508487335 0.4184284510 -0.8331751753
C 1.6644732505 -0.3773364989 0.2067566699
C 0.1707415104 -0.0632658759 0.1490912065
C -0.6172385035 -0.8596699762 1.1863129446
C -2.1044061857 -0.5033270976 1.2403603165
C -2.8774975353 -0.8659393832 -0.0360984119
C -3.1322353400 0.3200704591 -0.9701157743
C -4.2170821592 1.2540848496 -0.4450718472
H 4.5615649078 1.5563472187 0.5579938712
H 5.7544657725 0.2890215048 0.2693047935
H 4.3348882159 -0.0496425966 1.2537935968
H 4.0470414443 -1.0136311727 -1.0131246312
H 4.3886969257 0.5565362314 -1.7383386204
H 2.0195330774 0.2261218708 -1.8188736974
H 2.3413376522 1.4861352192 -0.6287465245
H 2.0367534198 -0.1479326671 1.2066332342
H 1.8152767457 -1.4455941205 0.0323251034
H -0.2013842415 -0.2927773564 -0.8508974407
H 0.0225448455 1.0049211116 0.3260692853
H -0.1823235437 -0.6757633326 2.1723951097
H -0.5109752764 -1.9269724258 0.9765300390
H -2.5424228603 -1.0344324079 2.0880678503
H -2.2040245596 0.5644071093 1.4413492074
H -2.3246821849 -1.6361436598 -0.5776992762
H -3.8448696696 -1.2954615280 0.2335043463
H -2.2091720459 0.8829881199 -1.1131194552
H -3.4423030881 -0.0616731318 -1.9458808863
H -5.1580304096 0.7191935571 -0.3354543484
H -3.9441795006 1.6637813491 0.5242547663
H -4.3705553308 2.0817236096 -1.1335650798
32
CONF514
C 2.8863491135 1.7315390098 -0.2802024530
C 3.6131588307 0.4516905116 0.1215971828
C 3.0047977139 -0.8166624138 -0.4952468312
C 2.0961694792 -1.6036652862 0.4530440990
C 0.8278752152 -0.8777416978 0.9030124277
C -0.1662819993 -0.6358204952 -0.2306396469
C -1.4437631665 0.0367997682 0.2675802380
C -2.4439281473 0.2629785262 -0.8644986007
C -3.6869825545 1.0419127047 -0.4320171746
C -4.5720275410 0.2713988298 0.5414328795
H 2.9199039137 1.8617860661 -1.3599757695
H 3.3609220216 2.5948770144 0.1815629553
H 1.8452332738 1.7090636074 0.0284250466
H 3.6155310385 0.3605526017 1.2096164710
H 4.6542526964 0.5406555515 -0.1965768528
H 3.8128107399 -1.4877300707 -0.7956461168
H 2.4553905464 -0.5542117544 -1.4000344135
H 2.6753100676 -1.8718960182 1.3404664545
H 1.8066705039 -2.5346620079 -0.0414698701
H 1.0926716729 0.0726749024 1.3685062206
H 0.3398420326 -1.4870525243 1.6685617027
H -0.4199411795 -1.5917605677 -0.6955220246
H 0.2896065918 -0.0067719192 -0.9970720654
H -1.8952113247 -0.5875068965 1.0405251289
H -1.1917797960 0.9984179078 0.7221554829
H -1.9464338470 0.8173893416 -1.6644226933
H -2.7490117783 -0.7028444963 -1.2741790606
H -3.3788389937 1.9844351774 0.0262887938
H -4.2716851976 1.2837085358 -1.3227753234
H -4.0544949542 0.0906021661 1.4796222504
H -5.4756973376 0.8367481564 0.7566886237
H -4.8598620444 -0.6870663129 0.1151844870
32
CONF667
C 3.0903038570 0.0606038353 -1.9790435193
C 3.4934583042 -0.4396111961 -0.5961130557
C 2.6403144837 0.1484923856 0.5288459535
C 1.1960514242 -0.3488012570 0.5158548130
C 0.3985095393 0.2154753263 1.6911702931
C -1.0624811061 -0.2543324167 1.7328389116
C -2.0633010916 0.7323376783 1.1255603753
C -1.9264094120 0.9797023508 -0.3777513051
C -2.1565566580 -0.2504933023 -1.2575494839
C -3.5768116968 -0.7971289828 -1.1665606516
H 3.1210216304 1.1474980890 -2.0125431106
H 2.0853058041 -0.2640571641 -2.2349199645
H 3.7726804473 -0.3251954021 -2.7327077107
H 4.5375132476 -0.1721840309 -0.4167175336
H 3.4227535740 -1.5293447531 -0.5690319894
H 2.6473201091 1.2384925078 0.4514674629
H 3.0933773319 -0.1155394835 1.4880125924
H 1.1938004974 -1.4404937450 0.5726256113
H 0.7222492017 -0.0632029572 -0.4220188115
H 0.4276064969 1.3067965980 1.6568539777
H 0.8980283866 -0.0904825624 2.6138501305
H -1.3531168912 -0.4017047030 2.7757661919
H -1.1482644175 -1.2229702303 1.2386531900
H -3.0722832939 0.3715940852 1.3350405890
H -1.9534437922 1.6920694917 1.6375773208
H -2.6527097017 1.7464853685 -0.6608992929
H -0.9343663242 1.3846042399 -0.5848142164
H -1.9535746806 0.0307364164 -2.2941936169
H -1.4499672887 -1.0373543440 -0.9893641805
H -4.3004526551 -0.0148263462 -1.3853954317
H -3.7161936649 -1.6037311607 -1.8826683173
H -3.7814655647 -1.1882780623 -0.1735378132
32
CONF443
C 2.8092431990 -0.5430879403 1.8229603702
C 3.5754798533 -0.7260230891 0.5181974234
C 2.7101645993 -0.5459895226 -0.7311114452
C 2.1673328937 0.8798443608 -0.9089155316
C 0.7070558694 1.0459336798 -0.4803894333
C -0.2688341737 0.4450596564 -1.4908814371
C -1.7352242072 0.6404037718 -1.1023484549
C -2.1580391517 -0.1872013754 0.1099313112
C -3.6491062099 -0.0415880140 0.4065805192
C -4.0706341984 -0.8662056987 1.6172233908
H 3.4567603020 -0.7524505715 2.6716088646
H 1.9609984859 -1.2230805451 1.8641140642
H 2.4439636062 0.4758639854 1.9190215509
H 4.0033416789 -1.7315583625 0.4988657969
H 4.4054608610 -0.0161339040 0.4843064529
H 1.8806340729 -1.2534343866 -0.6896609213
H 3.3183000841 -0.8104469424 -1.5987819381
H 2.2492558437 1.1736944825 -1.9578440778
H 2.7894550362 1.5691837214 -0.3344527692
H 0.4869342416 2.1117141217 -0.3786024122
H 0.5601001938 0.5811402983 0.4936456756
H -0.0715480461 -0.6224216694 -1.6081531879
H -0.0984195420 0.9177013788 -2.4616699924
H -1.9168637980 1.6985355334 -0.8989039101
H -2.3620200870 0.3569816721 -1.9517853016
H -1.9299657799 -1.2397119112 -0.0757227784
H -1.5919125955 0.1262569371 0.9886796420
H -3.8782501499 1.0112305138 0.5867662437
H -4.2235194397 -0.3593965596 -0.4667427666
H -3.5239359312 -0.5495195870 2.5026738915
H -5.1342444493 -0.7482392297 1.8093614619
H -3.8665163606 -1.9212493337 1.4484651535
32
CONF504
C 2.9477134415 0.3844818385 1.6790811653
C 3.5919513517 -0.1107532473 0.3878352192
C 2.7108285788 -1.0932589939 -0.3979866921
C 1.9605153173 -0.4628678102 -1.5743078448
C 0.9267853528 0.6003657859 -1.2016885532
C -0.2652217461 0.0421019131 -0.4269691092
C -1.3042177823 1.1249884353 -0.1419145755
C -2.4784855969 0.6348280793 0.7062440670
C -3.3753599320 -0.3677429864 -0.0177544909
C -4.6004899195 -0.7283921220 0.8145590537
H 2.7429602389 -0.4522454197 2.3439374116
H 2.0126859511 0.9009631793 1.4824239098
H 3.6158911779 1.0720724264 2.1935039260
H 4.5325711708 -0.6020328483 0.6467275802
H 3.8383423222 0.7427576146 -0.2469873216
H 2.0015070547 -1.5689021080 0.2801925376
H 3.3416694637 -1.8855338566 -0.8076630275
H 1.4559451769 -1.2595847612 -2.1273254000
H 2.6938128326 -0.0121329836 -2.2481135205
H 0.5570852877 1.0545282932 -2.1250902926
H 1.4046795180 1.3920763369 -0.6228220113
H 0.0718014443 -0.3816611223 0.5204865787
H -0.7187089847 -0.7612962350 -1.0101602695
H -0.8143421338 1.9486390418 0.3842542422
H -1.6838443625 1.5202899673 -1.0873421211
H -2.0968810051 0.1806085647 1.6238105210
H -3.0842085044 1.4980062177 0.9937500915
H -3.6973228930 0.0613143068 -0.9694734967
H -2.8125074584 -1.2767724757 -0.2350859484
H -4.2998770092 -1.1678010909 1.7631429125
H -5.1952198035 0.1585415603 1.0221330930
H -5.2247883624 -1.4448705913 0.2861461316
32
CONF550
C 4.2751419327 0.1213981338 1.1369560114
C 3.0538853486 -0.7899020927 1.0812341872
C 1.8230130524 -0.1205000873 0.4659082411
C 1.9666897060 0.1331340740 -1.0328312336
C 0.7595170781 0.8353479204 -1.6587701637
C -0.5348195674 0.0084991651 -1.6336079824
C -1.5017373549 0.4309535869 -0.5277707243
C -2.7522092920 -0.4462964189 -0.5089123044
C -3.7989687443 0.0107295317 0.5081966121
C -3.3531280264 -0.1770134621 1.9541533123
H 4.0411549229 1.0366995844 1.6762242378
H 4.6125951877 0.3865267549 0.1385620569
H 5.0943038392 -0.3785237855 1.6485267653
H 2.8060355749 -1.1037655567 2.0980883489
H 3.2973623206 -1.6882105156 0.5091632019
H 1.6371354987 0.8274401885 0.9766794970
H 0.9617208459 -0.7686347345 0.6359626935
H 2.1300505046 -0.8197636674 -1.5426502688
H 2.8460876286 0.7557251707 -1.2082220603
H 1.0147475598 1.0674355689 -2.6950034822
H 0.5926813566 1.7851977518 -1.1464457362
H -0.2893231558 -1.0488785101 -1.5144854268
H -1.0496035303 0.1117362750 -2.5917177083
H -0.9991434413 0.3757524271 0.4374200467
H -1.7968639939 1.4706576843 -0.6904975519
H -3.2030683308 -0.4333130086 -1.5046465723
H -2.4665411334 -1.4783285288 -0.2912759612
H -4.0331199994 1.0634223101 0.3341603828
H -4.7150005416 -0.5621749429 0.3455542421
H -3.0837227470 -1.2151222768 2.1360388553
H -2.4936081851 0.4475740776 2.1818264680
H -4.1576958562 0.0928715116 2.6341538033
32
CONF499
C 4.3534288266 1.0271040143 0.6503692011
C 3.5397093443 0.7301440573 -0.6045152342
C 2.0781245727 0.3841329008 -0.3123869972
C 1.9075699902 -0.9702585938 0.3719910617
C 0.4502469925 -1.3139906715 0.6889453114
C -0.4272118058 -1.5131973690 -0.5561288434
C -1.3359896132 -0.3226930326 -0.8729076891
C -2.5301648184 -0.2252433281 0.0745188764
C -3.4099055552 0.9836396788 -0.2365142033
C -4.6073364091 1.0722270788 0.7023332765
H 4.4289860869 0.1486065907 1.2855546650
H 3.8893140085 1.8274735503 1.2225337479
H 5.3604649458 1.3370976484 0.3812648853
H 4.0020774358 -0.0956065993 -1.1501989404
H 3.5650447346 1.6090226035 -1.2532430200
H 1.5323915637 0.3758796691 -1.2575544548
H 1.6450087568 1.1643049691 0.3183673694
H 2.4673287762 -0.9720455249 1.3092190749
H 2.3301341591 -1.7503050919 -0.2664768921
H 0.0306262622 -0.5233889547 1.3129270556
H 0.4459473550 -2.2307042221 1.2823337913
H -1.0588751691 -2.3939362532 -0.4213088685
H 0.2165202805 -1.7102119754 -1.4156880604
H -0.7620631736 0.6039315774 -0.8235747751
H -1.7105122336 -0.4248611429 -1.8946464130
H -3.1284768194 -1.1361085956 -0.0066033565
H -2.1793932422 -0.1545638896 1.1061625107
H -2.8131507445 1.8946830577 -0.1503369065
H -3.7619657511 0.9165780306 -1.2685677573
H -5.2251253458 0.1811487425 0.6158484639
H -4.2759459259 1.1592563236 1.7347375168
H -5.2184584729 1.9390562320 0.4629532393
32
CONF556
C 4.2742264776 0.1019906584 1.1365334077
C 3.0475303781 -0.8012199405 1.0709985685
C 1.8200464467 -0.1175561861 0.4648418371
C 1.9664481886 0.1612043671 -1.0291654081
C 0.7543183732 0.8623326124 -1.6468356544
C -0.5321209691 0.0229241180 -1.6336463953
C -1.5060985251 0.4265347738 -0.5268140429
C -2.7328753175 -0.4832904543 -0.4988861639
C -3.8019667401 -0.0320600442 0.4971925616
C -3.3520563943 -0.1355064924 1.9503924396
H 4.6150955536 0.3732299962 0.1409464084
H 5.0892850026 -0.4073424096 1.6454173829
H 4.0449224587 1.0141556460 1.6830889889
H 2.7982703934 -1.1256618248 2.0841998973
H 3.2853236193 -1.6941328064 0.4881604745
H 1.6357594991 0.8220718846 0.9913194780
H 0.9568847579 -0.7662328834 0.6226220429
H 2.1389307278 -0.7820922441 -1.5536539679
H 2.8410797131 0.7937960043 -1.1921271790
H 1.0084549804 1.1111906385 -2.6794050883
H 0.5786453213 1.8033531791 -1.1213582651
H -0.2764408853 -1.0329260363 -1.5223952890
H -1.0450313154 0.1286653853 -2.5924403541
H -0.9990962365 0.3887606715 0.4368894833
H -1.8280711765 1.4575255420 -0.6936644006
H -3.1746883883 -0.5061731448 -1.4985011441
H -2.4211095123 -1.5016878211 -0.2543662027
H -4.0845366234 1.0000794399 0.2777385633
H -4.6896970419 -0.6537278650 0.3581465238
H -3.0212534551 -1.1474111941 2.1740626497
H -2.5328972683 0.5486956528 2.1545804045
H -4.1744535876 0.1120683429 2.6174976821
32
CONF437
C 5.0771066565 0.0205122106 -0.2040879873
C 3.5765505218 0.1213786536 -0.4529001805
C 2.7901953921 0.1510654458 0.8563492444
C 1.2886980839 0.3634497884 0.6588339427
C 0.6004815960 -0.8150300926 -0.0287801253
C -0.9254314485 -0.7071614169 -0.0174263091
C -1.4469203305 0.4556309688 -0.8591466327
C -2.9635731213 0.4428224423 -1.0633036598
C -3.7762037865 0.6544036844 0.2223596359
C -4.2767997950 -0.6457305237 0.8436332766
H 5.6205597516 -0.0035686691 -1.1455078688
H 5.3101394838 -0.8856135471 0.3508032439
H 5.4266047415 0.8738210801 0.3730997248
H 3.2569920638 -0.7305934589 -1.0549057826
H 3.3631883206 1.0302566155 -1.0202829303
H 3.1784937523 0.9627331083 1.4769381850
H 2.9554434193 -0.7841150427 1.3969683940
H 1.1339965762 1.2726488346 0.0752020715
H 0.8273273898 0.5136700376 1.6382427137
H 0.8881472727 -1.7356946504 0.4854427836
H 0.9427217067 -0.8908232708 -1.0624526897
H -1.2635509603 -0.5956722407 1.0142231163
H -1.3415225225 -1.6382063972 -0.4104227965
H -1.1637702710 1.4014291290 -0.3934446625
H -0.9690639865 0.4151177714 -1.8416827967
H -3.2056814000 1.2395423693 -1.7704008351
H -3.2577306449 -0.5016912878 -1.5257160073
H -3.1685093932 1.1964107101 0.9495931770
H -4.6443994506 1.2781875639 -0.0019221837
H -3.4519017078 -1.3046633573 1.0979851011
H -4.8413933179 -0.4370668020 1.7498688927
H -4.9299834361 -1.1687651896 0.1482994138
32
CONF750
C 4.1688499847 -0.3722048970 -0.9215155638
C 2.8140180882 -1.0715388800 -0.9096946892
C 1.6693311269 -0.1673757733 -0.4471799940
C 1.7190412765 0.1460821291 1.0461326394
C 0.6457390665 1.1347426506 1.5077919757
C -0.7953332066 0.6256638384 1.3559794411
C -1.4952591229 1.1576844649 0.1054739300
C -2.9661443065 0.7452639750 0.0156872394
C -3.2099881049 -0.7569454648 -0.1433800948
C -2.6522673701 -1.3248389467 -1.4436088991
H 4.1297031548 0.5189765471 -1.5441271436
H 4.9316622616 -1.0365511616 -1.3206575112
H 4.4679061504 -0.0784484200 0.0811297825
H 2.8630769436 -1.9492495678 -0.2611184278
H 2.5935442702 -1.4209714588 -1.9212886662
H 0.7267247777 -0.6693495133 -0.6717406856
H 1.6974905165 0.7658470088 -1.0146298204
H 2.6940973387 0.5718452332 1.2906983549
H 1.6156444898 -0.7846881455 1.6098543545
H 0.7605967479 2.0705537231 0.9565006948
H 0.8350066065 1.3546616406 2.5609226422
H -1.3800349844 0.9366867462 2.2252213998
H -0.7875272962 -0.4648608575 1.3439540970
H -1.4533887144 2.2500562346 0.1252189201
H -0.9674577920 0.8309234383 -0.7895144747
H -3.4803284250 1.0862937344 0.9180702515
H -3.4183397925 1.2612505806 -0.8351641517
H -2.7790741690 -1.2934454478 0.7033385288
H -4.2891300533 -0.9279501931 -0.1203441233
H -1.5669166341 -1.2715124550 -1.4615043423
H -2.9398182388 -2.3679922444 -1.5525867017
H -3.0377679867 -0.7707836464 -2.2966891364
32
CONF697
C 4.1591174497 0.9961292522 0.3012528648
C 3.4401518596 -0.0492279602 -0.5439029332
C 2.6067911114 -1.0272943228 0.2860024434
C 1.4684942532 -0.3897925664 1.0867030555
C 0.4371341726 0.3750753918 0.2550057710
C -0.2924939313 -0.5041573641 -0.7606954002
C -1.4586486151 0.2177242981 -1.4523473501
C -2.8352182047 -0.1170054935 -0.8741791849
C -3.0379006149 0.3422481857 0.5676947418
C -4.4643469385 0.0852289475 1.0408323798
H 4.8112800740 1.6019686088 -0.3236288966
H 4.7657976226 0.5147980152 1.0652798956
H 3.4493890173 1.6576594007 0.7907054817
H 4.1839355367 -0.6256630399 -1.0997732458
H 2.8039398943 0.4499312515 -1.2763774282
H 3.2692028735 -1.5383923893 0.9896693220
H 2.1944941314 -1.7873904040 -0.3804133413
H 1.8907332421 0.2905536943 1.8286875153
H 0.9548407472 -1.1852351869 1.6333319192
H 0.9234473946 1.1994879442 -0.2697405760
H -0.2895887404 0.8140028014 0.9406690906
H -0.6649719327 -1.4012879774 -0.2615626654
H 0.4235045219 -0.8278130373 -1.5177700220
H -1.2993763279 1.2969393562 -1.3997676914
H -1.4716670709 -0.0562230454 -2.5096376689
H -3.5954937966 0.3577668122 -1.5002979514
H -2.9934154795 -1.1969029838 -0.9310704581
H -2.3457796258 -0.1881240354 1.2233397474
H -2.8204692542 1.4105495144 0.6394884723
H -5.1758533677 0.6250619313 0.4196454854
H -4.6983494128 -0.9756564053 0.9845114205
H -4.5906475622 0.4109196344 2.0705299443
32
CONF438
C 4.2660893232 0.6728077255 -0.8287433579
C 3.7750447868 -0.6491696585 -0.2471975354
C 2.9646621877 -0.4846833359 1.0466281107
C 1.4475790163 -0.4868005702 0.8453998420
C 0.9256526681 0.7108080754 0.0543435710
C -0.6003510913 0.8163233959 0.0696211229
C -1.2857379553 -0.3274820986 -0.6767798028
C -2.7875288984 -0.1089480627 -0.8645472533
C -3.5737886159 -0.1409214391 0.4446578507
C -5.0752580999 -0.0432394805 0.2003945683
H 4.8323095804 0.4954537933 -1.7406066099
H 4.9153555884 1.1792949981 -0.1177159153
H 3.4368709131 1.3334539361 -1.0636126868
H 4.6479294850 -1.2739225178 -0.0446596182
H 3.1689522651 -1.1720986726 -0.9896581481
H 3.2618876365 0.4406674518 1.5445105442
H 3.2061314689 -1.3086814537 1.7220140502
H 0.9718301640 -0.4868646429 1.8298512137
H 1.1622034496 -1.4119978987 0.3412248614
H 1.2635626923 0.6438271136 -0.9811660782
H 1.3412467648 1.6242916369 0.4870485475
H -0.8888700509 1.7609432576 -0.3985752871
H -0.9439413620 0.8400207654 1.1053395582
H -0.8232175970 -0.4274071971 -1.6620780516
H -1.1293534164 -1.2644648980 -0.1393297177
H -2.9546370810 0.8496722523 -1.3618549174
H -3.1741348603 -0.8921910978 -1.5216461241
H -3.3520484293 -1.0706612094 0.9737248339
H -3.2615299894 0.6881114164 1.0814709888
H -5.4176174503 -0.8764650783 -0.4094582252
H -5.6182706933 -0.0604910221 1.1422466090
H -5.3163327062 0.8817401842 -0.3187554533
32
CONF708
C 3.9111897636 1.0283254450 -0.3204643374
C 3.8346596391 -0.4933164930 -0.2821309376
C 2.4568074006 -1.0555132006 -0.6392033515
C 1.3495629699 -0.6874158285 0.3597372298
C 0.4833963826 0.4814919831 -0.1100262379
C -0.4848190948 0.9843987378 0.9622826990
C -1.5180295848 -0.0401025510 1.4378546440
C -2.4299577374 -0.5963310994 0.3431348843
C -3.2883139013 0.4694164834 -0.3352627224
C -4.2891375045 -0.1493906182 -1.3044674341
H 3.6017227182 1.4007474502 -1.2947502796
H 4.9319941736 1.3567972670 -0.1373081905
H 3.2730578168 1.4691193846 0.4406090904
H 4.1139985498 -0.8425984035 0.7148375620
H 4.5638175155 -0.8998997625 -0.9876306945
H 2.5481741320 -2.1430099777 -0.6870949515
H 2.1755292298 -0.7099901185 -1.6362921044
H 1.7983458117 -0.4405912994 1.3243783085
H 0.7074861917 -1.5560903872 0.5137806196
H -0.0738681105 0.1800239278 -0.9988313901
H 1.1259962047 1.3141180080 -0.3999188062
H -1.0049662807 1.8638531579 0.5776950567
H 0.0947617836 1.3065390041 1.8316479019
H -1.0013386767 -0.8735645510 1.9176431059
H -2.1400387099 0.4369551145 2.1999410589
H -1.8332307214 -1.1134917426 -0.4102616942
H -3.0910592156 -1.3390834155 0.7976539353
H -3.8258539586 1.0372793449 0.4278809509
H -2.6493659534 1.1656400656 -0.8807734707
H -4.8840721172 0.6231783530 -1.7856510466
H -3.7714757988 -0.7151735018 -2.0760575346
H -4.9618062087 -0.8243708704 -0.7796839862
32
CONF535
C 4.0994196159 0.8211640396 1.3346649728
C 3.9696505088 0.4776570104 -0.1451255119
C 2.9236212649 -0.6026250882 -0.4239047667
C 1.4912286861 -0.1486344813 -0.1476660914
C 0.4790699520 -1.2165121214 -0.5583720618
C -0.9654943733 -0.8562825569 -0.2070658883
C -1.4867178704 0.3505325556 -0.9851288853
C -3.0001854646 0.5519710007 -0.8801343392
C -3.4982714711 0.8977786816 0.5304668568
C -4.0182617241 -0.3102841750 1.3032108558
H 4.3157715009 -0.0737537570 1.9139708096
H 3.1827797322 1.2646444783 1.7139218403
H 4.9080299405 1.5322504873 1.4866645113
H 4.9373780633 0.1258924543 -0.5105927337
H 3.7133448464 1.3793680649 -0.7059452530
H 3.1472098348 -1.4842304092 0.1816812265
H 2.9984553213 -0.8974385315 -1.4737890846
H 1.2995471778 0.7725414412 -0.7007360578
H 1.3691297367 0.0645553393 0.9156311729
H 0.7366210679 -2.1525918776 -0.0560220309
H 0.5550926704 -1.3902170758 -1.6347161484
H -1.0301008179 -0.6599687182 0.8645222252
H -1.5989327563 -1.7180377146 -0.4315000321
H -0.9874894283 1.2563842219 -0.6359684296
H -1.2331257602 0.2193544765 -2.0405157718
H -3.2695107408 1.3643105141 -1.5591537329
H -3.5093131670 -0.3475278302 -1.2325534151
H -2.6919494079 1.3721494194 1.0932183516
H -4.3100129811 1.6247510662 0.4537409875
H -3.2457553567 -1.0637260041 1.4244166335
H -4.3597443910 -0.0070361165 2.2906040433
H -4.8566285187 -0.7617818723 0.7768920083
32
CONF757
C 4.2631311399 -0.6059920881 0.6056331575
C 2.8354465893 -1.0293352742 0.9331234222
C 1.8258419205 -0.6470760517 -0.1510152396
C 1.5706609039 0.8566770929 -0.2291164230
C 0.6178587938 1.2526519174 -1.3593447879
C -0.8009187464 0.6899208544 -1.2472734391
C -1.5467135729 1.1788901557 -0.0059138722
C -3.0146086699 0.7293130014 0.0369736070
C -3.2732563865 -0.4947428992 0.9183637911
C -2.5917958943 -1.7660331425 0.4271065595
H 4.9469140945 -0.9646247798 1.3713711593
H 4.3496616620 0.4760916824 0.5554769932
H 4.5711263969 -1.0211140015 -0.3515456590
H 2.5316269492 -0.5799305987 1.8814226826
H 2.8138531984 -2.1143331892 1.0605721847
H 0.8860237223 -1.1592749525 0.0628424889
H 2.1846309819 -1.0038983856 -1.1194161704
H 2.5179470336 1.3717950972 -0.3992090090
H 1.1768716459 1.2065798843 0.7268011589
H 1.0467935186 0.9194248007 -2.3078986987
H 0.5578183023 2.3437711813 -1.3916594394
H -0.7668248829 -0.3986546746 -1.2620356108
H -1.3574558902 1.0078799532 -2.1331307110
H -1.0416078624 0.8271307036 0.8943697703
H -1.5045200953 2.2708069651 0.0025645850
H -3.6256699467 1.5475194152 0.4247673174
H -3.3608781284 0.5192661457 -0.9772945365
H -2.9409501939 -0.2786021617 1.9365781778
H -4.3520275626 -0.6662714987 0.9555532646
H -2.8595617964 -1.9666988931 -0.6079153598
H -1.5108661319 -1.6789479373 0.4968191656
H -2.9001656911 -2.6155393248 1.0325832587
32
CONF718
C 4.0022058763 0.5403514928 0.7656657350
C 3.1081528959 -0.6765490463 0.9748846258
C 2.4857869047 -1.1997256185 -0.3211479325
C 1.5616696680 -0.2140806460 -1.0388874242
C 0.3405916130 0.1863902132 -0.2131451589
C -0.6324080151 1.0383514228 -1.0280926991
C -1.8685431946 1.4905962267 -0.2370552636
C -3.1212502070 0.6469583014 -0.4879883704
C -3.0346186630 -0.8121158818 -0.0389787509
C -2.9149167113 -0.9686783730 1.4726629312
H 4.4999264211 0.8059222972 1.6954520998
H 3.4228229973 1.3984847459 0.4357018103
H 4.7626452615 0.3287240865 0.0170614984
H 2.3208046226 -0.4317566823 1.6894580064
H 3.7044713109 -1.4813246022 1.4119351411
H 1.9193314256 -2.1058585507 -0.0914096256
H 3.2905674527 -1.4797274459 -1.0056838711
H 1.2190307985 -0.6846737341 -1.9644019229
H 2.1203089903 0.6803300152 -1.3199153591
H 0.6593635996 0.7592383202 0.6598308404
H -0.1572634681 -0.7159826239 0.1439084517
H -0.9506247727 0.4814743431 -1.9121917091
H -0.0909221548 1.9192797356 -1.3816024279
H -1.6369438173 1.4994359838 0.8287102421
H -2.1123927623 2.5174545596 -0.5191040790
H -3.9615299114 1.1186554475 0.0284717397
H -3.3425475778 0.6682650500 -1.5582738960
H -3.9409745005 -1.3238376038 -0.3728795380
H -2.1899009335 -1.2980969819 -0.5288427607
H -1.9898960800 -0.5322553544 1.8399393726
H -3.7477439046 -0.4774323274 1.9713056243
H -2.9246718740 -2.0216769223 1.7448734460
32
CONF680
C 2.9310418543 0.1652640812 -1.8923292748
C 2.8457150615 -0.8810206997 -0.7855030043
C 2.8718985208 -0.2793958786 0.6273677251
C 1.4912004833 -0.1238585733 1.2688865136
C 0.5974399401 0.8966308457 0.5684728353
C -0.6920625439 1.1918090373 1.3369748989
C -1.6240770498 -0.0092430542 1.5183221542
C -2.0792459829 -0.6780261775 0.2201483096
C -2.8836329128 0.2449490230 -0.6928340203
C -3.4246017825 -0.5003842648 -1.9076804175
H 3.8642631512 0.7192548634 -1.8158634696
H 2.1092910548 0.8727323701 -1.8313588624
H 2.8990377567 -0.3150526082 -2.8680238666
H 3.6905791982 -1.5638952395 -0.8997401453
H 1.9358790534 -1.4716184639 -0.9106585658
H 3.3685056392 0.6926801060 0.5975684913
H 3.4648882846 -0.9269346061 1.2773280548
H 1.6274930869 0.1878586488 2.3080697913
H 0.9994434021 -1.0984099567 1.2790985339
H 0.3479899770 0.5440694410 -0.4320099534
H 1.1513135790 1.8330830622 0.4618357950
H -1.2314991007 1.9879537699 0.8200463808
H -0.4308896256 1.5695191812 2.3290895711
H -1.1267821372 -0.7570984042 2.1390404805
H -2.5083381966 0.3287359481 2.0651359999
H -1.2139102769 -1.0597282701 -0.3244351173
H -2.7010407609 -1.5384091030 0.4816358770
H -3.7160108667 0.6721486576 -0.1285722021
H -2.2540677073 1.0687504076 -1.0329079919
H -2.6079763542 -0.9219805776 -2.4897716512
H -4.0778626901 -1.3132733469 -1.5977553087
H -3.9916136270 0.1711439967 -2.5478914588
32
CONF426
C 3.7828131535 1.6238414186 -0.9186860235
C 3.3220421465 0.3885252017 -0.1538576200
C 2.0229140969 -0.1788277892 -0.7233826218
C 1.5267155004 -1.4038271075 0.0487892581
C 0.8912305120 -1.0674362343 1.4064065166
C -0.6382164885 -1.1151192121 1.3994850908
C -1.2815469396 -0.0571680862 0.5060805977
C -2.8058965369 -0.0977428435 0.5983824203
C -3.4933699041 0.9825293558 -0.2382215572
C -3.3540025866 0.7588115090 -1.7400459489
H 4.7123747850 2.0064027619 -0.5041221256
H 3.0321363509 2.4090862938 -0.8618994513
H 3.9468786910 1.3835440195 -1.9668993881
H 3.1816802327 0.6480233708 0.8972399123
H 4.0988490484 -0.3783171861 -0.2017554792
H 2.1952045594 -0.4612774446 -1.7650652798
H 1.2573740511 0.5986428484 -0.7142892953
H 2.3746083893 -2.0760455179 0.1977698514
H 0.7969971380 -1.9404090585 -0.5606480443
H 1.2110280257 -0.0747935056 1.7273012417
H 1.2436388631 -1.7787325611 2.1561819146
H -0.9939558018 -0.9737638733 2.4236639045
H -0.9648298233 -2.1061310772 1.0743932004
H -0.9307342421 0.9326341376 0.8088933432
H -0.9758250224 -0.2234758441 -0.5266883588
H -3.1607739465 -1.0801523168 0.2775617664
H -3.0968648857 0.0311197929 1.6441685946
H -4.5555862228 0.9962810298 0.0172324126
H -3.0786360070 1.9585280265 0.0238739260
H -3.7345218812 -0.2228309594 -2.0136857765
H -3.9187450638 1.5103143782 -2.2867487566
H -2.3147639056 0.8244819707 -2.0505021192
32
CONF533
C 4.3591246223 0.4422420228 -1.2457989261
C 3.8298977505 -0.5446737212 -0.2108119064
C 2.3020755348 -0.6072382721 -0.1587921951
C 1.6686753928 0.6555364577 0.4227214570
C 0.1391824924 0.6166099085 0.4202696225
C -0.4402528345 -0.4118124171 1.3891933414
C -1.9582795381 -0.3142409350 1.5577737090
C -2.7550020604 -0.6512415409 0.2892269899
C -3.2084455993 0.5805853482 -0.4937545676
C -3.9640531827 0.1936046541 -1.7600010240
H 4.0810331566 1.4620411814 -0.9935974389
H 3.9595572645 0.2094225261 -2.2304540585
H 5.4442518941 0.3903453941 -1.2947475425
H 4.2121249811 -0.2760906958 0.7766112669
H 4.2098311542 -1.5403500119 -0.4517910460
H 2.0139168138 -1.4647056482 0.4520016392
H 1.9159692374 -0.7721328134 -1.1676222648
H 1.9881070437 1.5183728446 -0.1644096767
H 2.0259212082 0.7994015767 1.4454627606
H -0.2039951290 0.4018014124 -0.5930341865
H -0.2330560171 1.6056004744 0.6995694811
H 0.0240118476 -0.2679037800 2.3685257778
H -0.1906107204 -1.4190944628 1.0507115471
H -2.2456138933 -1.0069083116 2.3519308989
H -2.2205029240 0.6912150327 1.8941833328
H -2.1514928342 -1.2897912600 -0.3592474512
H -3.6457225961 -1.2214733105 0.5635422436
H -3.8572276161 1.1877104440 0.1421106620
H -2.3454433419 1.1906970329 -0.7618854353
H -4.2880384356 1.0806057880 -2.2988958698
H -3.3281843752 -0.3950136404 -2.4177283574
H -4.8421589519 -0.3995858132 -1.5140920199
32
CONF664
C 3.0937298660 -0.0212857307 1.9877658474
C 3.5211632477 -0.4014114612 0.5743168223
C 2.6376336288 0.2175255389 -0.5098776587
C 1.2133760632 -0.3345732035 -0.5191134658
C 0.3991732450 0.2323831337 -1.6817673929
C -1.0480506620 -0.2791702498 -1.7285010764
C -2.0780442210 0.6912787602 -1.1446033859
C -1.9461261633 0.9734018365 0.3529816194
C -2.1694665999 -0.2386502021 1.2592728430
C -3.5898746382 -0.7881034466 1.1895479461
H 3.0642339916 1.0606465766 2.0969053302
H 3.7979604750 -0.4202954333 2.7140273887
H 2.1088212463 -0.4183589614 2.2182047665
H 3.5078464371 -1.4888573413 0.4712071927
H 4.5495721989 -0.0677804250 0.4163623310
H 3.0941045251 0.0259786613 -1.4845588729
H 2.6038545226 1.3008339471 -0.3704224043
H 0.7238695039 -0.0943992855 0.4237731597
H 1.2528652875 -1.4234312411 -0.6077479065
H 0.9059277084 -0.0378246037 -2.6114920296
H 0.3971785718 1.3230007148 -1.6229981592
H -1.1117393364 -1.2402526410 -1.2165545750
H -1.3269786198 -0.4540614694 -2.7702087533
H -1.9941525501 1.6423845350 -1.6771370812
H -3.0764081451 0.2982729975 -1.3463770645
H -0.9567474880 1.3885972310 0.5523959446
H -2.6778949795 1.7412270009 0.6184429258
H -1.4641376716 -1.0304373265 1.0023882912
H -1.9598355622 0.0639402760 2.2885174964
H -3.7232174203 -1.5807875725 1.9221355629
H -4.3125872639 -0.0022655065 1.3986773941
H -3.8019141853 -1.1985966975 0.2059042215
32
CONF398
C 4.8258783659 -0.6323378749 -0.3455628548
C 3.3752428989 -0.2052372457 -0.5380088300
C 2.5037283678 -0.6283682368 0.6429750830
C 1.0187376329 -0.3188141070 0.4470453964
C 0.7146375559 1.1779065576 0.4317302842
C -0.7817427382 1.4986699959 0.4441090549
C -1.5220165901 1.0554645592 -0.8264546910
C -2.2894797576 -0.2603819605 -0.6763357781
C -3.5749580084 -0.1059742997 0.1345512567
C -4.3070322849 -1.4340322366 0.2884452527
H 4.8961176405 -1.7138485469 -0.2515062711
H 5.2374192572 -0.1837734206 0.5559490878
H 5.4325924768 -0.3207110564 -1.1923212747
H 2.9831007536 -0.6552049277 -1.4530682393
H 3.3357872074 0.8787936434 -0.6554003670
H 2.8600306882 -0.1323447648 1.5491874032
H 2.6183830200 -1.7053153977 0.7908758114
H 0.4591285908 -0.7799972370 1.2648852835
H 0.6832992232 -0.7722095829 -0.4873258804
H 1.1649510242 1.6362964382 -0.4506739096
H 1.1728802370 1.6356360756 1.3125152048
H -0.8886224607 2.5791660481 0.5615410251
H -1.2374163251 1.0320244068 1.3188555725
H -2.2342858352 1.8293610881 -1.1216085202
H -0.7999076774 0.9578166602 -1.6395452606
H -2.5500627856 -0.6324549533 -1.6704458035
H -1.6535668163 -1.0080412201 -0.2006931531
H -3.3422372437 0.2922989138 1.1240042116
H -4.2291124534 0.6135677436 -0.3635477221
H -5.2220405976 -1.3033081666 0.8610981886
H -4.5664825706 -1.8409632941 -0.6864840236
H -3.6789773371 -2.1573169388 0.8039859245
32
CONF543
C 3.3351231486 1.0901394050 -1.1914949536
C 3.8966055762 -0.1804478523 -0.5647807209
C 3.2465957274 -0.5525606614 0.7697305936
C 1.7529151921 -0.8938409202 0.6655354654
C 0.8430167879 0.2640556329 1.0765864597
C -0.6462803400 -0.0662393831 0.9551889855
C -1.1308844406 -0.1185909691 -0.4930311654
C -2.6109201133 -0.4823634064 -0.6221909201
C -3.5557334393 0.6069080699 -0.1177569322
C -5.0147698211 0.2427648915 -0.3675244058
H 3.8955036420 1.3450139042 -2.0883760019
H 3.4072696102 1.9222370037 -0.4945034707
H 2.2933104303 0.9576335519 -1.4704505373
H 4.9685325935 -0.0473418202 -0.3982111747
H 3.7746678356 -1.0108567967 -1.2644145459
H 3.3831022656 0.2687825625 1.4764037522
H 3.7838045715 -1.4159138854 1.1685455938
H 1.5295768766 -1.7438197195 1.3146131340
H 1.5283823388 -1.2008107832 -0.3566285394
H 1.0617798895 1.1452659127 0.4726118366
H 1.0606904841 0.5170599103 2.1174734755
H -1.2124740502 0.6970503781 1.4917664020
H -0.8437697180 -1.0268399067 1.4371590190
H -0.9569102615 0.8514126480 -0.9655290140
H -0.5478522009 -0.8625476802 -1.0391180203
H -2.8323340101 -0.6710743246 -1.6758126726
H -2.8030208128 -1.4084207100 -0.0750268759
H -3.4057614540 0.7606913300 0.9519765898
H -3.3243822770 1.5460262167 -0.6257484467
H -5.6731654065 1.0260869562 0.0000767028
H -5.1983747977 0.1102551451 -1.4315683825
H -5.2669778552 -0.6852850273 0.1407798698
32
CONF491
C 3.7197824977 1.4765951424 0.2446301291
C 4.0537824985 0.1267165142 -0.3791777787
C 2.8216317273 -0.7266565823 -0.6880979404
C 2.0462937072 -1.1709009718 0.5611167866
C 0.7856430664 -0.3475349876 0.8372647367
C -0.3583881389 -0.6830851547 -0.1177178262
C -1.5992856200 0.1625259646 0.1602542237
C -2.7438214281 -0.1775191613 -0.7922423364
C -3.9722603307 0.7148309653 -0.6085781371
C -4.6860991821 0.4890497682 0.7196701469
H 3.0419703645 2.0347694082 -0.3977399085
H 4.6258232993 2.0636805367 0.3776655758
H 3.2521442625 1.3497290998 1.2173323825
H 4.7145705118 -0.4275721938 0.2916616358
H 4.5990290449 0.2945851456 -1.3114273224
H 3.1567374020 -1.6097961606 -1.2361743795
H 2.1618637039 -0.1653890369 -1.3514927160
H 2.7081951680 -1.1127722163 1.4275299396
H 1.7501862112 -2.2168194428 0.4542582201
H 1.0140791281 0.7163470668 0.7626530099
H 0.4531263351 -0.5430658694 1.8599162653
H -0.6130544919 -1.7409833397 -0.0161717947
H -0.0390124344 -0.5214058122 -1.1493978730
H -1.9151793066 -0.0019841485 1.1917693184
H -1.3459860427 1.2203553737 0.0544476731
H -2.3858348245 -0.0717951731 -1.8196060382
H -3.0331276714 -1.2215610954 -0.6506573382
H -3.6705493416 1.7619692132 -0.6849744250
H -4.6724831442 0.5128680008 -1.4225781616
H -5.5912885014 1.0897905431 0.7676615930
H -4.9622598873 -0.5575333210 0.8284279395
H -4.0507015793 0.7670197730 1.5562044775
32
CONF412
C 4.7982816194 1.0049099795 0.0709124215
C 3.8929231607 -0.1432871109 -0.3594172157
C 2.4197594444 0.1666642820 -0.1018702088
C 1.5135205335 -0.9913771606 -0.5146258394
C 0.0228976950 -0.6718226040 -0.3898121813
C -0.4280619831 -0.4686404076 1.0552321522
C -1.9465594744 -0.3636587025 1.2133876459
C -2.5539166097 0.8856283231 0.5583070663
C -3.2026145158 0.6256385638 -0.8037079612
C -4.5343507444 -0.1075714616 -0.6862311508
H 4.5480731075 1.9117336575 -0.4752023162
H 5.8407660198 0.7637507958 -0.1218994924
H 4.6819429833 1.2030674127 1.1341422062
H 4.1701667050 -1.0482811455 0.1861596584
H 4.0394446409 -0.3417337341 -1.4237361932
H 2.1376737517 1.0620860597 -0.6611700457
H 2.2847727091 0.3802658183 0.9598217888
H 1.7476592346 -1.8673868877 0.0953055335
H 1.7283502033 -1.2488069148 -1.5550732388
H -0.5446833985 -1.5011318016 -0.8196781467
H -0.1970228796 0.2237919785 -0.9735181951
H 0.0306694885 0.4352652049 1.4601536326
H -0.0764044814 -1.3143188729 1.6522431260
H -2.4089361902 -1.2604746526 0.7981706911
H -2.1687816673 -0.3507963580 2.2825533657
H -3.3150237948 1.3090241779 1.2175689103
H -1.7728750127 1.6401141505 0.4442662124
H -3.3747713971 1.5844517364 -1.2987039067
H -2.5247963173 0.0463196458 -1.4314938573
H -4.4070733387 -1.0748395980 -0.2064885560
H -5.2373606367 0.4751416912 -0.0949003254
H -4.9658458634 -0.2703277253 -1.6711110547
32
CONF594
C 4.3161833571 -0.9188141447 -1.2720687777
C 3.6481600294 0.1482314596 -0.4127756394
C 2.2986147736 -0.3184832379 0.1290493261
C 1.6265553293 0.7568176242 0.9799629224
C 0.3483041350 0.2796556968 1.6721468026
C -0.7800122767 -0.1591739269 0.7356793213
C -1.2999683212 0.9682407980 -0.1524838992
C -2.4599844479 0.5493164768 -1.0588617218
C -3.7467653450 0.1777779604 -0.3055950063
C -3.9747521130 -1.3278058771 -0.2123968508
H 3.6882327801 -1.1700264682 -2.1239919810
H 4.4839896593 -1.8237813082 -0.6923322444
H 5.2750057259 -0.5659019201 -1.6439349096
H 3.5033402097 1.0540847480 -1.0061867453
H 4.3037545257 0.4032418661 0.4231931618
H 2.4444603981 -1.2175871902 0.7328182993
H 1.6542173240 -0.5819690647 -0.7113814597
H 1.4099005664 1.6277054771 0.3589158925
H 2.3287692837 1.0792017747 1.7534521001
H -0.0216340706 1.0885576764 2.3074914434
H 0.6001808142 -0.5607958487 2.3240578563
H -1.5975502788 -0.5284658332 1.3572741112
H -0.4408829331 -0.9866506167 0.1101033156
H -1.6202260065 1.8024735346 0.4769687068
H -0.4887778634 1.3275574029 -0.7886038155
H -2.6683110014 1.3823787503 -1.7338005372
H -2.1448717681 -0.2952322806 -1.6750273682
H -3.7153933557 0.6038867231 0.6990501048
H -4.6049334347 0.6204746719 -0.8157675127
H -3.1425501041 -1.8212719712 0.2820072897
H -4.8822254716 -1.5387781900 0.3493199390
H -4.0824840200 -1.7553052691 -1.2069681900
32
CONF508
C 4.3436215577 0.2846734015 1.1098439525
C 3.4346044143 -0.8517209096 0.6547692310
C 1.9746727017 -0.4285983414 0.4827212384
C 1.7585574586 0.5238320318 -0.6923543065
C 0.2909977015 0.9114947555 -0.8865221761
C -0.5581122043 -0.2180516654 -1.4701135048
C -2.0365412339 0.1629972049 -1.6359073060
C -2.9457566166 -0.3613198698 -0.5225120307
C -2.6469734572 0.2234808030 0.8557950075
C -3.6598643797 -0.2463133916 1.8940148937
H 5.3510869156 -0.0862534810 1.2835092283
H 3.9731233270 0.7188742191 2.0359613170
H 4.3967711828 1.0681997999 0.3586341754
H 3.4785364283 -1.6530387626 1.3962950655
H 3.8044511396 -1.2563684331 -0.2900909117
H 1.6293435684 0.0507469119 1.4020243649
H 1.3739636678 -1.3274815671 0.3316814675
H 2.1335045079 0.0594032729 -1.6077168984
H 2.3348602727 1.4346972789 -0.5219108501
H 0.2420961868 1.7637635506 -1.5691521982
H -0.1218416787 1.2340760625 0.0701058617
H -0.4874276468 -1.1035051480 -0.8373231545
H -0.1409225641 -0.4831039866 -2.4444338755
H -2.1274969779 1.2498686243 -1.6920195206
H -2.4059911043 -0.2421106498 -2.5804509371
H -3.9807534176 -0.1252370978 -0.7840316890
H -2.8614037603 -1.4499446561 -0.4748410810
H -1.6476746366 -0.0776114369 1.1735587414
H -2.6688401812 1.3141435571 0.7964178991
H -3.4316672096 0.1755006218 2.8699133339
H -4.6651139697 0.0606678327 1.6133290662
H -3.6447996744 -1.3309353275 1.9762385089
32
CONF521
C 4.2244077924 0.8454020979 -1.3042322956
C 2.8017891818 0.5235445860 -0.8614902951
C 2.7687505060 -0.6501306272 0.1160606516
C 1.3531163144 -1.0675022570 0.5178883592
C 0.6652442118 -0.0556885567 1.4347631419
C -0.7618091199 -0.4689541740 1.8244356727
C -1.8597333530 0.2445639394 1.0319359454
C -1.8463968673 -0.0738499583 -0.4612280338
C -2.9804823893 0.6067003983 -1.2308209066
C -4.3575960478 0.0355855948 -0.9108115620
H 4.6729327309 -0.0126823428 -1.8000124806
H 4.8400138683 1.1039533834 -0.4455837664
H 4.2298252691 1.6839916689 -1.9962715154
H 2.1968528593 0.2777697656 -1.7375746243
H 2.3665351850 1.4079381872 -0.3934713192
H 3.3373288678 -0.3900073175 1.0122370206
H 3.2650672024 -1.5037953769 -0.3523382921
H 1.4073255621 -2.0250669041 1.0421950645
H 0.7574550192 -1.2206000812 -0.3831088692
H 0.6340159325 0.9219507962 0.9525484793
H 1.2724119334 0.0477396883 2.3370924677
H -0.9221213852 -0.2468886724 2.8817526759
H -0.8740867686 -1.5481233998 1.6999931232
H -2.8233058014 -0.0484953784 1.4530657586
H -1.7550268673 1.3240744330 1.1677383160
H -0.8982089745 0.2593640320 -0.8865146339
H -1.9167359319 -1.1553053410 -0.6007702748
H -2.9713365980 1.6770148809 -1.0119984992
H -2.7932754586 0.4874585795 -2.3007497338
H -4.3743103668 -1.0371673521 -1.0908506060
H -4.6251729322 0.2147636862 0.1271659299
H -5.1130599626 0.5010446044 -1.5395403906
32
CONF569
C 4.8820786885 0.7625798181 0.4223641950
C 3.6732304963 -0.0070346400 -0.0974830185
C 2.4534296674 0.1877736495 0.8011918996
C 1.2499077717 -0.6632818953 0.3931821892
C 0.6459307859 -0.2518617594 -0.9499859974
C -0.6567603460 -0.9977689316 -1.2769295383
C -1.9286531649 -0.1871119976 -1.0171560584
C -2.1581159417 0.1458372420 0.4552250089
C -3.4639616345 0.9048656311 0.7013962355
C -4.7088992693 0.0478367609 0.5000003621
H 5.7375770083 0.6202737382 -0.2335208090
H 5.1522244161 0.4208581665 1.4192221458
H 4.6615053598 1.8265410844 0.4741016022
H 3.9152382917 -1.0711669708 -0.1479618998
H 3.4438970523 0.3313739419 -1.1091004573
H 2.1676447512 1.2425035850 0.7963931241
H 2.7321778597 -0.0723200313 1.8255520439
H 0.4886094873 -0.5808786476 1.1704273289
H 1.5538902074 -1.7117477597 0.3413437856
H 1.3769725664 -0.4518015583 -1.7347572215
H 0.4582427230 0.8239060700 -0.9474935833
H -0.6982020517 -1.9241922642 -0.7002575014
H -0.6540364665 -1.2747110258 -2.3334432939
H -1.8836043080 0.7422120146 -1.5907429623
H -2.7771301923 -0.7636555055 -1.3906747678
H -2.1661780423 -0.7785602162 1.0378773267
H -1.3317476058 0.7619735186 0.8136503548
H -3.4600134877 1.2781917673 1.7282750229
H -3.5072348402 1.7703212536 0.0361824625
H -4.7985757100 -0.2771865514 -0.5330631507
H -4.6691676785 -0.8335878630 1.1362423353
H -5.6013161459 0.6148106047 0.7544148558
32
CONF408
C 4.5317128998 0.0159180356 0.7058431340
C 3.1850085482 -0.6973971772 0.7552699956
C 2.5424604472 -0.8323233575 -0.6276793536
C 1.9545308472 0.4762238604 -1.1761316390
C 0.4358207992 0.5835749415 -1.0211889190
C -0.0249848664 0.6625188951 0.4327730961
C -1.5184336551 0.9612459225 0.5745772082
C -2.4138182511 -0.1776178294 0.0907922615
C -3.8905211585 0.1064444699 0.3577189376
C -4.7844096281 -1.0269912717 -0.1314752381
H 5.2290122142 -0.5330018466 0.0765622017
H 4.9569978479 0.0929433730 1.7037543821
H 4.4273694342 1.0198156825 0.3018299035
H 2.5139338513 -0.1570899917 1.4238085327
H 3.3342304648 -1.6964501799 1.1719426571
H 1.7516791042 -1.5838946551 -0.5833142370
H 3.3027096653 -1.2071502163 -1.3165717337
H 2.1859579124 0.5541793796 -2.2405594138
H 2.4226382205 1.3281472305 -0.6804621920
H -0.0286417042 -0.2755738122 -1.5086917438
H 0.0979171420 1.4827900807 -1.5432289931
H 0.5354658796 1.4559142478 0.9338675691
H 0.1968164910 -0.2775703010 0.9407911527
H -1.7367856353 1.1520697582 1.6284975292
H -1.7597478166 1.8710134214 0.0193754209
H -2.2716472874 -0.3297467101 -0.9804895974
H -2.1279359037 -1.1013425774 0.5998542859
H -4.0420940283 0.2507913400 1.4299716003
H -4.1740767652 1.0347673404 -0.1434468009
H -4.6631341845 -1.1721049267 -1.2026800821
H -4.5280637794 -1.9572391317 0.3706628418
H -5.8295490517 -0.8044726163 0.0692487192
32
CONF571
C 5.1045587302 -0.4311786269 0.0431244730
C 3.6042930856 -0.6900476261 0.1207291292
C 2.8225607980 0.6036242605 0.3417931858
C 1.3197777067 0.3898710347 0.5311659140
C 0.6137498305 -0.0801666854 -0.7395050986
C -0.8934916351 -0.2703690396 -0.5563109760
C -1.6433843787 1.0415090847 -0.3332069120
C -3.1658919811 0.9062950212 -0.4096252974
C -3.7816878383 0.0458728947 0.7031568819
C -4.0533302712 -1.3932589510 0.2764845568
H 5.4623759915 0.0199600533 0.9660838711
H 5.3311013564 0.2454655889 -0.7779240818
H 5.6457015076 -1.3604064572 -0.1178392339
H 3.3970568215 -1.3796341453 0.9423126192
H 3.2777917466 -1.1664195874 -0.8049657902
H 2.9861398340 1.2729108844 -0.5062731864
H 3.2183241611 1.0987520873 1.2322550838
H 0.8791945626 1.3345098043 0.8546855407
H 1.1572928187 -0.3424861371 1.3257291391
H 1.0423580765 -1.0332758527 -1.0548036747
H 0.7912957712 0.6442425548 -1.5382017724
H -1.0630920701 -0.9406126339 0.2880023260
H -1.2917854304 -0.7502852259 -1.4537773291
H -1.3783742817 1.4574533696 0.6406547769
H -1.3254333435 1.7576608982 -1.0957048977
H -3.5869036641 1.9127496454 -0.3527497416
H -3.4433387995 0.4930998854 -1.3816048487
H -3.1208553428 0.0506630447 1.5721852963
H -4.7293403541 0.4905430832 1.0153114800
H -3.1392646107 -1.8934666143 -0.0295030025
H -4.4920087606 -1.9534674487 1.0995025558
H -4.7501411919 -1.4136171471 -0.5588907028
32
CONF487
C 4.6940553701 -0.4750505840 0.7233406491
C 3.9803638162 -0.7118674727 -0.6030352374
C 2.7483503575 0.1746095151 -0.7913751364
C 1.6013466151 -0.1710311792 0.1561482577
C 0.3611336718 0.6758844942 -0.1209464597
C -0.7845085411 0.3390492359 0.8317135512
C -2.0431936540 1.1654413869 0.5557458532
C -2.8205407620 0.7207582379 -0.6922041998
C -4.0617778015 -0.1176366066 -0.3788356604
C -3.7416481308 -1.4659873113 0.2554711233
H 5.5992459211 -1.0754090917 0.7762774785
H 4.0586314946 -0.7459154870 1.5622656006
H 4.9702964760 0.5723836132 0.8233226615
H 3.6826259929 -1.7605332837 -0.6728058005
H 4.6795983225 -0.5122916571 -1.4184603216
H 2.3949884595 0.0678964942 -1.8201866050
H 3.0323266167 1.2198629588 -0.6480766600
H 1.9142557514 -0.0117694485 1.1893734436
H 1.3488261323 -1.2283678541 0.0440392047
H 0.0427923131 0.5174322197 -1.1534391617
H 0.6165259832 1.7332754680 -0.0160481541
H -0.4530388737 0.5309646320 1.8553860589
H -1.0151879077 -0.7242065523 0.7536737457
H -2.7043898783 1.1104801440 1.4228642132
H -1.7443656908 2.2103695977 0.4471760494
H -3.1452615585 1.6030905453 -1.2477101337
H -2.1654709593 0.1474488796 -1.3499634145
H -4.7174775535 0.4483596653 0.2871692746
H -4.6078605213 -0.2869271289 -1.3103004428
H -4.6540294708 -2.0410233865 0.3971221740
H -3.0729269506 -2.0377338295 -0.3844270431
H -3.2685976864 -1.3362677968 1.2251556710
32
CONF688
C 2.9406927147 1.5171036165 -1.0519144740
C 2.8408968708 0.0038533035 -1.2074008223
C 2.8715004723 -0.7451969080 0.1266270708
C 1.7232844005 -0.4124275532 1.0812437021
C 0.3474342327 -0.7790097015 0.5289653239
C -0.7524180047 -0.5494019597 1.5653419040
C -2.1613286399 -0.8780425374 1.0502760946
C -2.9697181255 0.3436821613 0.6051465799
C -2.4154185933 1.0960316643 -0.6052364692
C -2.4580385510 0.2784703068 -1.8912148177
H 2.0598188073 1.9183042378 -0.5580455006
H 3.0258103915 1.9907141191 -2.0271579602
H 3.8166214419 1.7818805929 -0.4636444614
H 3.6837053020 -0.3449945598 -1.8092160626
H 1.9289307513 -0.2469712668 -1.7512863955
H 3.8151467857 -0.5203914727 0.6303010181
H 2.8559601089 -1.8186878075 -0.0785701276
H 1.7438767759 0.6508148747 1.3264530315
H 1.8852755441 -0.9617338026 2.0126442508
H 0.3482413495 -1.8318714876 0.2346848999
H 0.1424508783 -0.1851006796 -0.3606648854
H -0.7214849825 0.4895991150 1.9010080011
H -0.5326072114 -1.1738945370 2.4346954767
H -2.0921925880 -1.5942741824 0.2306444540
H -2.7262982635 -1.3620807242 1.8501721014
H -3.9867648901 0.0165612796 0.3729931942
H -3.0346633807 1.0389215640 1.4462497257
H -3.0139649680 1.9998085342 -0.7457729103
H -1.3918902003 1.4146381424 -0.4034659952
H -3.4738514093 -0.0534275085 -2.0951360639
H -2.1179604134 0.8792353507 -2.7317212319
H -1.8195542865 -0.5981862012 -1.8203925410
32
CONF702
C 4.4696527051 -0.1740762479 -1.0399715452
C 3.0311453152 -0.3653223353 -0.5721166304
C 2.8396407164 0.1204943203 0.8626334027
C 1.4582951813 -0.1764009487 1.4502240216
C 0.3019153831 0.5613086006 0.7595153895
C -0.4295875552 -0.2993819088 -0.2703232072
C -1.4885517963 0.4721702480 -1.0601713969
C -2.6475827328 1.0253470486 -0.2270222064
C -3.4458626760 -0.0251284714 0.5472358624
C -4.1151311379 -1.0569838422 -0.3536685923
H 4.5872317716 -0.5166859662 -2.0652258105
H 5.1543988516 -0.7365284697 -0.4088665270
H 4.7481316877 0.8765014116 -0.9942687844
H 2.7702115952 -1.4246020913 -0.6315902988
H 2.3656541141 0.1850509602 -1.2387473067
H 3.0216703306 1.1973546973 0.9030933829
H 3.5904554043 -0.3613335887 1.4948512579
H 1.4832855610 0.1103941232 2.5039983095
H 1.2752972585 -1.2524948567 1.4120262919
H 0.6831517424 1.4623337454 0.2741195956
H -0.4158506810 0.8795866867 1.5172966877
H -0.8929553105 -1.1474252446 0.2370216445
H 0.2921683020 -0.7047340769 -0.9810360802
H -1.0042105818 1.3125304456 -1.5646515680
H -1.8889962484 -0.1824789309 -1.8365041428
H -2.2625076399 1.7622443501 0.4805015242
H -3.3278789666 1.5502818872 -0.9028683189
H -2.7949690451 -0.5327418283 1.2608656192
H -4.2165615400 0.4929091101 1.1235481375
H -4.7319423360 -0.5643405759 -1.1022707985
H -3.3753183409 -1.6677989786 -0.8641318039
H -4.7498340237 -1.7155204271 0.2348274220
32
CONF435
C 4.2177259395 1.4065503473 -0.9521110187
C 3.0798192847 0.4016815802 -0.8137816292
C 2.7449963713 0.1300195571 0.6516977787
C 1.6856620499 -0.9558516278 0.8446015389
C 0.2996604767 -0.5471452367 0.3483068347
C -0.7480225328 -1.6081891305 0.6772455388
C -2.1384666423 -1.2960391638 0.1197690687
C -2.7893417965 -0.0506321632 0.7397229492
C -2.7098312962 1.1978788714 -0.1427530601
C -3.6805376284 1.1441757588 -1.3174197551
H 4.4404281440 1.5910249931 -2.0002542521
H 5.1181263885 1.0322672884 -0.4698399633
H 3.9484798503 2.3518370838 -0.4860920285
H 3.3633203239 -0.5362480170 -1.2969145622
H 2.1988307490 0.7889208896 -1.3279065656
H 2.4019743307 1.0555510888 1.1203336007
H 3.6587980012 -0.1796703924 1.1651956361
H 1.6184938112 -1.1913814001 1.9098656358
H 2.0025266385 -1.8645601303 0.3269357559
H 0.3251344844 -0.3984344798 -0.7326623354
H 0.0228794306 0.3996669984 0.8151734760
H -0.8143767755 -1.7250683621 1.7619380271
H -0.4166966949 -2.5652260109 0.2654170857
H -2.0656952811 -1.1746948332 -0.9621234365
H -2.7740599679 -2.1642797211 0.3058319366
H -3.8432311065 -0.2524798416 0.9433881827
H -2.3119448901 0.1575598843 1.6993402571
H -2.9456769945 2.0743795812 0.4655839614
H -1.6934122215 1.3200302682 -0.5189356651
H -4.7051081658 1.0686017341 -0.9595168383
H -3.5937346632 2.0431676948 -1.9231647930
H -3.4782134584 0.2848880001 -1.9520217407
32
CONF587
C 2.6092918140 1.5207144050 1.2243690313
C 2.7563093948 0.0030775698 1.2463688739
C 1.6120931561 -0.7179806185 0.5314867132
C 1.6736188015 -0.5795325836 -0.9899000756
C 0.5053490808 -1.2706507691 -1.7088293529
C -0.5987449228 -0.3131403444 -2.1660642899
C -1.3199456465 0.4356344726 -1.0448467683
C -2.1630014860 -0.4782782385 -0.1576417706
C -2.9825279218 0.2873489627 0.8825785653
C -2.1244270419 0.9415434618 1.9602422466
H 1.6652934765 1.8160180039 1.6778790379
H 2.6377644645 1.9025502512 0.2072195447
H 3.4175035689 1.9867048378 1.7831008129
H 2.7838794174 -0.3296720966 2.2867037282
H 3.7057005837 -0.2782404471 0.7847929674
H 0.6644277749 -0.3292219998 0.9047474922
H 1.6551261690 -1.7811745191 0.7826354996
H 2.6166393536 -1.0148820705 -1.3292366395
H 1.6876824242 0.4753566067 -1.2664342434
H 0.0817290626 -2.0403682501 -1.0623457632
H 0.8836320512 -1.7758572892 -2.6004438413
H -1.3356885069 -0.8831415097 -2.7382619997
H -0.1567482775 0.4214957948 -2.8443296027
H -0.5877254526 0.9727686135 -0.4430399147
H -1.9792165978 1.1800920208 -1.4996712155
H -2.8467916218 -1.0465851681 -0.7935775621
H -1.5205333352 -1.1944932488 0.3574012101
H -3.5786997232 1.0527030516 0.3801282649
H -3.6753924690 -0.4090263226 1.3610231437
H -1.4794154723 1.7060675702 1.5349346073
H -2.7555686766 1.4119366059 2.7106243238
H -1.5024402671 0.1978943459 2.4545145994
32
CONF578
C 2.7702229992 2.2117404707 -0.1593551887
C 2.6435085173 0.7355859441 0.1989469206
C 1.6841645405 0.0084068374 -0.7413916196
C 1.5212405225 -1.4742408791 -0.3966455235
C 0.6733116128 -1.7450825904 0.8548204902
C -0.7721012467 -2.1487380538 0.5502338507
C -1.6197457958 -1.0719265610 -0.1285195035
C -1.9027374206 0.1258775155 0.7764992862
C -2.8408464681 1.1515892907 0.1379915504
C -2.1961719315 1.9185325998 -1.0115106206
H 3.4641302121 2.7117295182 0.5121120668
H 1.8040592003 2.7066742542 -0.0851337863
H 3.1340023548 2.3264354846 -1.1781375776
H 2.2930122532 0.6452919874 1.2290647235
H 3.6272492924 0.2631817077 0.1449369221
H 2.0700427233 0.0915778431 -1.7608430225
H 0.7148450481 0.5064989797 -0.7159163611
H 2.5185260973 -1.8979814484 -0.2570058301
H 1.0703252101 -1.9907495779 -1.2466415381
H 0.6775949337 -0.8696448828 1.5036306783
H 1.1258398521 -2.5627332016 1.4204075647
H -1.2560037855 -2.4349381026 1.4880161051
H -0.7552554337 -3.0337164914 -0.0913055705
H -1.1231381584 -0.7456600862 -1.0418040810
H -2.5746321851 -1.5195536029 -0.4173834970
H -2.3571081895 -0.2381579356 1.7016586285
H -0.9682271422 0.6228626320 1.0424526062
H -3.7385632457 0.6442467561 -0.2226290946
H -3.1511761757 1.8654918783 0.9046913028
H -2.8815297127 2.6710445099 -1.3943511418
H -1.2924961939 2.4212698796 -0.6730085383
H -1.9348963528 1.2519285411 -1.8289058787
32
CONF518
C 3.8215366863 -1.6161767246 -0.2743617424
C 3.5965700880 -0.4871534986 0.7255291781
C 2.2045888718 0.1389597352 0.6216546608
C 1.9945084957 0.9181753980 -0.6747383561
C 0.6668160082 1.6773500029 -0.7301988635
C -0.5705978337 0.7671172335 -0.7417903544
C -1.2375197474 0.6450372285 0.6291297643
C -2.3060177702 -0.4475646190 0.6855749920
C -3.5193138116 -0.1651216388 -0.1981684303
C -4.5975135029 -1.2288656400 -0.0251132477
H 3.0532966966 -2.3785295969 -0.1643440027
H 4.7909567337 -2.0799292180 -0.1077131375
H 3.7953388814 -1.2444665686 -1.2951377907
H 4.3531412399 0.2866333629 0.5759379554
H 3.7245820686 -0.8826636018 1.7360441363
H 2.0651380226 0.8199405387 1.4652550572
H 1.4577947509 -0.6526425361 0.7009342669
H 2.0408578694 0.2354988397 -1.5250924499
H 2.8095504205 1.6386836496 -0.7844748529
H 0.6726487218 2.2848645019 -1.6378581350
H 0.6056746207 2.3629968937 0.1176447368
H -0.2848810507 -0.2262206685 -1.0940008465
H -1.2999029329 1.1649190646 -1.4491066263
H -0.4784983841 0.4225548695 1.3804539066
H -1.6892453620 1.6044401551 0.8933739513
H -1.8612244727 -1.4010316703 0.3898245565
H -2.6448757173 -0.5501485880 1.7197087818
H -3.9304060644 0.8139841186 0.0583539423
H -3.2133404643 -0.1349336892 -1.2450110973
H -5.4514616564 -1.0164671518 -0.6637119050
H -4.2080259218 -2.2102467103 -0.2869464113
H -4.9393964428 -1.2615509643 1.0071112231
32
CONF495
C 4.6781332953 -0.5148364298 0.7293156045
C 3.9748042796 -0.7083599204 -0.6095524530
C 2.7514415918 0.1927068801 -0.7841333789
C 1.6003927262 -0.1570728916 0.1570050830
C 0.3610187325 0.6903573621 -0.1223272306
C -0.7855183154 0.3555783579 0.8299922646
C -2.0472056957 1.1741319130 0.5442804402
C -2.8215860981 0.7129885765 -0.6994269026
C -4.0549093046 -0.1343965109 -0.3789845740
C -3.7230806715 -1.4735349105 0.2686862044
H 5.5828152862 -1.1168915029 0.7698256914
H 4.0361019010 -0.8127603767 1.5538056692
H 4.9536337458 0.5286241970 0.8655191782
H 3.6695743351 -1.7522746495 -0.7112971952
H 4.6826764087 -0.4916447073 -1.4131068935
H 2.3983303888 0.1057363997 -1.8149053342
H 3.0450844260 1.2328246782 -0.6239464734
H 1.9089704911 -0.0016383554 1.1921683813
H 1.3485136988 -1.2140294547 0.0397816868
H 0.0431829785 0.5303497481 -1.1547825247
H 0.6168988057 1.7478231477 -0.0190746692
H -0.4574450783 0.5564504919 1.8530196422
H -1.0111512986 -0.7092161415 0.7592126500
H -2.7091994178 1.1261041198 1.4112029629
H -1.7523223316 2.2189604281 0.4244345210
H -3.1550534299 1.5882124364 -1.2609949014
H -2.1616483252 0.1411215979 -1.3535693450
H -4.7166867135 0.4317736344 0.2808735141
H -4.5982964088 -0.3178418704 -1.3093524636
H -3.0456022858 -2.0438583623 -0.3632431967
H -3.2558199458 -1.3301552741 1.2392525866
H -4.6299735183 -2.0569819260 0.4114994662
32
CONF616
C 2.2129164136 -1.9942016355 0.7087097193
C 2.8073458505 -0.5928255500 0.6190165212
C 2.5939425739 0.0636946523 -0.7469948409
C 1.1425938328 0.4446908386 -1.0471578205
C 0.6667438358 1.6601415690 -0.2509759657
C -0.8068743678 2.0097537836 -0.5082961121
C -1.7548552038 1.5661683192 0.6095530517
C -1.8209293541 0.0579015352 0.8509113211
C -2.4679264478 -0.7152014803 -0.2963087681
C -2.5511211963 -2.2065053283 0.0088132981
H 2.4437811234 -2.4410828383 1.6729145772
H 2.6221382229 -2.6310769372 -0.0726573446
H 1.1315961548 -1.9710885241 0.5990230347
H 3.8821702918 -0.6574137287 0.8045238976
H 2.3796171532 0.0343876276 1.4028832658
H 2.9444342371 -0.6262965944 -1.5185431380
H 3.2107401679 0.9640135339 -0.8066667121
H 0.4948847439 -0.4084084801 -0.8507278158
H 1.0591316520 0.6775363486 -2.1120625169
H 1.2959431926 2.5102587056 -0.5253590010
H 0.8108567731 1.4859956993 0.8161510345
H -1.1256215416 1.5751292617 -1.4567627769
H -0.9065058357 3.0931645496 -0.6050486082
H -1.4421176176 2.0517728473 1.5376083199
H -2.7597126891 1.9271620467 0.3749230409
H -0.8170481842 -0.3284188072 1.0329034857
H -2.4041020996 -0.1186519970 1.7588260862
H -3.4731180233 -0.3236996468 -0.4699321691
H -1.8943780829 -0.5698952332 -1.2133194425
H -3.0198863006 -2.7408916688 -0.8139442007
H -1.5570569663 -2.6215393034 0.1640311029
H -3.1359621029 -2.3799450831 0.9096069260
32
CONF614
C 2.2332598700 -1.9565789551 0.7817155011
C 2.8355014309 -0.5653601816 0.6175784536
C 2.5954957080 0.0336237808 -0.7702365442
C 1.1388629566 0.4025238924 -1.0594686833
C 0.6710498222 1.6387601414 -0.2911021359
C -0.8015660933 1.9901340183 -0.5517969174
C -1.7483392993 1.5790661756 0.5793451667
C -1.8284221391 0.0767805405 0.8518396645
C -2.4803276536 -0.7137787837 -0.2805572487
C -2.5922329194 -2.1951951343 0.0613290839
H 1.1496815154 -1.9286805374 0.7004897850
H 2.4869558008 -2.3646782139 1.7573052224
H 2.6165154842 -2.6290322089 0.0172179403
H 3.9138949737 -0.6303699301 0.7808325594
H 2.4307455549 0.0985923555 1.3830508121
H 2.9315423253 -0.6879376903 -1.5190162190
H 3.2108940859 0.9303716032 -0.8787186231
H 0.4962822377 -0.4463605896 -0.8303095120
H 1.0403110930 0.6053176411 -2.1292551847
H 1.3036236887 2.4789362790 -0.5874231181
H 0.8173468051 1.4888878483 0.7793128968
H -1.1262786553 1.5344501725 -1.4882339816
H -0.8953737797 3.0714281488 -0.6744576689
H -1.4265627063 2.0803879661 1.4958725855
H -2.7507654389 1.9450458265 0.3419192842
H -0.8284941061 -0.3148739046 1.0441145363
H -2.4151254510 -0.0751881273 1.7618677550
H -3.4771038931 -0.3094007490 -0.4720569169
H -1.8971471267 -0.6018899156 -1.1961025136
H -3.0629013980 -2.7418792415 -0.7521690616
H -1.6071671410 -2.6231250680 0.2364512612
H -3.1883183530 -2.3355981151 0.9604509407
32
CONF671
C 4.7431091808 1.0076583855 0.0100722560
C 3.6105424176 0.0957394314 0.4676618568
C 2.6090844212 -0.1648464374 -0.6559974196
C 1.4905398339 -1.1316349433 -0.2613516063
C 0.4721326407 -0.5554480274 0.7261286406
C -0.4741341614 0.4811398649 0.1142215533
C -1.5614481466 -0.1219155288 -0.7793087218
C -2.6921945533 -0.8076464837 -0.0079127700
C -3.6555172271 0.1554116351 0.6898074651
C -4.5549935700 0.9108193008 -0.2824835843
H 4.3503608176 1.9695257143 -0.3123443383
H 5.2794545972 0.5607128658 -0.8242521799
H 5.4481361604 1.1784527235 0.8200342133
H 3.1038121119 0.5574748051 1.3167358919
H 4.0256639908 -0.8565020108 0.8063781487
H 3.1477504037 -0.5889205907 -1.5072518085
H 2.1816754667 0.7846516609 -0.9834020379
H 1.9439912082 -2.0211476875 0.1829657856
H 0.9684585286 -1.4512747276 -1.1652899511
H 1.0054857114 -0.0979576564 1.5608427428
H -0.1176236793 -1.3779090132 1.1353300665
H 0.1086333973 1.1926296882 -0.4732416753
H -0.9472245363 1.0435943194 0.9210687214
H -1.9840129138 0.6671204162 -1.4031683173
H -1.1058031022 -0.8517083387 -1.4510901899
H -3.2663143122 -1.4257262015 -0.7024458835
H -2.2601306377 -1.4755982866 0.7398115765
H -4.2851269415 -0.4210419699 1.3718565105
H -3.0929398284 0.8705817327 1.2923859688
H -5.2562697176 1.5383723674 0.2625556142
H -3.9720569025 1.5494302522 -0.9410779562
H -5.1224406650 0.2130448635 -0.8947204295
32
CONF511
C 4.3364977099 0.2660223556 -1.0985425216
C 3.4013657479 -0.8626738042 -0.6784713609
C 1.9507595668 -0.4120755290 -0.4983799104
C 1.7534718180 0.5237753898 0.6932405795
C 0.2907902543 0.9223318758 0.9023530778
C -0.5605808836 -0.2025509404 1.4919005921
C -2.0409512021 0.1770392985 1.6412556718
C -2.9381341259 -0.3552319224 0.5217399115
C -2.6195669230 0.2126499455 -0.8592587682
C -3.6204195957 -0.2658847876 -1.9051528189
H 5.3315611871 -0.1245324960 -1.2979686155
H 4.4184353513 1.0171105071 -0.3175730596
H 3.9687329623 0.7464681429 -2.0025463097
H 3.7592843343 -1.3021046227 0.2554415464
H 3.4293665454 -1.6435535904 -1.4422913407
H 1.3311345304 -1.3007711858 -0.3639187546
H 1.6158053860 0.0909085781 -1.4089451465
H 2.3383235026 1.4309406134 0.5325586124
H 2.1295013872 0.0412833281 1.5987485050
H -0.1282695872 1.2490969491 -0.0500872129
H 0.2532238512 1.7739326784 1.5865376855
H -0.1504943045 -0.4560698704 2.4722861070
H -0.4831320169 -1.0949784910 0.8697984554
H -2.4192845977 -0.2236437483 2.5842402416
H -2.1337867854 1.2640840584 1.6907022240
H -2.8574959081 -1.4445714936 0.4869551708
H -3.9753026438 -0.1122750286 0.7675243167
H -2.6385277714 1.3039404289 -0.8129092432
H -1.6175654811 -0.0956832348 -1.1607987928
H -3.3762945592 0.1414204294 -2.8833714113
H -3.6100521744 -1.3517028777 -1.9724200173
H -4.6278400185 0.0501611906 -1.6426594220
32
CONF634
C 2.6506233557 1.0274660655 -1.6650223880
C 3.2647407265 0.3638077657 -0.4374354015
C 2.6196523269 -0.9796484943 -0.0906503925
C 1.1345920420 -0.9059069807 0.2705105857
C 0.8639681163 -0.0925788398 1.5339648280
C -0.5813483708 -0.1849812701 2.0286453181
C -1.6110330021 0.4301753425 1.0696774996
C -2.3169745537 -0.6060667384 0.1952462093
C -3.3352259017 0.0131497432 -0.7640597551
C -2.6882374089 0.8097197729 -1.8920561567
H 2.6682233960 0.3469606334 -2.5136056377
H 3.2110541874 1.9210800809 -1.9297717004
H 1.6204451669 1.3189066439 -1.4783573555
H 3.1926206027 1.0389668447 0.4166499424
H 4.3272396312 0.1903641999 -0.6254559228
H 3.1641647213 -1.4198550268 0.7487829095
H 2.7348203487 -1.6511001740 -0.9455064817
H 0.7725528085 -1.9254864313 0.4266955787
H 0.5811774918 -0.4822093557 -0.5670595268
H 1.1040664596 0.9571396071 1.3547563396
H 1.5242308202 -0.4511477675 2.3284071429
H -0.6345630875 0.3343326290 2.9881643341
H -0.8345148671 -1.2314356799 2.2123021985
H -2.3739154974 0.9573237370 1.6477337836
H -1.1134775609 1.1696794121 0.4412536147
H -1.5840101248 -1.1713744130 -0.3813722410
H -2.8366014423 -1.3118236160 0.8485400399
H -3.9339190842 -0.7892114100 -1.2015834556
H -4.0121565828 0.6614730506 -0.2028195443
H -1.9921132960 0.1843468651 -2.4470003623
H -3.4472956667 1.1721559065 -2.5812627484
H -2.1470534194 1.6688963074 -1.5046473567
32
CONF689
C 3.5335985569 1.5821185485 -0.8688404397
C 2.9263888156 0.1960415623 -0.6852299358
C 2.3856931215 0.0026861419 0.7299689624
C 1.8189374646 -1.3953909579 0.9788922119
C 0.5323974948 -1.7264276901 0.2176907152
C -0.6709249801 -0.8575696595 0.6152096592
C -0.9742833990 0.2469159698 -0.3974170169
C -2.0451405410 1.2298780318 0.0801904324
C -3.4206421574 0.6143220781 0.3447701803
C -4.0518392060 -0.0068878529 -0.8961043205
H 2.7858888089 2.3521264197 -0.6905532737
H 3.9161115564 1.7023311511 -1.8795588197
H 4.3534779308 1.7350376249 -0.1703225976
H 3.6863467654 -0.5629657146 -0.8854513076
H 2.1236505483 0.0594579493 -1.4117222831
H 1.6202218007 0.7526865465 0.9346490473
H 3.2021059888 0.1715962007 1.4373046192
H 1.6224512930 -1.5051834510 2.0485353408
H 2.5799136891 -2.1327296454 0.7096053561
H 0.2990745998 -2.7741935650 0.4202431806
H 0.7062006605 -1.6410637212 -0.8558080359
H -0.4884850387 -0.4093559712 1.5943542116
H -1.5519847836 -1.4940792630 0.7094509059
H -0.0644392814 0.8154461602 -0.5964320272
H -1.2848789048 -0.2059669482 -1.3407799380
H -1.6971521158 1.7055319915 1.0009777523
H -2.1543832063 2.0140356106 -0.6735492640
H -3.3428146752 -0.1390928090 1.1301591156
H -4.0779461354 1.4042800147 0.7167128765
H -4.0913289878 0.7184435304 -1.7059444937
H -3.4835627169 -0.8697343190 -1.2330762368
H -5.0658475729 -0.3343462707 -0.6784546283
32
CONF575
C 4.6416802517 0.0082697960 1.0079709870
C 3.8722540513 -0.7467766981 -0.0704455010
C 2.6042647662 -0.0242381848 -0.5300542530
C 1.5035557853 -0.0110087087 0.5292205810
C 0.2482115504 0.7449854919 0.0896256593
C -0.5010302214 0.0656106151 -1.0573040951
C -1.8534113368 0.7259585412 -1.3655293654
C -3.0584826906 -0.0107509021 -0.7770698268
C -3.0981706872 -0.0265645602 0.7490871313
C -4.3753808139 -0.6776565931 1.2682303077
H 5.5673893799 -0.5115980288 1.2432244069
H 4.0586539041 0.0899337782 1.9213560979
H 4.8884460228 1.0108653791 0.6656209316
H 3.6052621428 -1.7389061010 0.3006882201
H 4.5262944928 -0.8833118453 -0.9349775831
H 2.2313336281 -0.5233154936 -1.4261915684
H 2.8552260970 1.0038838986 -0.8017151919
H 1.8856010578 0.4619998655 1.4356384196
H 1.2347878485 -1.0401700331 0.7803469558
H 0.5278537714 1.7561196221 -0.2164432055
H -0.4179527792 0.8353927845 0.9490486560
H -0.6581141426 -0.9870784141 -0.8131065605
H 0.1233647477 0.1017546742 -1.9511965292
H -1.8464323508 1.7545575371 -0.9987621736
H -1.9914684801 0.7694792236 -2.4480585105
H -3.9687791580 0.4712404142 -1.1436263620
H -3.0628579028 -1.0396190056 -1.1456144637
H -2.2379555817 -0.5764053496 1.1336087667
H -3.0379563681 0.9987908844 1.1215149915
H -5.2503833222 -0.1313416354 0.9226281929
H -4.4509588073 -1.7030248984 0.9127454343
H -4.3846147001 -0.6892161858 2.3554989271
32
CONF490
C 4.6694087052 -0.5326607082 0.7359014291
C 3.9751173756 -0.7051972107 -0.6105419369
C 2.7554228257 0.2016070803 -0.7807143426
C 1.6011068557 -0.1515896121 0.1551542594
C 0.3612806521 0.6938682224 -0.1278890943
C -0.7845584354 0.3635919123 0.8268703311
C -2.0474535704 1.1783935899 0.5360174742
C -2.8224119153 0.7066391304 -0.7033527940
C -4.0543273602 -0.1399414229 -0.3753864284
C -3.7197246227 -1.4757732631 0.2776455393
H 4.9405773555 0.5091482671 0.8919669959
H 5.5757996894 -1.1324317701 0.7717450195
H 4.0230932798 -0.8469767534 1.5509221212
H 3.6678516369 -1.7467309680 -0.7290790639
H 4.6889837400 -0.4791439008 -1.4061478586
H 2.4046414743 0.1242358386 -1.8130463658
H 3.0523094273 1.2393793597 -0.6113881594
H 1.9053737882 0.0032212803 1.1917041199
H 1.3515992180 -1.2088610564 0.0356559282
H 0.0429391772 0.5284461747 -1.1593409598
H 0.6167819564 1.7519678582 -0.0301935808
H -0.4565280522 0.5717882556 1.8484454737
H -1.0085975136 -0.7019896777 0.7632811878
H -2.7085988527 1.1363034066 1.4038869409
H -1.7538773113 2.2226165620 0.4077950371
H -3.1576572952 1.5771427461 -1.2711412418
H -2.1623169687 0.1307809285 -1.3538395773
H -4.7145330433 0.4289474448 0.2836916630
H -4.6003292959 -0.3281673066 -1.3032606846
H -3.2506636681 -1.3276228186 1.2466228578
H -4.6257298241 -2.0595029371 0.4248486216
H -3.0429440869 -2.0482518303 -0.3530937403
32
CONF434
C 3.8515233560 0.3942509569 -1.7762483345
C 2.5135919855 0.1293449667 -1.0958066339
C 2.6983014643 -0.4139782653 0.3201976484
C 1.3774762943 -0.7513577865 1.0143712023
C 0.5961887569 0.4889665523 1.4490307492
C -0.7746712188 0.1566467971 2.0560522823
C -1.9422735265 0.3332898908 1.0825246235
C -1.9030160908 -0.6253806531 -0.1054552919
C -3.1605328547 -0.5554015308 -0.9737965953
C -3.2966010203 0.7644991723 -1.7250167614
H 3.7002063252 0.7718389548 -2.7845862251
H 4.4366333797 -0.5208713809 -1.8357844592
H 4.4240399945 1.1298568730 -1.2156349818
H 1.9450050738 -0.5941551676 -1.6850563469
H 1.9404249511 1.0575057623 -1.0651304813
H 3.2464064067 0.3167013843 0.9198702346
H 3.3082438793 -1.3191112306 0.2657050658
H 1.5895220654 -1.3527636851 1.9020613185
H 0.7695081802 -1.3601717500 0.3441346462
H 0.4553749560 1.1564662454 0.5982322021
H 1.1992610052 1.0262383136 2.1847224440
H -0.9558989387 0.8123261231 2.9105570592
H -0.7676871799 -0.8692595789 2.4305812290
H -2.8754164156 0.1735525550 1.6295009583
H -1.9429818956 1.3636861543 0.7224385768
H -1.0346308095 -0.4038545797 -0.7280654261
H -1.7964881725 -1.6456054555 0.2720735285
H -3.1265592322 -1.3709212956 -1.7002576047
H -4.0419144877 -0.7089066341 -0.3467701977
H -4.1569546653 0.7333550121 -2.3894575460
H -3.4313954075 1.5935607742 -1.0356218179
H -2.4078715569 0.9533931221 -2.3233058515
32
CONF615
C 2.2128719814 -1.9651621134 0.7738374328
C 2.8144203243 -0.5720099431 0.6243747791
C 2.5888258164 0.0343455813 -0.7626810367
C 1.1360801543 0.4106980090 -1.0620318113
C 0.6688248598 1.6480307431 -0.2950244291
C -0.8048931336 1.9966627095 -0.5527834773
C -1.7489181807 1.5804034783 0.5788668033
C -1.8196263684 0.0778638693 0.8526838461
C -2.4741193998 -0.7169537911 -0.2751931206
C -2.5517027340 -2.2027294827 0.0572839464
H 1.1307626897 -1.9394666292 0.6736051458
H 2.4503285571 -2.3756545990 1.7524893646
H 2.6108022050 -2.6343814827 0.0140879163
H 3.8909439355 -0.6362679044 0.7997068603
H 2.3998315114 0.0868552121 1.3889951747
H 2.9278830171 -0.6853156174 -1.5119062345
H 3.2088041168 0.9289296016 -0.8621310148
H 0.4879800374 -0.4354421217 -0.8387436765
H 1.0458320608 0.6153983190 -2.1321606259
H 1.2994518257 2.4884456554 -0.5947930473
H 0.8179712118 1.5010436292 0.7754414747
H -1.1295521572 1.5431403465 -1.4903082636
H -0.9014170505 3.0781111948 -0.6719956425
H -1.4294850017 2.0841995887 1.4948829591
H -2.7535883822 1.9403619772 0.3417576545
H -0.8164056301 -0.3081767154 1.0391611408
H -2.3997828291 -0.0769175776 1.7665157710
H -3.4813774907 -0.3304951436 -0.4478761284
H -1.9080556949 -0.5872269159 -1.1990482488
H -3.1244076729 -2.3607406940 0.9684429463
H -3.0305187719 -2.7517832837 -0.7496768362
H -1.5553508530 -2.6141985072 0.2065140659
32
CONF653
C 3.7148421924 0.5697544269 1.1895111480
C 3.2584543288 -0.8128629837 0.7364826192
C 1.8186001917 -0.8328026876 0.2202280317
C 1.6469949975 -0.0856844674 -1.1024428978
C 0.2303033134 -0.1850562687 -1.6865292074
C -0.6570492873 1.0295408668 -1.4017633195
C -0.9947035586 1.2732656559 0.0700582376
C -1.7999325654 0.1596741989 0.7416527454
C -3.1957319835 -0.0263183324 0.1502600199
C -4.0024881482 -1.0558902375 0.9332563274
H 4.7113799032 0.5147422326 1.6213497789
H 3.0364838639 0.9654659978 1.9423605062
H 3.7465083748 1.2641254464 0.3542280852
H 3.3335525681 -1.5013062574 1.5816566435
H 3.9276989839 -1.1775657562 -0.0463469695
H 1.1647193957 -0.4062224446 0.9816390446
H 1.5186630348 -1.8736814073 0.0719680564
H 2.3581401312 -0.5066880648 -1.8175585295
H 1.9035727592 0.9660666435 -0.9700909480
H -0.2540889840 -1.0917070521 -1.3215282690
H 0.3041422949 -0.2787505577 -2.7726100559
H -1.5851817546 0.9186615116 -1.9661063864
H -0.1535435568 1.9210116391 -1.7852611464
H -0.0686196740 1.4255386092 0.6270110076
H -1.5673544918 2.2024597807 0.1362026804
H -1.2555569952 -0.7838590928 0.6781795528
H -1.9020046653 0.4053277075 1.8022381538
H -3.7219654922 0.9311621623 0.1600034574
H -3.1164219615 -0.3527830372 -0.8878517900
H -4.9895051569 -1.1829195456 0.4951240409
H -3.4971367686 -2.0192032691 0.9270384994
H -4.1233517894 -0.7405220125 1.9673779981
32
CONF446
C 4.2797598720 -0.6033383691 1.0414104870
C 3.0719138146 -1.0644133086 0.2329813448
C 2.7758573329 -0.1432349443 -0.9534374340
C 2.1380019964 1.1971357137 -0.5596546643
C 0.6249575211 1.2517223275 -0.7811861930
C -0.1648221286 0.2931906795 0.1069544746
C -1.6717450866 0.4724171260 -0.0675257744
C -2.4641734402 -0.5068796677 0.7963990666
C -3.9739698214 -0.2662421909 0.7581289227
C -4.5941387896 -0.5496508979 -0.6055721381
H 5.1707211810 -0.5879320156 0.4172524547
H 4.4569833276 -1.2768368576 1.8766361139
H 4.1253096648 0.3972560907 1.4376200777
H 2.1993402425 -1.1186192574 0.8850487157
H 3.2675049171 -2.0713543326 -0.1434898400
H 2.1133610409 -0.6590637096 -1.6513366385
H 3.7152156566 0.0405452721 -1.4795349937
H 2.5891066349 1.9970520532 -1.1505570814
H 2.3486751782 1.4118112662 0.4891466760
H 0.4074234129 1.0321462223 -1.8294547277
H 0.2838875173 2.2714862213 -0.5834596347
H 0.0994029506 0.4698362038 1.1526282695
H 0.0997928667 -0.7372230389 -0.1366161258
H -1.9472453626 1.4949148571 0.2028211148
H -1.9255164325 0.3265352737 -1.1188552774
H -2.2540394406 -1.5281754748 0.4700068320
H -2.1232492756 -0.4151638357 1.8308476605
H -4.4471687962 -0.9124349447 1.5012754364
H -4.1798177418 0.7684381642 1.0417117053
H -5.6754822041 -0.4455712826 -0.5562330990
H -4.2212550362 0.1434556709 -1.3547983666
H -4.3608462236 -1.5628699735 -0.9252555443
32
CONF489
C 4.6877750745 -0.5076978691 0.7253271415
C 3.9806517213 -0.7023343381 -0.6113732312
C 2.7545604829 0.1959001253 -0.7812392499
C 1.6036541860 -0.1628471905 0.1567643593
C 0.3635412562 0.6851982763 -0.1172607232
C -0.7836269805 0.3448354847 0.8323351511
C -2.0453732148 1.1633915449 0.5471566409
C -2.8149689295 0.7062549957 -0.7012490187
C -4.0615949180 -0.1233462955 -0.3860390735
C -3.7500525521 -1.4629759639 0.2706373980
H 5.5911118880 -1.1118145502 0.7647067579
H 4.0471865862 -0.8021909483 1.5522343481
H 4.9662132794 0.5354063557 0.8584699652
H 3.6775051708 -1.7469030131 -0.7126512424
H 4.6854162307 -0.4835473852 -1.4171257927
H 2.4022762823 0.1141531329 -1.8126954447
H 3.0449324848 1.2359007314 -0.6145970022
H 1.9114101918 -0.0148642255 1.1932601282
H 1.3533874728 -1.2192405053 0.0313892945
H 0.0460738162 0.5313668526 -1.1507659766
H 0.6187968168 1.7421725311 -0.0075502861
H -0.4573045810 0.5418136089 1.8566703223
H -1.0088876709 -0.7198696978 0.7570352513
H -2.7095683642 1.1099109226 1.4120136709
H -1.7518527345 2.2092771773 0.4337046043
H -3.1314153187 1.5822037842 -1.2713688064
H -2.1572683938 0.1211251831 -1.3458639408
H -4.7208709034 0.4543338950 0.2662774328
H -4.6006401178 -0.3048731809 -1.3192763898
H -3.2846667256 -1.3201427637 1.2422493157
H -4.6649228762 -2.0340160530 0.4128668880
H -3.0771464253 -2.0454081254 -0.3550951969
32
CONF586
C 3.2080764304 1.4325775200 -1.1418376039
C 3.5393390471 -0.0220699591 -0.8230344753
C 3.2963345385 -0.3920577358 0.6475062547
C 1.9660058574 -1.1020382136 0.9080730750
C 0.7352119757 -0.2492840173 0.6098890945
C -0.5524724130 -0.9555835587 1.0311633545
C -1.8097552131 -0.1129712159 0.8063664140
C -2.1806920667 0.0316364858 -0.6686775501
C -3.4016979801 0.9242177200 -0.8978628790
C -4.6989506787 0.3243332800 -0.3666036948
H 3.3899499637 1.6390863902 -2.1943766906
H 3.8327053990 2.0992550492 -0.5510302290
H 2.1682933158 1.6576476694 -0.9230275684
H 4.5907341773 -0.1908043831 -1.0660745029
H 2.9504758257 -0.6804562736 -1.4646263052
H 3.3473303798 0.5104257199 1.2600163176
H 4.0943479281 -1.0578374418 0.9837207248
H 1.9382608627 -1.4011003794 1.9594459940
H 1.9235721314 -2.0146926895 0.3083382141
H 0.6969567495 -0.0327478402 -0.4575132880
H 0.8146999958 0.6988616585 1.1472319400
H -0.4819278247 -1.2011361787 2.0939505031
H -0.6461320523 -1.8960249122 0.4827853742
H -2.6384717257 -0.5851502838 1.3366588774
H -1.6596340747 0.8788764298 1.2397259524
H -1.3369006162 0.4620833123 -1.2110619899
H -2.3748378571 -0.9581576017 -1.0888607464
H -3.2306669162 1.8941793729 -0.4253123708
H -3.5086996791 1.0950152044 -1.9717748312
H -4.8626471028 -0.6632645733 -0.7922597130
H -4.6734327732 0.2336661698 0.7159643117
H -5.5423394018 0.9570716624 -0.6329753146
32
CONF632
C 3.1593484628 2.0244269742 0.4399997140
C 2.4774298742 0.8740146483 -0.2916823474
C 2.4065934010 -0.3805662621 0.5766048606
C 1.8885817490 -1.6133612364 -0.1672865156
C 0.4741079800 -1.4814452811 -0.7354504034
C -0.5910048623 -1.2690003295 0.3385462956
C -2.0058375510 -1.2134849032 -0.2435102967
C -2.3295360573 0.0988911092 -0.9726336000
C -3.1406202671 1.0901131304 -0.1349360946
C -2.3941558191 1.6165059492 1.0852428463
H 4.1791145710 1.7558710747 0.7070272962
H 2.6202881766 2.2671311714 1.3532621850
H 3.1909332481 2.9123159626 -0.1869804252
H 3.0290205434 0.6479347798 -1.2072895992
H 1.4705389814 1.1833014984 -0.5767101309
H 1.7800753585 -0.1822502218 1.4479307845
H 3.4106563687 -0.6060601586 0.9455106176
H 1.9131568396 -2.4648925537 0.5175688572
H 2.5713375693 -1.8348767762 -0.9916890396
H 0.2407529669 -2.3987637584 -1.2827600240
H 0.4465555013 -0.6625012251 -1.4550466787
H -0.3868642125 -0.3463309011 0.8796010338
H -0.5336347616 -2.0949804256 1.0522404291
H -2.1227014031 -2.0519806369 -0.9339628034
H -2.7300373589 -1.3581574191 0.5608848121
H -1.4046718444 0.5813311782 -1.2925482669
H -2.9053756772 -0.1239959218 -1.8734800590
H -3.4139044128 1.9352044371 -0.7719671778
H -4.0676616873 0.6105783072 0.1885705820
H -2.1893487305 0.8155416170 1.7904670009
H -1.4509901805 2.0705114855 0.7882266783
H -2.9907033914 2.3708323340 1.5936716169
32
CONF630
C 3.7608201850 0.2255640326 -1.5944638409
C 2.4322225758 -0.2411559571 -1.0104655282
C 2.5321325498 -0.4737577128 0.4969148177
C 1.2195854293 -0.9443938649 1.1402093032
C 0.4280352621 0.1643769534 1.8386289925
C -0.1055027568 1.2700186853 0.9260163351
C -1.1292827394 0.8077431546 -0.1123048652
C -2.4298713284 0.3026994350 0.5101101264
C -3.5302236356 0.0540026475 -0.5226739439
C -3.2170399088 -1.1046564798 -1.4631475826
H 4.5387711245 -0.5125363879 -1.4112439462
H 4.0677394868 1.1646844019 -1.1390547693
H 3.6755968413 0.3761218239 -2.6679516607
H 2.1327999233 -1.1731557041 -1.4962791512
H 1.6660391574 0.5046736273 -1.2243959620
H 2.8653645598 0.4461186767 0.9823707289
H 3.3059761381 -1.2259236064 0.6684415910
H 1.4477967577 -1.6998627258 1.8956763314
H 0.5961236041 -1.4267770745 0.3862797910
H 1.0741078286 0.6267231595 2.5897155506
H -0.4086422062 -0.2911183550 2.3720177513
H 0.7328633564 1.7424802521 0.4111651507
H -0.5697596266 2.0344396043 1.5552381216
H -1.3609388111 1.6548745441 -0.7636970543
H -0.6916275750 0.0262846106 -0.7332008528
H -2.2438351530 -0.6245585352 1.0549343161
H -2.7862760315 1.0453982067 1.2287104985
H -4.4610569683 -0.1638354462 0.0065565410
H -3.6886590759 0.9631086186 -1.1075580522
H -2.3524986471 -0.8811468774 -2.0823962343
H -3.0108427739 -2.0090405675 -0.8947949261
H -4.0628024275 -1.2972177237 -2.1190572582
32
CONF651
C 3.2519028892 1.3186221486 -1.4930902960
C 2.4329363108 0.1103208276 -1.0539008051
C 2.3977290099 -0.0222025192 0.4675523533
C 1.6668080521 -1.2755492278 0.9538174672
C 0.1570512102 -1.2744741218 0.7038548216
C -0.5956629872 -0.2775463232 1.5852700208
C -2.1118331828 -0.2758956887 1.3381755886
C -2.6029527206 0.8960964803 0.4838671241
C -2.0653884798 0.9335066118 -0.9470161302
C -2.5779466106 -0.2133432090 -1.8105788664
H 2.8270002137 2.2342886725 -1.0873031653
H 3.2663405606 1.3976564029 -2.5775303381
H 4.2775794358 1.2329274607 -1.1407082919
H 2.8644848319 -0.7967942415 -1.4835285313
H 1.4183737965 0.2102986453 -1.4431610852
H 1.9357222177 0.8682017110 0.8974228313
H 3.4265889386 -0.0621387230 0.8345100375
H 1.8420653096 -1.3897208054 2.0266093533
H 2.1034541994 -2.1447592776 0.4554776150
H -0.2251743944 -2.2768983977 0.9149830903
H -0.0373845526 -1.0684539465 -0.3477996549
H -0.2078297508 0.7290027025 1.4238066653
H -0.3984319268 -0.5355382161 2.6285782457
H -2.4086240490 -1.2186670223 0.8767662256
H -2.6296310893 -0.2139516785 2.2979590621
H -3.6948921532 0.8609439075 0.4442603039
H -2.3242903073 1.8273996200 0.9839650327
H -2.3728082736 1.8784829728 -1.4022716216
H -0.9748323064 0.9236560019 -0.9285711081
H -2.2491709164 -1.1740187438 -1.4229728496
H -3.6654910315 -0.2095156143 -1.8381192943
H -2.2087080175 -0.1135112896 -2.8288352636
32
CONF471
C 4.8168728128 -0.0071907093 -1.0999390613
C 3.7930388521 -0.7059946399 -0.2130451280
C 2.5263210517 0.1291923395 -0.0381670350
C 1.4966412429 -0.5769961583 0.8415423929
C 0.2608920204 0.2739403059 1.1372598463
C -0.5874016575 0.5603868045 -0.1012419406
C -1.9120825294 1.2443429945 0.2491388698
C -2.9649908275 0.2972926748 0.8437121919
C -4.0334669377 -0.1434904454 -0.1593721091
C -3.4871260146 -1.0002301295 -1.2953407293
H 5.1063744644 0.9477416385 -0.6670712008
H 4.4014228480 0.1772801437 -2.0880697548
H 5.7086616440 -0.6191776972 -1.2106553147
H 4.2350103624 -0.9007868754 0.7669053114
H 3.5293086576 -1.6702799011 -0.6535903229
H 2.0968131922 0.3291080591 -1.0212712544
H 2.7877687639 1.0893778053 0.4132218722
H 1.9718030498 -0.8431691890 1.7893329116
H 1.1867094633 -1.5063743015 0.3574336424
H 0.5734423636 1.2201497512 1.5857033495
H -0.3498679860 -0.2509204309 1.8750784926
H -0.7824888636 -0.3755986654 -0.6260745135
H -0.0267280015 1.2107393728 -0.7751369782
H -1.7003806251 2.0474586421 0.9584860702
H -2.3234486340 1.7108113898 -0.6482275815
H -2.4760106136 -0.5898065071 1.2497638349
H -3.4714537747 0.7962060335 1.6727400671
H -4.7958032071 -0.7140213844 0.3771766741
H -4.5197652246 0.7416851076 -0.5764366661
H -2.7854668959 -0.4362598522 -1.9040026861
H -2.9789374008 -1.8769834726 -0.8995052943
H -4.2989308773 -1.3362919047 -1.9366872472
32
CONF624
C 2.2006933864 -2.0531572466 0.5687839320
C 2.7631326784 -0.6366497209 0.6173883798
C 2.5979870251 0.1184810699 -0.7037527359
C 1.1557501007 0.5191845335 -1.0221765757
C 0.6633201991 1.6924401478 -0.1743053614
C -0.8135754130 2.0359860030 -0.4200678950
C -1.7574126816 1.5330488427 0.6759143480
C -1.8102414304 0.0146894102 0.8479541457
C -2.4490713327 -0.7112041908 -0.3341546160
C -2.5289055263 -2.2142095539 -0.0923224814
H 2.6782534426 -2.6243697904 -0.2244932530
H 1.1291354204 -2.0449065608 0.3853872010
H 2.3770217810 -2.5622973693 1.5134772541
H 3.8286132574 -0.6922615254 0.8527310759
H 2.2807777709 -0.0817578926 1.4238801453
H 2.9773484344 -0.5129955773 -1.5107509296
H 3.2131994407 1.0213429547 -0.6761256905
H 0.5015702609 -0.3407443961 -0.8859168328
H 1.0982936033 0.8076011070 -2.0750427518
H 1.2835538148 2.5611810375 -0.4075458592
H 0.8066626782 1.4720953265 0.8844010261
H -1.1256269473 1.6390598494 -1.3870698441
H -0.9257738269 3.1212813418 -0.4699912885
H -1.4485323223 1.9781260931 1.6253379757
H -2.7655690460 1.8954901005 0.4583325271
H -0.8035463871 -0.3712070211 1.0143239959
H -2.3937338784 -0.2076639038 1.7454874922
H -3.4546254092 -0.3159895659 -0.4963850115
H -1.8716129956 -0.5257203196 -1.2413949668
H -1.5342120013 -2.6325638381 0.0488771649
H -3.1159624188 -2.4270843071 0.7985678335
H -2.9935564465 -2.7150999583 -0.9382755317
32
CONF588
C 2.6055496169 1.4987800281 1.2449712801
C 2.7447163105 -0.0197641531 1.2526729307
C 1.6008645140 -0.7283501606 0.5247900825
C 1.6697444530 -0.5716193771 -0.9945395100
C 0.4989446916 -1.2439974035 -1.7269564195
C -0.5953527451 -0.2711042223 -2.1753650243
C -1.3172572751 0.4645905142 -1.0458983730
C -2.1771173095 -0.4573587503 -0.1835358104
C -2.9716532495 0.2921660729 0.8873755434
C -2.0926157925 0.8718033851 1.9905524880
H 1.6602957999 1.7944301790 1.6956263731
H 2.6423257405 1.8907051124 0.2319377946
H 3.4126106973 1.9550735728 1.8133007757
H 2.7651968194 -0.3627781494 2.2898143706
H 3.6951568724 -0.3011135978 0.7932800649
H 0.6530171441 -0.3407386651 0.8986118474
H 1.6389505697 -1.7945584677 0.7637035770
H 2.6106735536 -1.0102063320 -1.3354669822
H 1.6932980739 0.4865111582 -1.2577561599
H 0.0667811160 -2.0188985625 -1.0924226973
H 0.8766817584 -1.7403977749 -2.6237024391
H -1.3332616435 -0.8261263061 -2.7608641585
H -0.1437974513 0.4709155057 -2.8391204522
H -0.5840486102 0.9819405763 -0.4282626460
H -1.9647002370 1.2251240818 -1.4910028695
H -2.8776244690 -0.9878839791 -0.8337620801
H -1.5491027606 -1.2052990307 0.3034418694
H -3.5413095461 1.0971488283 0.4172161531
H -3.6878288004 -0.3994769740 1.3374830151
H -2.7077988095 1.3293493834 2.7617898312
H -1.4946650131 0.0878931547 2.4510751325
H -1.4235709421 1.6329285938 1.5974886592
32
CONF585
C 3.2015149793 1.4209733763 -1.1610387806
C 3.5288125476 -0.0319371347 -0.8302975181
C 3.2945358812 -0.3866704529 0.6455639764
C 1.9657955077 -1.0944296525 0.9199878860
C 0.7346583833 -0.2404319956 0.6273109178
C -0.5529794142 -0.9470540684 1.0479815182
C -1.8104524905 -0.1068459075 0.8152430630
C -2.1698329779 0.0390845997 -0.6625729969
C -3.3959359290 0.9221648248 -0.9009762375
C -4.6945703511 0.3059336753 -0.3924382170
H 2.1654815633 1.6538898049 -0.9327155581
H 3.3722193249 1.6150536350 -2.2178173792
H 3.8362715773 2.0907781786 -0.5847815293
H 4.5776048049 -0.2077449295 -1.0794299317
H 2.9323702731 -0.6937507234 -1.4613032150
H 3.3480392311 0.5221808184 1.2483547412
H 4.0948740293 -1.0482912980 0.9843331274
H 1.9455190640 -1.3898409028 1.9725601808
H 1.9175095462 -2.0090649316 0.3236562263
H 0.6947995308 -0.0210427696 -0.4393919753
H 0.8157323052 0.7062901461 1.1669902095
H -0.4855384459 -1.1887272197 2.1118610468
H -0.6437158527 -1.8895619617 0.5026158604
H -2.6420993299 -0.5816956284 1.3385404633
H -1.6659243838 0.8846962150 1.2512214962
H -1.3248741042 0.4782910922 -1.1959534157
H -2.3516716896 -0.9510477088 -1.0873758746
H -3.2403907850 1.8898053986 -0.4184155362
H -3.4900709632 1.1006955024 -1.9748638216
H -4.8446007413 -0.6782086109 -0.8309828986
H -4.6818145977 0.2033442908 0.6893168134
H -5.5398311250 0.9345927046 -0.6625394133
32
CONF703
C 3.4403418312 1.0547699771 1.0958471988
C 3.5678102628 -0.4422117541 0.8398349286
C 2.2929962010 -1.0754193091 0.2782887130
C 1.9178931171 -0.5701619057 -1.1232022998
C 0.7770278497 0.4505747606 -1.1291680873
C -0.5862496650 -0.1951256312 -0.8876673810
C -1.7038302234 0.8444936223 -0.8411038572
C -3.1025678771 0.2318635370 -0.7468708778
C -3.3614506060 -0.5975453990 0.5125885253
C -3.2521521188 0.2115956001 1.7999900706
H 2.6140302525 1.2551949646 1.7746117974
H 3.2666944015 1.5937691177 0.1683157378
H 4.3532723395 1.4385988786 1.5460580021
H 3.8162280465 -0.9410446721 1.7800010088
H 4.3924122131 -0.6214308376 0.1458327298
H 1.4721589627 -0.8845935422 0.9713862784
H 2.4433130080 -2.1564776232 0.2444313623
H 1.6199841333 -1.4140907750 -1.7492383001
H 2.7998900618 -0.1242264371 -1.5870042854
H 0.7578375629 0.9562163861 -2.0980455763
H 0.9557883381 1.2090222964 -0.3655562632
H -0.5616632739 -0.7487329150 0.0516150244
H -0.7920511544 -0.9103481478 -1.6881111869
H -1.5381381621 1.5180036416 0.0013760315
H -1.6585063168 1.4483788084 -1.7513492470
H -3.8371821652 1.0400858521 -0.7886922721
H -3.2644770790 -0.4053462592 -1.6199714177
H -4.3697249466 -1.0130644252 0.4418922900
H -2.6667069723 -1.4380958952 0.5500456029
H -2.2327669317 0.5511111130 1.9627456593
H -3.9031535810 1.0821807085 1.7579743611
H -3.5459104939 -0.3963595103 2.6524891872
32
CONF646
C 4.3899632088 -0.0476601794 -1.1404372945
C 2.9055218483 0.1043600832 -0.8291753303
C 2.4881088160 -0.7629808411 0.3571447954
C 0.9856227289 -0.7248430931 0.6410913537
C 0.5128386399 0.6207156042 1.1918282147
C -0.9809930680 0.6461391199 1.5475274137
C -1.8696073879 1.2969746314 0.4842612622
C -1.9205116380 0.5777530363 -0.8646452454
C -2.5304474260 -0.8245767877 -0.8240983943
C -4.0086432213 -0.8263667687 -0.4509232673
H 4.6238316371 -1.0805430532 -1.3894152737
H 4.9898623274 0.2404271477 -0.2799110618
H 4.6712591756 0.5810782048 -1.9817763034
H 2.3204861549 -0.1819063210 -1.7064661372
H 2.6928359776 1.1527051015 -0.6139300088
H 3.0332205238 -0.4418550216 1.2481509869
H 2.7772897994 -1.7963144576 0.1491213756
H 0.7521701101 -1.5000243173 1.3758329937
H 0.4461331869 -0.9667855553 -0.2754306597
H 0.7197592565 1.4106325425 0.4687131861
H 1.0986860841 0.8391917490 2.0879755935
H -1.1144361036 1.2170494927 2.4694386423
H -1.3265945088 -0.3686755213 1.7492199006
H -2.8825436427 1.3787556840 0.8832343877
H -1.5097480351 2.3148288893 0.3117446009
H -2.5091645626 1.1899138948 -1.5533031637
H -0.9103038251 0.5143814584 -1.2728069710
H -2.4177937985 -1.2730376076 -1.8145281859
H -1.9795528269 -1.4491546908 -0.1193982664
H -4.4143456947 -1.8326929336 -0.5255481588
H -4.1547679161 -0.4782604757 0.5681843064
H -4.5708536024 -0.1789436211 -1.1206241605
32
CONF736
C 4.2724825373 0.1019778003 0.5389009251
C 3.0302478940 -0.7620137030 0.7250017508
C 2.2772992547 -1.0262120905 -0.5801687523
C 1.7350481670 0.2233384065 -1.2786152533
C 0.7487326628 1.0507091672 -0.4525354301
C -0.5430364776 0.3050771227 -0.1224943700
C -1.5399443787 1.2099988166 0.5975066537
C -2.8166992386 0.4988330069 1.0510582316
C -3.6986124793 -0.0088206729 -0.0993816000
C -3.5173147630 -1.4955552142 -0.3889819714
H 4.0051574871 1.1083847446 0.2278695768
H 4.9261198872 -0.3303738366 -0.2157022065
H 4.8257208319 0.1722833115 1.4726232299
H 2.3635528909 -0.2895991890 1.4480773993
H 3.3307381609 -1.7261039035 1.1429650487
H 1.4515171069 -1.7099622754 -0.3742396702
H 2.9524990918 -1.5339422239 -1.2739655057
H 1.2390387530 -0.0926277504 -2.2001261246
H 2.5718564979 0.8627559706 -1.5655322174
H 0.4961272330 1.9482769141 -1.0236228059
H 1.2245081459 1.3809935973 0.4724377835
H -0.3222568893 -0.5542555691 0.5131428288
H -0.9826994595 -0.0621359041 -1.0513007097
H -1.0513072228 1.6338716750 1.4791276415
H -1.8086915842 2.0426413929 -0.0576516859
H -2.5511182883 -0.3381494531 1.7000275643
H -3.3903648062 1.2069338689 1.6532611086
H -4.7480419174 0.1620499165 0.1506219563
H -3.4842841967 0.5674768293 -1.0015270388
H -4.1538762807 -1.7986497546 -1.2175459908
H -2.4872106385 -1.7241409680 -0.6467374137
H -3.7897294979 -2.0856265236 0.4835077167
32
CONF629
C 3.7542955673 0.0998692819 1.6174518595
C 2.4186869751 -0.2925868665 0.9958727171
C 2.5277651788 -0.4391688552 -0.5216759900
C 1.2165955631 -0.8584667987 -1.2019573563
C 0.4332716615 0.2972508784 -1.8298524013
C -0.1107762078 1.3378188467 -0.8495670356
C -1.1329989168 0.8026067115 0.1546651521
C -2.4129450639 0.2913203241 -0.5046407063
C -3.5280587092 -0.0005283815 0.5006363806
C -3.2053518045 -1.1647139428 1.4309865310
H 3.6602151767 0.1991529195 2.6960557555
H 4.0977609271 1.0497516376 1.2134923874
H 4.5097388654 -0.6538100997 1.4059778129
H 1.6722169070 0.4615926055 1.2472331212
H 2.0880756934 -1.2424690648 1.4235675858
H 3.2948885191 -1.1890157881 -0.7303108069
H 2.8747555424 0.5033461744 -0.9510263465
H 0.5865795624 -1.3874200016 -0.4856594590
H 1.4466132076 -1.5626389785 -2.0050027243
H -0.3979809963 -0.1194075292 -2.4021091895
H 1.0871195085 0.8099238075 -2.5404899520
H -0.5799368832 2.1367388734 -1.4304636582
H 0.7222761259 1.7836480196 -0.3031792921
H -0.6811666820 0.0060749729 0.7455558238
H -1.3933559741 1.6138251521 0.8400746705
H -2.7689878044 1.0450580210 -1.2118404353
H -2.2006073233 -0.6192995205 -1.0677070605
H -3.7218278854 0.8954793963 1.0950365828
H -4.4416701741 -0.2336417508 -0.0515849276
H -2.3587666260 -0.9289927344 2.0701713622
H -4.0588728179 -1.3867968637 2.0673156261
H -2.9661632568 -2.0558108163 0.8545628141
32
CONF599
C 2.0141996951 -0.4167187230 1.9387480233
C 2.7029848471 -0.8497677344 0.6493004538
C 3.0587445768 0.3224338131 -0.2663200462
C 1.8641778195 1.0723392371 -0.8620329958
C 1.0166124525 0.2301907140 -1.8269819423
C -0.2661962919 -0.3325561207 -1.2093107635
C -1.3383391519 0.7372091681 -1.0079350359
C -2.6287127004 0.1881474793 -0.3972898400
C -2.4847694517 -0.2121470299 1.0702194488
C -3.8146107474 -0.6657988504 1.6610696896
H 2.6352476464 0.2941559144 2.4796042756
H 1.8394849488 -1.2774078202 2.5804494966
H 1.0554702337 0.0530471818 1.7348077014
H 2.0696279646 -1.5566815186 0.1114941518
H 3.6276542318 -1.3728521229 0.9064434547
H 3.6771402083 -0.0516065333 -1.0865161370
H 3.6646409821 1.0338948668 0.3011182380
H 2.2594240898 1.9377720159 -1.3985599882
H 1.2388422337 1.4561162152 -0.0565618140
H 1.6242418670 -0.5963907513 -2.2015092213
H 0.7368057196 0.8389077210 -2.6900198247
H -0.0355411853 -0.8052114738 -0.2558533943
H -0.6673861213 -1.1032248938 -1.8726906402
H -0.9543870026 1.5336385576 -0.3669999850
H -1.5705343248 1.1831954423 -1.9784847186
H -3.4045789109 0.9543354726 -0.4722357165
H -2.9629998138 -0.6762452426 -0.9760580621
H -1.7598158649 -1.0222084585 1.1645350845
H -2.1083573850 0.6411574378 1.6397905894
H -4.5506373887 0.1331358267 1.6024641022
H -4.1990411710 -1.5249183328 1.1157837384
H -3.6940762066 -0.9464958917 2.7045646583
32
CONF582
C 3.2167352100 1.3992228402 -1.1822639083
C 3.5385554295 -0.0482112673 -0.8235537337
C 3.2944519573 -0.3752963876 0.6570824357
C 1.9647539598 -1.0796632456 0.9353353030
C 0.7337579809 -0.2330180390 0.6209253649
C -0.5542284218 -0.9383052479 1.0428374400
C -1.8122982893 -0.0974722715 0.8168575095
C -2.1660193642 0.0724815857 -0.6596578264
C -3.4143421220 0.9277499254 -0.8847037694
C -4.7001585562 0.2583985536 -0.4118537655
H 2.1803004334 1.6387016288 -0.9626134484
H 3.3924951948 1.5736114216 -2.2416303074
H 3.8507463856 2.0777643431 -0.6154833600
H 4.5882875917 -0.2311740845 -1.0633236559
H 2.9440307890 -0.7198160914 -1.4459359027
H 3.3424867452 0.5447917759 1.2430367704
H 4.0931553625 -1.0293002259 1.0140238967
H 1.9384192920 -1.3567550732 1.9927493025
H 1.9212747770 -2.0046251940 0.3548050682
H 0.7006910932 -0.0290662414 -0.4490696457
H 0.8083522450 0.7214295297 1.1477596161
H -0.4846599944 -1.1824217127 2.1060643727
H -0.6471171278 -1.8795822941 0.4957053706
H -2.6446812650 -0.5835196288 1.3285976810
H -1.6729897271 0.8871475078 1.2698875731
H -1.3297060178 0.5462279656 -1.1768834295
H -2.3192459818 -0.9119368236 -1.1083598913
H -3.2921462349 1.8833815317 -0.3697731250
H -3.5020373454 1.1379249763 -1.9533413280
H -5.5601225616 0.8722317506 -0.6692480465
H -4.8180539658 -0.7137088465 -0.8855632199
H -4.6955583601 0.1185686705 0.6657644248
32
CONF570
C 4.7336351296 -0.4146703862 -0.2252092892
C 3.4400726332 -0.4973515641 -1.0281524830
C 2.3503027295 0.4478095935 -0.5193124081
C 1.8221181061 0.0699966976 0.8649951429
C 0.6237644906 0.9245830299 1.3046946259
C -0.7346961886 0.2404871340 1.1338196513
C -1.1007473218 -0.0495662228 -0.3199954956
C -2.4921248456 -0.6664529128 -0.4776945382
C -3.6309442818 0.3155126387 -0.2085072297
C -4.9920100724 -0.3180054884 -0.4727297984
H 5.4986619769 -1.0413097181 -0.6776615729
H 4.5810508050 -0.7513485825 0.7966193823
H 5.0992534199 0.6095410042 -0.2004091163
H 3.0651324616 -1.5233067499 -1.0064069710
H 3.6568005513 -0.2479044374 -2.0696436560
H 1.5257424083 0.4424021056 -1.2337763888
H 2.7475781817 1.4652446520 -0.4839394283
H 2.6291891857 0.1906632800 1.5889721286
H 1.5376274784 -0.9843693604 0.8682133345
H 0.6243562235 1.8634660152 0.7469497767
H 0.7335188752 1.1766256574 2.3617650462
H -1.4955505978 0.8888941319 1.5727480474
H -0.7363722138 -0.6966648064 1.6961591188
H -1.0525304313 0.8773269157 -0.8968131694
H -0.3698119581 -0.7437739275 -0.7379336562
H -2.5938010841 -1.0399134021 -1.4998772412
H -2.5858547255 -1.5218674792 0.1956365824
H -3.5915817629 0.6545310814 0.8279184959
H -3.5081500985 1.1911638058 -0.8501767883
H -5.0670597767 -0.6425542704 -1.5083372703
H -5.1388513837 -1.1844837053 0.1682662911
H -5.7901815655 0.3938794806 -0.2768552691
32
CONF477
C 4.9212313041 -0.6601547866 0.1992060627
C 3.4886211135 -0.5756852375 -0.3150265530
C 2.5281541671 -0.1045972144 0.7754594582
C 1.0594131919 -0.1127769594 0.3476461685
C 0.7318898303 0.9457179381 -0.7032243094
C -0.7400521959 0.9502898320 -1.1229886196
C -1.7042842163 1.3680856432 -0.0021748571
C -2.4589269025 0.1997613803 0.6369563278
C -3.5746486977 -0.3411034870 -0.2553964869
C -4.2956047195 -1.5165438943 0.3940869153
H 5.2569530974 0.3133123245 0.5498174368
H 5.5923361209 -0.9917473806 -0.5893735604
H 4.9888789187 -1.3631206516 1.0266744519
H 3.1728303656 -1.5588647478 -0.6716173537
H 3.4547458004 0.1125114971 -1.1610639977
H 2.8061205660 0.9045961190 1.0889263088
H 2.6410923749 -0.7607536426 1.6423409342
H 0.4457915832 0.0644194786 1.2325775044
H 0.8050242392 -1.1006473364 -0.0443892307
H 1.3384170425 0.7678624635 -1.5933576771
H 0.9973992734 1.9318908525 -0.3141117769
H -1.0046360284 -0.0441170128 -1.4858701754
H -0.8448926643 1.6393547530 -1.9635534915
H -1.1418345895 1.8954364989 0.7708353809
H -2.4412603427 2.0710977546 -0.3967168693
H -1.7626343722 -0.6076973414 0.8689110129
H -2.9005794242 0.5361623020 1.5784620663
H -4.2918955681 0.4580933150 -0.4568352428
H -3.1595451068 -0.6589046258 -1.2137769248
H -5.0918766100 -1.8813392376 -0.2501870026
H -3.6016280801 -2.3334696705 0.5794326183
H -4.7319966162 -1.2172739432 1.3445669629
32
CONF728
C 4.5543921981 0.6431862070 0.1062269860
C 3.2700951887 -0.0123515139 -0.3883638887
C 2.4139447299 -0.5154021744 0.7720382387
C 1.1855766931 -1.3116759199 0.3273486006
C 0.1829552588 -0.5393780457 -0.5329335603
C -0.4367993624 0.6568299185 0.1859767003
C -1.4806098198 1.3896613096 -0.6584282556
C -2.7657066177 0.6106031904 -0.9513882789
C -3.5972992071 0.2733067901 0.2950330676
C -3.4057519148 -1.1596258734 0.7824089081
H 5.1524213488 -0.0673327528 0.6727570608
H 4.3254138631 1.4880126508 0.7522407002
H 5.1483349217 1.0018963663 -0.7309557064
H 3.5188862172 -0.8515335226 -1.0422290735
H 2.7056638674 0.7131593116 -0.9761949561
H 2.1044482122 0.3316128245 1.3867641942
H 3.0276648714 -1.1647086115 1.4020716784
H 0.6716792270 -1.6782774539 1.2200139126
H 1.5231534110 -2.1843404861 -0.2378801173
H -0.6074050194 -1.2336579976 -0.8243625029
H 0.6683876172 -0.1977957896 -1.4489009115
H 0.3510552221 1.3715178861 0.4322670352
H -0.8847414264 0.3293103617 1.1252779730
H -1.7518066399 2.3159770733 -0.1450596541
H -1.0225157109 1.6674468929 -1.6115525979
H -3.3673015622 1.2272031675 -1.6232996562
H -2.5282645278 -0.3078242952 -1.4895133278
H -3.3450447428 0.9683759587 1.0983981996
H -4.6563763915 0.4141084440 0.0677735593
H -3.7033916686 -1.8644888332 0.0087539004
H -2.3688320313 -1.3547542622 1.0402017246
H -4.0175799970 -1.3428307861 1.6632447006
32
CONF727
C 4.5690074177 0.6175016131 -0.1081173112
C 3.2864109113 -0.0417730620 0.3858580242
C 2.4054488088 -0.4962499088 -0.7759684724
C 1.1728627279 -1.2882890616 -0.3358323371
C 0.1800855513 -0.5183013127 0.5378347397
C -0.4445432557 0.6809705062 -0.1718812182
C -1.4992899752 1.3978279394 0.6725557643
C -2.7797250441 0.6054459705 0.9501047502
C -3.5912045057 0.2571964791 -0.3065771795
C -3.3807718911 -1.1760769614 -0.7851453760
H 4.3382218101 1.4877090758 -0.7188360780
H 5.1485762777 -0.0783959687 -0.7108831860
H 5.1819832500 0.9390324717 0.7304553868
H 2.7397440111 0.6683515867 1.0082678954
H 3.5374525443 -0.9055645979 1.0059954784
H 3.0002132877 -1.1343010353 -1.4350263136
H 2.0987306806 0.3735733746 -1.3593787900
H 1.5061935159 -2.1708137086 0.2164247035
H 0.6516001320 -1.6393034176 -1.2305246000
H 0.6742093915 -0.1808689808 1.4506559373
H -0.6086081374 -1.2124588978 0.8338716374
H -0.8847910480 0.3594502296 -1.1169437561
H 0.3393622512 1.4038596603 -0.4067409598
H -1.0499951456 1.6717338021 1.6309656866
H -1.7750325298 2.3258858364 0.1647448414
H -2.5395387400 -0.3097422293 1.4925577352
H -3.3963733819 1.2163796635 1.6134891023
H -4.6544961554 0.3902821440 -0.0950205839
H -3.3331994978 0.9512340745 -1.1089682879
H -3.6897545639 -1.8802372376 -0.0152684755
H -3.9731130950 -1.3662611534 -1.6777535062
H -2.3375481970 -1.3653907045 -1.0208364761
32
CONF581
C 5.1063119383 0.0699576824 0.6510444086
C 3.7083754788 -0.4464974564 0.3303357180
C 2.8463596137 0.6337780445 -0.3205529877
C 1.4664564086 0.1379365422 -0.7572051275
C 0.5357020459 -0.1621202404 0.4165679177
C -0.8298837155 -0.7000836968 -0.0153404480
C -1.6834258720 0.3294471048 -0.7568996929
C -3.1138906077 -0.1610655020 -1.0275134690
C -4.1575647861 0.3817766091 -0.0487885511
C -3.9575364623 -0.0840514405 1.3883878143
H 5.7047295801 -0.7090790214 1.1171465942
H 5.0517528898 0.9161259368 1.3325885666
H 5.6106690587 0.3944323206 -0.2566572598
H 3.2371532668 -0.7921613173 1.2516944606
H 3.7840122643 -1.3008338461 -0.3462372014
H 3.3740450981 1.0129168808 -1.1993605046
H 2.7257904287 1.4674111911 0.3753283523
H 1.5834904164 -0.7634263440 -1.3637482533
H 1.0107630058 0.9045981144 -1.3863344972
H 0.3949955403 0.7480495066 1.0049208841
H 1.0052238253 -0.9052813456 1.0636487558
H -1.3646201883 -1.0351812601 0.8744385080
H -0.6836853727 -1.5717629737 -0.6581256798
H -1.7199206509 1.2542109192 -0.1772695422
H -1.2019317271 0.5615116952 -1.7079791160
H -3.4136929894 0.1463530543 -2.0317773606
H -3.1332454602 -1.2526694204 -1.0039772293
H -4.1400305969 1.4738577948 -0.0791073888
H -5.1454184015 0.0605776871 -0.3886325559
H -3.0275112242 0.3020368255 1.7966058288
H -4.7741534322 0.2699560025 2.0138168802
H -3.9358401189 -1.1706508512 1.4369536843
32
CONF414
C 4.1462997051 -1.0800307069 -1.2335151642
C 2.8211368692 -0.6705342808 -0.6006315498
C 3.0306292612 0.2917929875 0.5661779263
C 1.7399677749 0.6688573831 1.2964219797
C 0.7571535233 1.4797137157 0.4385146401
C -0.4074290079 0.6568245774 -0.1196845014
C -1.4578587152 0.3445672327 0.9454423636
C -2.5517282141 -0.6067086454 0.4587018571
C -3.4517982134 -0.0018253982 -0.6171617981
C -4.5965971742 -0.9395531875 -0.9832027601
H 3.9798200079 -1.7619719836 -2.0639161285
H 4.7812154349 -1.5764562379 -0.5027587359
H 4.6753702481 -0.2060270185 -1.6071990521
H 2.3010924425 -1.5621507340 -0.2423888416
H 2.1951757011 -0.1975857116 -1.3588572553
H 3.5144829819 1.2005367922 0.1993898212
H 3.7111130137 -0.1738817946 1.2840741797
H 2.0142750117 1.2519334119 2.1780206596
H 1.2560025121 -0.2432272566 1.6496962012
H 1.3034702829 1.9350238502 -0.3898329670
H 0.3394464480 2.2953853370 1.0327404411
H -0.0315812674 -0.2778059396 -0.5385542570
H -0.8759703222 1.2206901103 -0.9283483762
H -0.9664509275 -0.1083026781 1.8092815065
H -1.9160151407 1.2777536411 1.2823472703
H -2.0908052212 -1.5186119104 0.0714001679
H -3.1729268471 -0.8892574854 1.3125679639
H -3.8600451123 0.9438802410 -0.2531855339
H -2.8650479409 0.2104277796 -1.5121752949
H -5.2134122290 -1.1472376843 -0.1114996774
H -5.2251279570 -0.4949956632 -1.7510085770
H -4.2089151708 -1.8834651033 -1.3599895753
32
CONF417
C 4.0942270639 -1.1812949196 1.1844193422
C 2.7825630475 -0.7099547325 0.5666014873
C 3.0203177836 0.3126431806 -0.5421035558
C 1.7449338212 0.7533066283 -1.2637470689
C 0.7628676547 1.5269184979 -0.3716838988
C -0.4059866480 0.6830498405 0.1448936751
C -1.4601438779 0.4324757918 -0.9329451627
C -2.5375635697 -0.5649544077 -0.5057554618
C -3.4243319519 -0.0568852089 0.6294828279
C -4.5472708977 -1.0381034323 0.9458518794
H 4.7241947027 -1.6505910281 0.4317888546
H 3.9071240144 -1.9037220140 1.9752559424
H 4.6384042475 -0.3403252323 1.6087328786
H 2.1605656577 -0.2680649927 1.3464629849
H 2.2480773656 -1.5693240847 0.1547882092
H 3.7008134800 -0.1235584840 -1.2783029380
H 3.5152985631 1.1907357290 -0.1196886334
H 1.2516389417 -0.1276671880 -1.6779253034
H 2.0402339668 1.3843489807 -2.1047011925
H 0.3493960430 2.3704287001 -0.9289008132
H 1.3091209029 1.9416514161 0.4777782443
H -0.8698806142 1.2062341422 0.9830695250
H -0.0352867253 -0.2745088525 0.5130600828
H -1.9322419314 1.3807418107 -1.2015154867
H -0.9696847966 0.0465467675 -1.8292660602
H -3.1703503744 -0.7860098544 -1.3691921548
H -2.0617209346 -1.4996348398 -0.1990517766
H -2.8223525116 0.0967219261 1.5263662653
H -3.8535687117 0.9068644691 0.3458636882
H -4.1375409947 -2.0015394281 1.2411594378
H -5.1653602800 -0.6638323138 1.7583154129
H -5.1797670477 -1.1888402775 0.0736794753
32
CONF440
C 4.2891722465 -0.5798194704 -1.0438369505
C 3.0647988743 -1.0619667784 -0.2734757865
C 2.7608820970 -0.1894071748 0.9471947349
C 2.1405131999 1.1725529139 0.6018083174
C 0.6272473771 1.2350288428 0.8197955234
C -0.1675462254 0.3213418097 -0.1100402563
C -1.6735896058 0.4884764551 0.0826220450
C -2.4690378161 -0.4378596040 -0.8351413087
C -3.9812213889 -0.2255596634 -0.7502977844
C -4.5717687487 -0.6371461151 0.5937950079
H 4.1515712511 0.4390742004 -1.3972967039
H 4.4711081611 -1.2178311549 -1.9054967279
H 5.1710090617 -0.6025135139 -0.4071111431
H 3.2440821284 -2.0863414603 0.0618608216
H 2.2013645582 -1.0781831782 -0.9397266948
H 3.6942860350 -0.0375792419 1.4936093934
H 2.0839359101 -0.7281265112 1.6131976527
H 2.3574478329 1.4239780696 -0.4375171305
H 2.5982738235 1.9445755793 1.2238052208
H 0.2972458449 2.2654320825 0.6627751933
H 0.4032260536 0.9748594123 1.8573575954
H 0.0995806969 -0.7195533818 0.0802201530
H 0.0903162042 0.5500811655 -1.1471774552
H -1.9215410122 0.2787252527 1.1244795760
H -1.9517970782 1.5250756265 -0.1235961179
H -2.1499831825 -0.2655654474 -1.8662600835
H -2.2374714784 -1.4767013182 -0.5882640135
H -4.2074620565 0.8263442810 -0.9390372871
H -4.4586714323 -0.8124242482 -1.5385634955
H -4.1917045418 -0.0096170954 1.3953799660
H -5.6548926702 -0.5422670992 0.5740611061
H -4.3217070936 -1.6720161225 0.8169134642
32
CONF580
C 5.0980954528 0.0927342744 -0.6717963120
C 3.7061003290 -0.4380704515 -0.3487434300
C 2.8459874158 0.6222737757 0.3365145343
C 1.4717304202 0.1109122415 0.7727353278
C 0.5372350372 -0.1793315079 -0.4005038502
C -0.8325563602 -0.7059718561 0.0322151106
C -1.6840878230 0.3370163219 0.7571444437
C -3.1187925011 -0.1417427355 1.0260567560
C -4.1533623785 0.3940936025 0.0338356016
C -3.9493650995 -0.0940285860 -1.3953986020
H 5.6099524935 0.4000347738 0.2375847439
H 5.0322029727 0.9531875079 -1.3340116184
H 5.6957461454 -0.6726189841 -1.1609300950
H 3.7926458552 -1.3080031441 0.3063805490
H 3.2267011318 -0.7636300904 -1.2732207130
H 2.7162891122 1.4723874385 -0.3375409643
H 3.3799726356 0.9817342046 1.2198578012
H 1.0142076435 0.8657524202 1.4147035057
H 1.5975527863 -0.7979659600 1.3661528405
H 1.0000467065 -0.9253421148 -1.0491049976
H 0.4035425288 0.7329325261 -0.9872239337
H -0.6932886592 -1.5704653612 0.6861023368
H -1.3654318769 -1.0492411997 -0.8555194383
H -1.2061921051 0.5782006122 1.7078090894
H -1.7124317803 1.2548640580 0.1661442907
H -3.1442933785 -1.2334101082 1.0167948232
H -3.4224998401 0.1806904952 2.0244461500
H -5.1453689717 0.0850677366 0.3728979186
H -4.1280305372 1.4863452572 0.0482245147
H -3.9366832307 -1.1813570642 -1.4281198207
H -4.7592811604 0.2578169470 -2.0306931970
H -3.0137419809 0.2782232588 -1.8036374615
32
CONF716
C 3.2257095721 -0.1305874547 1.8024825909
C 3.3776167732 0.5897977761 0.4675803504
C 3.0999422712 -0.3078132351 -0.7400019239
C 1.6848781678 -0.8857457954 -0.8039738818
C 0.5940683550 0.1800047920 -0.8852265495
C -0.7813631030 -0.4383920224 -1.1300760047
C -1.9030139185 0.6034811992 -1.1129294390
C -2.2814556769 1.0841829722 0.2960867101
C -3.5604350935 0.4451402045 0.8416624143
C -3.4434370666 -1.0580573715 1.0646227095
H 3.8441564136 -1.0252710632 1.8241440056
H 2.1927826614 -0.4214002027 1.9739178271
H 3.5334804591 0.5197900406 2.6180040659
H 4.4012583559 0.9629032486 0.3825833527
H 2.7140299906 1.4555905259 0.4429174385
H 3.8112329012 -1.1376428680 -0.7291325153
H 3.2829903324 0.2704313320 -1.6492616767
H 1.5061549711 -1.5215175293 0.0648699444
H 1.6190005046 -1.5231873083 -1.6897767299
H 0.8260523379 0.8738942977 -1.6971875171
H 0.5717666392 0.7528066006 0.0426252764
H -0.9727132740 -1.1991435211 -0.3720141419
H -0.7726346124 -0.9370405331 -2.1026548024
H -1.5830885777 1.4554311521 -1.7169483610
H -2.7892887730 0.1853673086 -1.5942504249
H -1.4630484806 0.8787863757 0.9880263560
H -2.4289936349 2.1661316572 0.2811710664
H -3.8072734277 0.9244780507 1.7923602149
H -4.3830119753 0.6446656043 0.1506786323
H -2.6170901382 -1.2797492062 1.7366518100
H -4.3580903594 -1.4444998693 1.5088269459
H -3.2767555382 -1.5781382114 0.1251157548
32
CONF726
C 4.2379605744 0.0844068889 -0.5791951345
C 2.9847974422 -0.7681515651 -0.7429864862
C 2.2589794606 -1.0336836697 0.5770457793
C 1.7419376602 0.2162991804 1.2936874798
C 0.7551733136 1.0632273897 0.4881661211
C -0.5365786428 0.3248807872 0.1423070029
C -1.5437039498 1.2493731976 -0.5374368779
C -2.8091777342 0.5428996292 -1.0284705195
C -3.6814125737 -0.0422006523 0.0919109893
C -3.4610812954 -1.5354553230 0.3128264578
H 4.7720332509 0.1546694384 -1.5239943798
H 4.9035299298 -0.3572461463 0.1594139167
H 3.9857679127 1.0914106703 -0.2575684208
H 3.2677090099 -1.7322039853 -1.1731931507
H 2.3061973575 -0.2856978084 -1.4481032667
H 2.9451749390 -1.5503434007 1.2532298495
H 1.4233958500 -1.7098450327 0.3860714165
H 2.5900743203 0.8429135109 1.5756714250
H 1.2539441131 -0.1024587051 2.2185235306
H 1.2299639571 1.4147336640 -0.4295105979
H 0.5038603132 1.9473279663 1.0804395136
H -0.9671926517 -0.0767402854 1.0610575952
H -0.3169518573 -0.5102377601 -0.5251570673
H -1.8253582038 2.0466217367 0.1552266588
H -1.0589327039 1.7207185974 -1.3968247445
H -3.3954658655 1.2733744318 -1.5905342114
H -2.5306201117 -0.2526574433 -1.7225939228
H -3.4873027359 0.4970953547 1.0210958952
H -4.7339143402 0.1113783344 -0.1564416906
H -4.0958084183 -1.8947313094 1.1200620288
H -3.7098416540 -2.0906839650 -0.5890785218
H -2.4274088522 -1.7481012156 0.5694349048
32
CONF625
C 3.4397881118 0.2189759480 1.5601913508
C 3.6100345259 -0.0969652693 0.0784748389
C 2.5942624240 -1.1156571933 -0.4426403393
C 1.1335419513 -0.6661441628 -0.3672415685
C 0.8350787406 0.5541715967 -1.2353428153
C -0.6567213860 0.8785142763 -1.3431573617
C -1.2907769618 1.3314813708 -0.0196904196
C -2.0603045853 0.2320406465 0.7165741826
C -3.4076973604 -0.0823753357 0.0689666784
C -4.1493163988 -1.1832894025 0.8182415412
H 3.4593761843 -0.6959852352 2.1482749353
H 2.4976248810 0.7278942249 1.7460341625
H 4.2453763883 0.8646272542 1.9023012564
H 4.6110320291 -0.5052007930 -0.0816887406
H 3.5389498908 0.8243813107 -0.5015138685
H 2.7020877228 -2.0391248823 0.1323347282
H 2.8371635828 -1.3460346753 -1.4833920139
H 0.8721968585 -0.4553191029 0.6696156939
H 0.5077123195 -1.4965629091 -0.7048974574
H 1.2225157772 0.3701294908 -2.2412078656
H 1.3548008263 1.4273611678 -0.8363852653
H -1.1843946450 0.0031824027 -1.7251979853
H -0.7707431216 1.6733377367 -2.0834937347
H -0.5057344919 1.7178758478 0.6336960951
H -1.9818013480 2.1557803854 -0.2109115870
H -1.4610329576 -0.6784034503 0.7556106071
H -2.2382307670 0.5550774154 1.7455064168
H -4.0194323214 0.8228187984 0.0553743311
H -3.2567433687 -0.3920847322 -0.9668897909
H -3.5642729158 -2.1003214590 0.8243171086
H -4.3299214484 -0.8869006398 1.8491809749
H -5.1072161635 -1.3896752656 0.3470484538
32
CONF773
C 3.3959014302 -1.8550016333 -0.0938522455
C 3.3713582726 -0.5602418924 0.7110443858
C 2.0314345530 0.1730546268 0.6258495875
C 1.7297649468 0.6966870953 -0.7779952311
C 0.6011966989 1.7304042367 -0.8478501527
C -0.8214927900 1.1641227080 -0.8021166289
C -1.3112326946 0.7790645141 0.5931567236
C -2.8277691085 0.5845999059 0.6591197156
C -3.3688656065 -0.5394284072 -0.2267308117
C -2.8377162424 -1.9161985983 0.1561926898
H 3.2958303630 -1.6537270991 -1.1570603027
H 2.5814839789 -2.5077738584 0.2126935509
H 4.3344509446 -2.3807455789 0.0652607098
H 4.1678286398 0.0998249356 0.3595457394
H 3.5739815970 -0.7922112174 1.7593330839
H 2.0525796921 1.0172589626 1.3191674735
H 1.2433084064 -0.5048961061 0.9536246076
H 1.4883421686 -0.1356992208 -1.4410508316
H 2.6389921185 1.1685794981 -1.1609373396
H 0.7084158618 2.2669619281 -1.7942307145
H 0.7274877729 2.4607595488 -0.0452047456
H -0.8784908038 0.3011705751 -1.4677252943
H -1.4983817071 1.9277170667 -1.1956503999
H -0.8195656494 -0.1321289206 0.9294392300
H -1.0409328229 1.5737643765 1.2929219702
H -3.1054500401 0.3764533102 1.6956032263
H -3.3152286136 1.5191794029 0.3695015513
H -4.4581943702 -0.5453676210 -0.1393716226
H -3.1274286838 -0.3332340290 -1.2705388726
H -3.3286002135 -2.6865911496 -0.4339212396
H -1.7679897265 -1.9856029991 -0.0219937778
H -3.0265036891 -2.1170694759 1.2085130493
32
CONF473
C 4.9914716325 0.0636782399 0.4684102178
C 3.7501111382 -0.6722940383 -0.0218359554
C 2.5625687784 0.2708575383 -0.2025030038
C 1.3178036586 -0.4700965484 -0.6861283253
C 0.1204240975 0.4493792309 -0.9375087175
C -0.5207408513 1.0020161672 0.3385230556
C -1.3118781200 -0.0402913503 1.1426776170
C -2.8269816992 0.0419198847 0.9461004934
C -3.2868894849 -0.3044634062 -0.4680546215
C -4.8076835818 -0.3216943600 -0.5739661556
H 5.2824781206 0.8341256839 -0.2422886326
H 5.8233814480 -0.6262378770 0.5875269902
H 4.7984244280 0.5387727361 1.4277393482
H 3.4836450237 -1.4518862746 0.6955646654
H 3.9703367484 -1.1611959994 -0.9737231456
H 2.8251446115 1.0464172090 -0.9261127220
H 2.3555813237 0.7625699870 0.7496561680
H 1.0501201034 -1.2338432052 0.0466701331
H 1.5617730658 -0.9846280762 -1.6190096200
H -0.6310529612 -0.1024487727 -1.5040163956
H 0.4508600702 1.2870200753 -1.5568211901
H -1.1883124150 1.8228331784 0.0685785930
H 0.2643445097 1.4266787078 0.9653704024
H -0.9772864698 -1.0441771689 0.8761340841
H -1.1074610595 0.0968338841 2.2066607200
H -3.3033458504 -0.6500609399 1.6457998050
H -3.1688903695 1.0487762354 1.1986183552
H -2.8891062670 0.4268695512 -1.1733182268
H -2.8946037323 -1.2863046787 -0.7434208221
H -5.2182634339 0.6516866113 -0.3144695750
H -5.1182469867 -0.5669464462 -1.5867758732
H -5.2289673482 -1.0614100481 0.1035368123
32
CONF623
C 3.4282713646 0.2515896222 1.5541226471
C 3.6115765683 -0.0930517514 0.0803470003
C 2.6014117270 -1.1226932588 -0.4299363887
C 1.1386863024 -0.6784371459 -0.3637557751
C 0.8376625737 0.5317967319 -1.2448980650
C -0.6543349979 0.8567178723 -1.3472376564
C -1.2793511836 1.3206948895 -0.0231467582
C -2.0592839447 0.2309202977 0.7165075789
C -3.4137780630 -0.0645335947 0.0748197017
C -4.1613810497 -1.1655851799 0.8178400819
H 2.4858062540 0.7662462445 1.7211581207
H 4.2321522922 0.9017803207 1.8914256054
H 3.4399884437 -0.6519363704 2.1598696034
H 4.6142097970 -0.5034395139 -0.0632837838
H 3.5450019193 0.8169349483 -0.5179774417
H 2.7115444652 -2.0379516741 0.1574485427
H 2.8479612110 -1.3656881754 -1.4668245535
H 0.8732241168 -0.4583283840 0.6701284980
H 0.5172289514 -1.5148152447 -0.6946167955
H 1.2192243577 0.3353022492 -2.2505831931
H 1.3607423644 1.4088180378 -0.8591167239
H -1.1847897128 -0.0217193767 -1.7181640969
H -0.7724070816 1.6449253910 -2.0939513351
H -0.4881245243 1.6989031722 0.6274309834
H -1.9610680587 2.1527480827 -0.2137605061
H -1.4715132672 -0.6872272018 0.7508802435
H -2.2276877965 0.5544457417 1.7468661771
H -4.0166452504 0.8467002976 0.0741799105
H -3.2723302158 -0.3651265027 -0.9651194825
H -5.1253767706 -1.3558439152 0.3522240607
H -3.5866101011 -2.0891116671 0.8084790780
H -4.3301690942 -0.8790328688 1.8536119955
32
CONF486
C 4.7730080599 -0.0680686309 1.1462521970
C 3.7634789133 -0.7232579030 0.2110217749
C 2.5100325004 0.1319112606 0.0373512537
C 1.4885013870 -0.5364087335 -0.8803723767
C 0.2614171717 0.3316304669 -1.1616269449
C -0.5841280662 0.6033795194 0.0823492638
C -1.9250006088 1.2592615042 -0.2600912624
C -2.9634977210 0.2866249503 -0.8379658525
C -4.0022949643 -0.1846921521 0.1823376399
C -3.4143408921 -1.0227130720 1.3115085613
H 5.0814187796 0.8991720537 0.7557618052
H 5.6561811069 -0.6928331922 1.2547860949
H 4.3362322082 0.0842365661 2.1307486156
H 3.4792161859 -1.6994003310 0.6108492053
H 4.2262470451 -0.8884899845 -0.7647499899
H 2.7903372355 1.1017686042 -0.3807309188
H 2.0645516423 0.3077922849 1.0179046133
H 1.1664608088 -1.4797173786 -0.4323238939
H 1.9740909509 -0.7733649814 -1.8306353350
H -0.3537439743 -0.1749970021 -1.9085190088
H 0.5824006654 1.2826376469 -1.5936099880
H -0.0320701605 1.2657117488 0.7516757513
H -0.7568538728 -0.3355469049 0.6094695809
H -2.3377130396 1.7239942068 0.6375580407
H -1.7357612636 2.0610245754 -0.9772902710
H -3.4979970400 0.7745429095 -1.6559077506
H -2.4587711790 -0.5860681839 -1.2558944965
H -4.5088043434 0.6861002402 0.6055545389
H -4.7549720409 -0.7788138077 -0.3420965599
H -2.7245062111 -0.4358048094 1.9119125813
H -4.2070449056 -1.3847789802 1.9625491145
H -2.8827256564 -1.8827143002 0.9097464265
32
CONF567
C 5.0702102727 -0.5346683071 0.1161774468
C 3.5587841630 -0.7225770141 0.1778822659
C 2.8302514519 0.6143953562 0.3035281429
C 1.3158303232 0.4726259085 0.4677291046
C 0.6125136668 0.0142124979 -0.8088491122
C -0.8879302638 -0.2160487735 -0.6181721108
C -1.6655085158 1.0688868969 -0.3415187857
C -3.1852510041 0.8905078311 -0.3717281269
C -3.7382645473 -0.0073745091 0.7446121566
C -3.9857607452 -1.4455618052 0.3002156350
H 5.3424827254 0.0773037655 -0.7408864941
H 5.5719102391 -1.4951129065 0.0262604857
H 5.4303703956 -0.0413953697 1.0163825950
H 3.3065275177 -1.3499940285 1.0359384509
H 3.2281915279 -1.2422569683 -0.7228137494
H 3.0417311735 1.2258058430 -0.5769125167
H 3.2274516183 1.1427492389 1.1739358705
H 0.9104160062 1.4401045440 0.7691925968
H 1.1075872117 -0.2398706978 1.2696974168
H 1.0601653932 -0.9218883672 -1.1476344594
H 0.7684988444 0.7591538069 -1.5929801501
H -1.0317127722 -0.9174919215 0.2052682090
H -1.2859341881 -0.6755133157 -1.5264496424
H -1.3800865205 1.4696910325 0.6328927382
H -1.3922976761 1.8106693704 -1.0968318179
H -3.6331948917 1.8828418171 -0.2824179778
H -3.4825345534 0.4864213995 -1.3416568707
H -3.0477193133 -0.0001618690 1.5902370359
H -4.6860632709 0.4047732641 1.0981725316
H -3.0713518560 -1.9126794395 -0.0533169759
H -4.3734324239 -2.0341375191 1.1290122119
H -4.7157489496 -1.4706143761 -0.5061134361
32
CONF603
C 2.8064723617 0.3696755748 -2.0397292310
C 3.3703184958 0.2384585284 -0.6289293192
C 2.3488378637 0.5682507605 0.4607026616
C 1.2213336559 -0.4567650168 0.5636641153
C 0.2481320480 -0.1090405136 1.6880777380
C -0.8916513114 -1.1175149061 1.8380681215
C -1.8806927285 -1.1633648532 0.6699439343
C -2.6608097400 0.1430810387 0.4621593235
C -2.1315499641 1.0191701964 -0.6766661354
C -2.4539816808 0.4491343049 -2.0536662233
H 2.3993191973 1.3665904735 -2.1940576786
H 2.0168686810 -0.3560715564 -2.2149310084
H 3.5892862644 0.2011109087 -2.7754834954
H 4.2194974419 0.9180816267 -0.5259321642
H 3.7410360265 -0.7779481708 -0.4786788126
H 1.9222681755 1.5551327580 0.2641587850
H 2.8652507097 0.6199481297 1.4227266578
H 1.6476849365 -1.4459332111 0.7485264984
H 0.6840057579 -0.4979875201 -0.3835079537
H -0.1639739578 0.8871107188 1.5190099674
H 0.8017744696 -0.0743631476 2.6303471277
H -1.4454567914 -0.8816690994 2.7505456952
H -0.4612425579 -2.1143152766 1.9657465991
H -1.3509717187 -1.4291879995 -0.2444501349
H -2.5863469025 -1.9716206475 0.8744710343
H -3.7065179773 -0.0888557989 0.2477213270
H -2.6440453355 0.7167429775 1.3912542966
H -2.5853289237 2.0100212814 -0.5944009658
H -1.0525618106 1.1427140842 -0.5811439401
H -3.5302386418 0.3617777864 -2.1859928327
H -2.0633970823 1.0984503940 -2.8337378571
H -2.0157793949 -0.5376484485 -2.1821094887
32
CONF583
C 4.3641587077 -0.0198182759 -1.4704191494
C 3.3151363242 -0.5973355550 -0.5270597990
C 2.9212265555 0.4040653450 0.5584701215
C 1.8351897088 -0.1203435288 1.5092738543
C 0.4277424367 0.3978501164 1.2043864567
C -0.1205101463 -0.0636312463 -0.1439761166
C -1.5561742185 0.4012021906 -0.4013409026
C -2.5921708369 -0.3494127536 0.4336983294
C -4.0219546420 0.1439813687 0.2043973891
C -4.5591404193 -0.1833998031 -1.1846084571
H 3.9788968782 0.8650661715 -1.9724564740
H 4.6428056558 -0.7498228833 -2.2264700997
H 5.2582821594 0.2629605839 -0.9189982380
H 3.7130225842 -1.4977257132 -0.0529410371
H 2.4350744803 -0.8890975656 -1.1014207576
H 2.5790712967 1.3291740267 0.0898894253
H 3.8180823511 0.6477642704 1.1327429560
H 2.0810445615 0.1781331411 2.5307213223
H 1.8280626433 -1.2121170289 1.4840479881
H 0.4355037196 1.4904126302 1.2315768168
H -0.2367005732 0.0544940895 1.9998356347
H -0.0814776710 -1.1542978056 -0.1968905330
H 0.5144986826 0.3337575225 -0.9374508841
H -1.6305146913 1.4712299904 -0.1923642038
H -1.7796688576 0.2533115692 -1.4592890427
H -2.5382694002 -1.4154050421 0.1998398659
H -2.3552279464 -0.2307144848 1.4926554098
H -4.6724654349 -0.3203009196 0.9495018742
H -4.0584405847 1.2242789778 0.3624420635
H -4.4950280277 -1.2527453273 -1.3735648525
H -5.6010056226 0.1175507608 -1.2653460123
H -3.9964651201 0.3372927266 -1.9547215600
32
CONF424
C 3.7821227520 -1.5949840792 0.2596137227
C 2.5811919593 -0.9012785053 0.8931988243
C 2.5883880685 0.6111027133 0.6554688637
C 2.2003001085 1.0183569586 -0.7738491581
C 0.7641166515 1.5309156914 -0.9012228367
C -0.2960290969 0.4730996690 -0.6035913296
C -1.7065618124 1.0160341955 -0.8266854145
C -2.8015637333 -0.0317037751 -0.6221706941
C -2.9539973634 -0.4798552024 0.8303438337
C -4.1320475760 -1.4319753533 1.0024228554
H 3.8063277259 -1.4291625065 -0.8146292049
H 3.7398506103 -2.6668868666 0.4383864542
H 4.7080849849 -1.2122360547 0.6834891725
H 2.5963659005 -1.0894273725 1.9694705299
H 1.6621966823 -1.3330077794 0.4945311056
H 3.5897467511 0.9831894674 0.8826625769
H 1.9026395919 1.0881684863 1.3584165840
H 2.3328629200 0.1705542460 -1.4478511644
H 2.8681101101 1.8114970906 -1.1164685473
H 0.6169526067 1.8981619648 -1.9204830564
H 0.6243556560 2.3785735551 -0.2256052253
H -0.1944641756 0.1412233764 0.4295844005
H -0.1373079039 -0.3899367382 -1.2549262754
H -1.8809652354 1.8558038389 -0.1494972744
H -1.7763603881 1.3984695259 -1.8483733488
H -3.7529394728 0.3896447210 -0.9568565853
H -2.5892825032 -0.9020697322 -1.2477596663
H -2.0417394280 -0.9789212059 1.1609913759
H -3.1023816913 0.3983425290 1.4630815121
H -4.2223644792 -1.7460418806 2.0394119773
H -5.0603827034 -0.9475755553 0.7077097527
H -3.9981899870 -2.3174747130 0.3851814038
32
CONF574
C 4.4592391725 0.8510859706 -0.4592167363
C 3.3021372872 0.1554660390 -1.1677982812
C 1.9808862363 0.2369260295 -0.4002171463
C 1.9827269985 -0.5872614884 0.8850035718
C 0.6764084525 -0.4956974717 1.6770716888
C -0.5398480856 -1.0977222208 0.9573457240
C -1.4494774014 -0.0468137351 0.3212674680
C -2.6173360122 -0.6914816931 -0.4231875690
C -3.5096214457 0.3186624082 -1.1459747822
C -4.2956242643 1.2148800911 -0.1953677782
H 5.3493627699 0.8304924807 -1.0836437927
H 4.6953071996 0.3600021533 0.4809640162
H 4.2085876284 1.8892482820 -0.2527530513
H 3.5566132700 -0.8939068397 -1.3337300186
H 3.1627430130 0.6196391588 -2.1471150539
H 1.1850141837 -0.1247354937 -1.0533856910
H 1.7694903598 1.2815176238 -0.1591023901
H 2.7928092436 -0.2428948995 1.5306281546
H 2.1790661055 -1.6338688163 0.6386359145
H 0.4755212652 0.5507901801 1.9158188282
H 0.8274825562 -1.0200714976 2.6230849034
H -1.1356055093 -1.6723914922 1.6702580359
H -0.1991931038 -1.7954772082 0.1893284498
H -1.8307625421 0.6072845024 1.1073008006
H -0.8775636406 0.5686618549 -0.3750021489
H -2.2169478496 -1.3928005383 -1.1599151590
H -3.2225978182 -1.2663278177 0.2819233169
H -2.8933245386 0.9376803009 -1.8019054759
H -4.2146191954 -0.2291763136 -1.7758069323
H -3.6296050074 1.8488328647 0.3835665700
H -4.9720694061 1.8563120446 -0.7553572810
H -4.8844739932 0.6128596402 0.4931619679
32
CONF505
C 4.9780232557 0.7944444654 -0.1356812466
C 3.9545464920 -0.2257054246 0.3491010501
C 2.5224553536 0.2380617031 0.0913766867
C 1.4967727121 -0.7838189358 0.5781212952
C 0.0481247352 -0.3144149141 0.4296269357
C -0.4208629094 -0.2614769327 -1.0227432821
C -1.8523047907 0.2558696950 -1.1830743054
C -2.9198793502 -0.6623865680 -0.5696689718
C -3.4536291381 -0.1798481393 0.7817337410
C -4.3937310856 1.0128692711 0.6455883617
H 4.8382941295 1.7450289137 0.3742316981
H 4.8720151884 0.9614430857 -1.2053122143
H 5.9889538801 0.4449450099 0.0592444217
H 4.0912665395 -0.3959254215 1.4195962362
H 4.1211507894 -1.1776138343 -0.1603242890
H 2.3954076077 0.4117498731 -0.9785933435
H 2.3547428919 1.1880232880 0.6047731889
H 1.6893719764 -0.9907257360 1.6339925834
H 1.6305463166 -1.7199083951 0.0306287301
H -0.0545427708 0.6765590436 0.8785458973
H -0.5932694459 -1.0016140166 0.9842169960
H -0.3483228932 -1.2608360387 -1.4592342273
H 0.2415370803 0.3949263319 -1.5903591055
H -1.9186151572 1.2487532369 -0.7354733095
H -2.0470655970 0.3694858208 -2.2515742427
H -3.7660256621 -0.7470025627 -1.2550683554
H -2.5015588771 -1.6641463261 -0.4525684956
H -3.9959685956 -0.9997327681 1.2588356227
H -2.6208099201 0.0890505193 1.4327525535
H -4.7487334571 1.3296379731 1.6235115836
H -3.8905419662 1.8548993910 0.1767429050
H -5.2553813819 0.7493621944 0.0359104563
32
CONF573
C 4.4194097516 0.9190838040 -0.4557280376
C 3.2986424868 0.1645242888 -1.1624523087
C 1.9678895599 0.2077649873 -0.4080774035
C 1.9803467528 -0.6201079768 0.8747731738
C 0.6801708844 -0.5352824366 1.6776015788
C -0.5446085123 -1.1225265079 0.9606094035
C -1.4401997272 -0.0609309017 0.3223478261
C -2.6224206464 -0.6903293754 -0.4123927149
C -3.4951652706 0.3299919165 -1.1447651115
C -4.2547690598 1.2578545169 -0.2031047968
H 4.1279889078 1.9521107020 -0.2788718946
H 5.3187874117 0.9160284799 -1.0670591254
H 4.6593177200 0.4606787550 0.4999249591
H 3.5960942938 -0.8767236476 -1.3065446054
H 3.1513458074 0.6051212253 -2.1514389636
H 1.1880567696 -0.1736649758 -1.0693063971
H 1.7266058112 1.2456704442 -0.1663123654
H 2.7941310453 -0.2758444500 1.5158580484
H 2.1781251739 -1.6653058206 0.6235831270
H 0.4847359596 0.5083619132 1.9328143120
H 0.8370444509 -1.0736467446 2.6148512262
H -1.1475997470 -1.6860875000 1.6763921133
H -0.2141798446 -1.8277650890 0.1949725863
H -1.8067328385 0.6038738239 1.1064277844
H -0.8622492514 0.5409071261 -0.3805600154
H -2.2381034334 -1.4076741403 -1.1422553308
H -3.2377321408 -1.2449250563 0.3002326803
H -2.8683006044 0.9250905722 -1.8127573579
H -4.2161484676 -0.2102299602 -1.7629453484
H -3.5708139544 1.8834763127 0.3639187182
H -4.9181212056 1.9077020702 -0.7690053705
H -4.8546964392 0.6798702234 0.4964002606
32
CONF760
C 4.1625958338 -0.4954756156 1.3626164618
C 2.9939754469 -0.8299410606 0.4427562518
C 2.7294353443 0.2896580677 -0.5636794412
C 1.5352991339 0.0084308852 -1.4879719690
C 0.2540542822 0.7532370026 -1.1056066238
C -0.3194965903 0.3357793405 0.2460653008
C -1.6043051144 1.0825878894 0.6118399329
C -2.8031863537 0.8094054745 -0.3000250676
C -3.2530148153 -0.6515648182 -0.3576858386
C -3.7246670612 -1.1893901028 0.9886332907
H 3.9531020059 0.4076245671 1.9318041618
H 5.0685780575 -0.3310395245 0.7832960295
H 4.3442920553 -1.3079919835 2.0619152273
H 2.1011122534 -1.0080893596 1.0436026764
H 3.2153108836 -1.7516956729 -0.1005658445
H 3.6313761457 0.4216726898 -1.1658075692
H 2.5625745195 1.2258926638 -0.0269239091
H 1.3341058769 -1.0649631755 -1.5026768215
H 1.7950605274 0.3023241375 -2.5072929498
H -0.4881239030 0.5657605977 -1.8840273102
H 0.4546079698 1.8276492102 -1.0930059745
H 0.4169095816 0.5439606613 1.0244097092
H -0.5025939655 -0.7400878463 0.2449809634
H -1.8742108286 0.8273072643 1.6382815437
H -1.4004091937 2.1564143401 0.5889240713
H -3.6404344680 1.4165615360 0.0541564071
H -2.5693279194 1.1427000336 -1.3129598830
H -4.0754998973 -0.7239454476 -1.0737466933
H -2.4405080630 -1.2746275713 -0.7346268366
H -4.1295301255 -2.1921173561 0.8727795502
H -2.9042613076 -1.2360989578 1.6997778098
H -4.5028483961 -0.5505630739 1.4008409336
32
CONF658
C 2.6557505364 -1.0985615295 1.7482479130
C 3.3247845754 -0.1492853931 0.7597639085
C 2.3240246209 0.6255287244 -0.0998006923
C 1.6111867923 -0.2526929050 -1.1281577959
C 0.5852595857 0.5156815453 -1.9740528591
C -0.8606693378 0.3480552921 -1.5014151385
C -1.1279259065 0.9401697200 -0.1197272289
C -2.6121091666 0.9532792706 0.2522558961
C -3.2580242151 -0.4288159058 0.3701708437
C -2.6412829260 -1.2898781646 1.4669027683
H 2.1094482547 -1.8826271981 1.2305115986
H 1.9602359681 -0.5550029313 2.3843504297
H 3.4026161116 -1.5705044973 2.3823367674
H 3.9971205134 -0.7148051834 0.1102813078
H 3.9312546749 0.5670744881 1.3190111433
H 2.8590239997 1.4156924802 -0.6331273868
H 1.5936645734 1.1062403180 0.5520961651
H 1.1086448195 -1.0798038838 -0.6255008411
H 2.3702052329 -0.6859410572 -1.7840485601
H 0.6376030744 0.1614082052 -3.0059920408
H 0.8422662951 1.5771700262 -1.9826201742
H -1.1048819685 -0.7159101488 -1.4996205829
H -1.5193987074 0.8367049121 -2.2245567042
H -0.5729263261 0.3829610790 0.6344780480
H -0.7655759596 1.9714565769 -0.1050819985
H -2.7244557034 1.4716790953 1.2080641481
H -3.1580949697 1.5286650192 -0.4999208748
H -4.3197908602 -0.2886268274 0.5877409325
H -3.1891145525 -0.9508573299 -0.5854605014
H -3.2031222321 -2.2140838394 1.5805291120
H -1.6125413837 -1.5480177196 1.2299786690
H -2.6540328691 -0.7610471364 2.4175252074
32
CONF590
C 2.7302447616 1.2469858817 -1.4594163545
C 2.7778495027 -0.2608780906 -1.2373075066
C 1.6020977370 -0.7826577481 -0.4094336818
C 1.6760311751 -0.3717092499 1.0612788093
C 0.5087256503 -0.9082505082 1.9030632666
C -0.5914905298 0.1215986496 2.1743706800
C -1.3311433881 0.6306024440 0.9367984799
C -2.1729580292 -0.4471572723 0.2562964391
C -3.0289212286 0.0948337867 -0.8896465113
C -2.2056270309 0.5522401062 -2.0889690826
H 3.5506425969 1.5598464889 -2.1009973967
H 2.8136295893 1.7842814262 -0.5184511663
H 1.7947523328 1.5301907701 -1.9374866283
H 3.7146910241 -0.5263948040 -0.7418388317
H 2.7669882188 -0.7579193200 -2.2103161568
H 1.5946639438 -1.8746548290 -0.4629665465
H 0.6727733050 -0.4244109742 -0.8530000819
H 1.7021774192 0.7156173574 1.1418563670
H 2.6174044944 -0.7493789499 1.4678130057
H 0.8908311551 -1.2340057012 2.8732456940
H 0.0804501172 -1.7865354646 1.4182870414
H -0.1430465558 0.9770522837 2.6864085304
H -1.3190470933 -0.3230917924 2.8587580606
H -1.9936892734 1.4439738949 1.2453508386
H -0.6107955026 1.0460299528 0.2329186469
H -1.5259872346 -1.2364296377 -0.1302745700
H -2.8322813039 -0.8967671783 1.0033658635
H -3.7142799369 -0.6918966039 -1.2141514557
H -3.6332663416 0.9290230497 -0.5255760413
H -1.5737322495 -0.2579684895 -2.4472682303
H -2.8607815824 0.8591433331 -2.9009305353
H -1.5727264846 1.3966568530 -1.8286216292
32
CONF656
C 2.4182616536 1.2692988577 -1.6225209471
C 2.7898162092 -0.1132977382 -1.0977865002
C 2.9056067362 -0.1667534345 0.4273334660
C 1.5775679210 -0.0173108547 1.1729620518
C 0.6773164103 -1.2459256126 1.0419884031
C -0.6717134263 -1.0844042878 1.7580571970
C -1.8301102664 -0.7180054104 0.8273828028
C -1.6755244790 0.6477918197 0.1621076763
C -2.9258441947 1.0897588522 -0.6003413176
C -3.2128730695 0.2327988609 -1.8283916253
H 1.4334217240 1.5709574207 -1.2754081753
H 2.4076566742 1.2692895442 -2.7100552556
H 3.1407793314 2.0096689228 -1.2859803789
H 3.7535585688 -0.4013331051 -1.5246217554
H 2.0532185432 -0.8422152563 -1.4393053797
H 3.5810476966 0.6296784482 0.7492739340
H 3.3602841961 -1.1187390618 0.7129962043
H 1.0549164951 0.8691711454 0.8165075391
H 1.7941953746 0.1381930387 2.2331457487
H 1.2116314041 -2.1014349472 1.4623186375
H 0.4963955264 -1.4653765210 -0.0109235700
H -0.5809813122 -0.3250024613 2.5378515234
H -0.9296011414 -2.0246240115 2.2504847849
H -1.9211482031 -1.4907540596 0.0618379133
H -2.7548205778 -0.7197922649 1.4108003379
H -1.4580167627 1.3906300742 0.9339479239
H -0.8332252127 0.6241283001 -0.5313501321
H -3.7870151662 1.0618438052 0.0713735799
H -2.7897556850 2.1261556794 -0.9189917825
H -2.3498539434 0.2178165308 -2.4905679693
H -3.4480233222 -0.7893491600 -1.5441072462
H -4.0603408345 0.6348580648 -2.3787008188
32
CONF498
C 4.6239968876 -0.9915935505 -0.7846068414
C 3.4226825324 -0.9949810462 0.1534851163
C 2.5361274029 0.2313604065 -0.0520224939
C 1.3384432580 0.2373461263 0.8959663074
C 0.4245514931 1.4467987414 0.6829320842
C -0.4477911470 1.3538025589 -0.5782381783
C -1.9076466606 0.9912354633 -0.2958102549
C -2.0856060224 -0.4158948194 0.2699779471
C -3.5482109605 -0.7739818873 0.5416934851
C -4.3747199200 -0.9472015161 -0.7278804701
H 5.2403376807 -1.8722543177 -0.6211828019
H 5.2353053893 -0.1077561172 -0.6164824691
H 4.2967687859 -0.9882183633 -1.8219631034
H 3.7708003756 -1.0181784466 1.1887934949
H 2.8324117581 -1.8985083603 -0.0161099344
H 2.1888439527 0.2507516874 -1.0870969033
H 3.1284441559 1.1349989329 0.1119496758
H 1.7090140418 0.2498604368 1.9241528715
H 0.7694225866 -0.6840460944 0.7620567095
H 1.0518650681 2.3392321071 0.6291666296
H -0.2228127004 1.5634299474 1.5543180181
H -0.0285671311 0.6148340883 -1.2628672463
H -0.4372867377 2.3157368643 -1.0949320329
H -2.3286993211 1.7158640036 0.4058419511
H -2.4647126195 1.0753043933 -1.2308506691
H -1.6630461157 -1.1419246458 -0.4289210862
H -1.5337551778 -0.4940061749 1.2083707322
H -3.5772402496 -1.7082595610 1.1075679163
H -3.9982985357 0.0025459080 1.1644962451
H -4.4481044651 -0.0129737132 -1.2781227826
H -3.9220571652 -1.6945980800 -1.3758446282
H -5.3820669093 -1.2731387090 -0.4795296744
32
CONF589
C 5.1279319245 -0.0065450829 -0.6038026080
C 3.7115726217 -0.4769880819 -0.2935301776
C 2.8631662848 0.6461855817 0.3003467636
C 1.4640687296 0.1964642459 0.7260162366
C 0.5398073455 -0.0956229395 -0.4551603316
C -0.8217569776 -0.6521194214 -0.0340474757
C -1.6832258870 0.3561121130 0.7268544299
C -3.0928090683 -0.1711203582 1.0356598564
C -4.1772344681 0.3413471855 0.0854295667
C -4.0089629058 -0.1290876712 -1.3542851651
H 5.1083862354 0.8130414476 -1.3186978599
H 5.7166820306 -0.8173128234 -1.0260016662
H 5.6210074003 0.3413564410 0.3013362732
H 3.7530147441 -1.3073722977 0.4151820614
H 3.2501524636 -0.8456763351 -1.2110287960
H 2.7759812676 1.4571468811 -0.4265857461
H 3.3827455207 1.0438059506 1.1758353984
H 1.0216471171 0.9841723420 1.3384011313
H 1.5489584167 -0.6988365127 1.3467243150
H 1.0176881509 -0.8262523568 -1.1103254833
H 0.3935632371 0.8208091167 -1.0322074039
H -0.6673359579 -1.5335943440 0.5933405017
H -1.3540904634 -0.9763798314 -0.9293394489
H -1.1836792251 0.6018429559 1.6650494933
H -1.7580642932 1.2785703177 0.1472369803
H -3.0839252666 -1.2628896239 1.0136951668
H -3.3730774669 0.1298503862 2.0475124321
H -5.1467074257 -0.0009803918 0.4562628791
H -4.1848086263 1.4336791074 0.1091407989
H -4.8525839626 0.2000098893 -1.9570777082
H -3.1015495922 0.2773222821 -1.7925612360
H -3.9611343011 -1.2151022951 -1.3965671842
32
CONF677
C 2.8299117784 1.6212245854 -0.8172915546
C 3.3472190552 0.6339476244 0.2244153622
C 2.2437504299 0.0329220869 1.1072788136
C 1.7694822826 -1.3555056707 0.6704160866
C 1.0648626542 -1.4198736705 -0.6857501540
C -0.2352857796 -0.6185990637 -0.7731736871
C -1.3199234845 -1.1282431504 0.1747006486
C -2.6916297074 -0.5083154398 -0.0948709999
C -2.7525441254 0.9872711931 0.2102499075
C -4.1630191010 1.5383194717 0.0356358292
H 2.1383995462 1.1451684742 -1.5063072666
H 3.6588918083 2.0279254378 -1.3928919669
H 2.3155403385 2.4479729793 -0.3314815707
H 4.0632599023 1.1600648496 0.8599582342
H 3.8902131758 -0.1710536469 -0.2750712162
H 1.3963234197 0.7182106180 1.1486514673
H 2.6246565256 -0.0657485436 2.1266567243
H 1.0983808215 -1.7478275356 1.4371069249
H 2.6373258700 -2.0195235953 0.6332498178
H 0.8416557653 -2.4685619556 -0.9009741979
H 1.7493199502 -1.0711765268 -1.4610772335
H -0.6079261263 -0.6864767043 -1.7988439553
H -0.0319678014 0.4320307822 -0.5670952341
H -1.4002094258 -2.2128208066 0.0644004642
H -1.0362002892 -0.9192967096 1.2077661709
H -2.9646119668 -0.6738666791 -1.1400046162
H -3.4334643179 -1.0201529663 0.5236434983
H -2.4213276887 1.1578600616 1.2373179812
H -2.0748708961 1.5264027209 -0.4534793587
H -4.1879858103 2.6034105164 0.2526601645
H -4.5060317777 1.3873440163 -0.9855232994
H -4.8555413679 1.0343098525 0.7063064852
32
CONF681
C 4.1708070909 -1.5321863351 0.0538893970
C 2.7564459134 -0.9865850011 0.2142356066
C 2.6924532611 0.5081497475 -0.0944959502
C 1.3180019767 1.1251853138 0.1675625395
C 0.2371136893 0.6052113486 -0.7790219479
C -1.0627808885 1.4083959585 -0.7055080775
C -1.7701921881 1.3649940285 0.6500790702
C -2.2468949218 -0.0165398608 1.1056266998
C -3.3516141157 -0.6270700096 0.2308052338
C -2.8363642045 -1.6325461866 -0.7943497329
H 4.8539666736 -1.0272199773 0.7334305020
H 4.5245542711 -1.3774599779 -0.9630821673
H 4.1973298739 -2.5977299549 0.2686844576
H 2.4163856825 -1.1565940301 1.2385138734
H 2.0871475105 -1.5296319159 -0.4548018870
H 2.9697455154 0.6720886651 -1.1387561628
H 3.4299477480 1.0236196232 0.5261841812
H 1.3951393499 2.2092304277 0.0498390899
H 1.0326333938 0.9225332643 1.2014532763
H 0.0323419285 -0.4429250690 -0.5618286954
H 0.6137394730 0.6612729245 -1.8039757553
H -1.7459097983 1.0489180404 -1.4770783312
H -0.8382973037 2.4536473596 -0.9355427258
H -1.0999287415 1.7675491190 1.4121859088
H -2.6371610417 2.0294669396 0.6016768242
H -1.4007151684 -0.7027804503 1.1559131620
H -2.6273536714 0.0964945748 2.1236627759
H -4.0708843591 -1.1400897858 0.8733513818
H -3.8905094157 0.1720469204 -0.2823512529
H -2.1404756315 -1.1703068394 -1.4883417899
H -2.3275143323 -2.4544294029 -0.2947003865
H -3.6656236528 -2.0437656824 -1.3662510547
32
CONF717
C 4.2316154247 -1.0909580791 0.0169111103
C 2.9650739018 -1.0172207943 -0.8288967609
C 2.1415166545 0.2472146330 -0.5776860344
C 1.5293884696 0.2991922019 0.8223307876
C 0.5848416649 1.4930681588 1.0259404003
C -0.8993699768 1.1526229554 0.8730615911
C -1.2958374348 0.7387666855 -0.5422215887
C -2.8103758103 0.6380287377 -0.7366359036
C -3.5019993540 -0.4197655149 0.1256981049
C -3.0260149816 -1.8387162714 -0.1648473187
H 4.8407570354 -0.2024906029 -0.1346555577
H 4.8200872570 -1.9621475788 -0.2613080521
H 3.9915153300 -1.1685135808 1.0738887568
H 2.3458228689 -1.8952746489 -0.6307760145
H 3.2459064709 -1.0437480085 -1.8845249607
H 1.3459361128 0.2954049612 -1.3223305143
H 2.7791441734 1.1231660799 -0.7206558025
H 2.3384616484 0.3600639941 1.5517170714
H 0.9876505455 -0.6294019034 1.0149373943
H 0.8480176256 2.2873268254 0.3240426467
H 0.7276901154 1.8908961863 2.0332400898
H -1.4846285156 2.0320135294 1.1556371760
H -1.1469747036 0.3529283931 1.5736587598
H -0.9146871140 1.4844930723 -1.2448778674
H -0.8352804710 -0.2170471790 -0.7914357427
H -3.2578866763 1.6108441828 -0.5168866600
H -3.0096500533 0.4143697675 -1.7878709662
H -3.3483122336 -0.1924053710 1.1817203339
H -4.5763842314 -0.3624658230 -0.0660027065
H -1.9853209813 -1.9680586766 0.1201668764
H -3.6208312494 -2.5571124813 0.3944961816
H -3.1238436717 -2.0628194192 -1.2248978302
32
CONF678
C 2.7934596380 1.6785046871 -0.6964514302
C 3.3164202888 0.6359032390 0.2868695258
C 2.2145000563 -0.0409195546 1.1149486899
C 1.7643172027 -1.4026247258 0.5795407034
C 1.0757328721 -1.3849168885 -0.7863769114
C -0.2261238462 -0.5834835636 -0.8404985480
C -1.3234342259 -1.1581132915 0.0535741781
C -2.6821400478 -0.4897367238 -0.1606805337
C -2.7190473584 0.9679044642 0.2952217879
C -4.1214309694 1.5552111833 0.1861911698
H 2.1247057844 1.2344583840 -1.4278562010
H 3.6221131284 2.1406557316 -1.2289744943
H 2.2523644070 2.4597553730 -0.1664052156
H 4.0141609696 1.1332558097 0.9645626885
H 3.8809369714 -0.1252207266 -0.2556489029
H 1.3567785652 0.6278135811 1.1960866822
H 2.5884299590 -0.2047437253 2.1285223171
H 1.0904059436 -1.8543471273 1.3102981008
H 2.6414583653 -2.0515030587 0.5082582860
H 0.8595214166 -2.4190317510 -1.0686468011
H 1.7681673472 -0.9867031216 -1.5301465201
H -0.5829047615 -0.5823676261 -1.8740704669
H -0.0297483649 0.4510967403 -0.5604466686
H -1.4224112198 -2.2264125995 -0.1558443087
H -1.0404358573 -1.0498369094 1.1021395417
H -2.9499618681 -0.5435504730 -1.2187334740
H -3.4373873891 -1.0480395846 0.3984724003
H -2.3810268613 1.0278745581 1.3324345289
H -2.0360915008 1.5621887082 -0.3137492135
H -4.4709484442 1.5158052980 -0.8430519536
H -4.8188445890 0.9952519475 0.8052952401
H -4.1286550647 2.5923743337 0.5121295944
32
CONF753
C 3.1351411573 0.9016518222 1.4224209018
C 3.7708683009 -0.1781214376 0.5551555423
C 3.1510875419 -0.2981063397 -0.8388870947
C 1.6816593005 -0.7441073869 -0.8365963407
C 0.6995814387 0.4159149470 -1.0022736577
C -0.7644506502 -0.0301480658 -0.9918583382
C -1.2612547605 -0.4132940908 0.4011710186
C -2.6802451009 -0.9855880628 0.4023807014
C -3.7700988556 -0.0233684939 -0.0742221723
C -3.9094193417 1.2129489292 0.8068943446
H 3.1613295198 1.8626620101 0.9133422340
H 3.6772803755 0.9962488018 2.3607752553
H 2.1019021639 0.6563744919 1.6526015803
H 3.6921592084 -1.1415984527 1.0645682669
H 4.8345422771 0.0445656446 0.4386637177
H 3.7431005077 -1.0237224244 -1.4010704666
H 3.2389632604 0.6606905709 -1.3543107453
H 1.4738791972 -1.2806055812 0.0900661007
H 1.5155804720 -1.4440845028 -1.6589302159
H 0.9085396397 0.9068428674 -1.9563389506
H 0.8530357503 1.1534190269 -0.2137331411
H -0.8872721478 -0.8807867272 -1.6668979825
H -1.3760509547 0.7885150599 -1.3751854543
H -0.5985170296 -1.1713881159 0.8232181702
H -1.2143750534 0.4600709156 1.0539734715
H -2.6984237325 -1.8727405552 -0.2358325051
H -2.9218246782 -1.3069804128 1.4188001590
H -3.5696597614 0.2821018270 -1.1022836380
H -4.7199382105 -0.5638792066 -0.0755492308
H -4.7621693114 1.8079772817 0.4882681202
H -4.0605133850 0.9243049754 1.8448586360
H -3.0216007724 1.8368061857 0.7478227959
32
CONF596
C 4.2543289072 0.2902104711 -1.2961402160
C 4.1084056210 -0.4916068989 0.0047229357
C 2.9374264560 -0.0171544634 0.8666512823
C 1.5721987527 -0.2989037460 0.2422006703
C 0.4325415234 0.0794324589 1.1863902333
C -0.9548750382 -0.2237153481 0.6154686384
C -1.3729203604 0.7496817410 -0.4844480931
C -2.7025855377 0.3953878289 -1.1542270962
C -3.9211429270 0.4614134986 -0.2217841036
C -4.3480242066 -0.9031284395 0.3103433345
H 5.1440968743 -0.0325947203 -1.8314602416
H 4.3442229275 1.3546217356 -1.0909139605
H 3.3954809954 0.1347477140 -1.9433703623
H 5.0294051482 -0.3867752531 0.5830614656
H 3.9804029329 -1.5524567697 -0.2222626561
H 3.0361881179 1.0555760295 1.0490386402
H 2.9906428638 -0.5216626292 1.8349218745
H 1.4999212821 -1.3624237191 0.0015713858
H 1.4763670869 0.2618347072 -0.6874873495
H 0.4987158064 1.1433688243 1.4261983146
H 0.5568794494 -0.4756888185 2.1197114639
H -1.6799093846 -0.1707360095 1.4292526210
H -0.9647485208 -1.2425840236 0.2211140095
H -1.4412070269 1.7558999267 -0.0631836300
H -0.6026001718 0.7695075233 -1.2579331324
H -2.8492620903 1.0941245010 -1.9809738244
H -2.6312056129 -0.6055417029 -1.5847045039
H -3.7024623630 1.1278915086 0.6148052208
H -4.7652549576 0.8920503038 -0.7649424715
H -5.2076918059 -0.7991905535 0.9689079005
H -4.6265725522 -1.5579869876 -0.5126205813
H -3.5452022023 -1.3779266410 0.8668904343
32
CONF743
C 4.4683486906 -0.3920884345 0.4308686726
C 3.1109807716 -0.6190623528 1.0872713862
C 1.9515462196 -0.6514892939 0.0894939815
C 1.6529602410 0.7137671437 -0.5268575342
C 0.5379895214 0.6751018777 -1.5742655541
C -0.8331726028 0.2437768412 -1.0489037408
C -1.3853394913 1.1796317476 0.0238701821
C -2.8527844756 0.9231590588 0.3742863403
C -3.1156611378 -0.4348794285 1.0411383544
C -3.5944774115 -1.5069155612 0.0672908337
H 5.2601804868 -0.4521548806 1.1738550649
H 4.5186725938 0.5871055800 -0.0377366216
H 4.6527502062 -1.1479978681 -0.3293523291
H 2.9283639630 0.1663204589 1.8244148858
H 3.1365317648 -1.5723645563 1.6207239321
H 1.0628013369 -1.0108968604 0.6113328167
H 2.1813002499 -1.3647054330 -0.7058454147
H 2.5534666786 1.0908077719 -1.0152955077
H 1.3914588116 1.4182811178 0.2646927049
H 0.8332956852 -0.0106550462 -2.3726548038
H 0.4451668975 1.6712948944 -2.0147293411
H -0.7671153896 -0.7709064057 -0.6564481982
H -1.5276438447 0.2288303932 -1.8929104767
H -0.7889265510 1.0890046964 0.9337124177
H -1.2925962538 2.2096518391 -0.3311872929
H -3.1708346964 1.7177778082 1.0532064473
H -3.4603590757 1.0059759023 -0.5292959714
H -2.2065151606 -0.7751374655 1.5410523559
H -3.8804704980 -0.3124350157 1.8114651940
H -4.5310262719 -1.2036736342 -0.3960263778
H -2.8657517011 -1.6805439364 -0.7189460102
H -3.7623892722 -2.4447066468 0.5926803502
32
CONF532
C 4.7772307998 -0.0008323575 -0.8432175104
C 3.4810902856 -0.3639569126 -0.1277896748
C 2.2648258936 0.2414855241 -0.8261800498
C 0.9307595924 -0.1709137721 -0.2003585141
C 0.6817826767 0.4760833031 1.1601307417
C -0.6133640180 0.0168760238 1.8341012943
C -1.8905783189 0.3947797745 1.0691128163
C -2.4761393618 -0.7695814794 0.2700219528
C -3.7504199057 -0.3968337126 -0.4899549645
C -3.4948200281 0.5366363249 -1.6682626093
H 5.6315928329 -0.4394472721 -0.3334053548
H 4.9083469876 1.0787134849 -0.8678741264
H 4.7628889056 -0.3667568542 -1.8675714191
H 3.5323560782 -0.0088595792 0.9027058180
H 3.3744633422 -1.4509104241 -0.1004816296
H 2.2735254738 -0.0779471535 -1.8714384218
H 2.3468370795 1.3310220766 -0.8148198627
H 0.9051895565 -1.2581419692 -0.0940204130
H 0.1294488589 0.1190272094 -0.8819469384
H 0.6571109983 1.5620798311 1.0396062895
H 1.5116379869 0.2380814645 1.8284336511
H -0.6450387386 0.4686601062 2.8279548710
H -0.5797600620 -1.0659454466 1.9722516669
H -2.6507721994 0.7331612748 1.7771341523
H -1.6735076614 1.2308420851 0.4035905183
H -1.7364084246 -1.1457873098 -0.4379642652
H -2.7092772907 -1.5809748379 0.9644330648
H -4.2128871018 -1.3133389504 -0.8639242007
H -4.4570720389 0.0719285914 0.1988109105
H -3.1081908827 1.4949813416 -1.3320410634
H -2.7739640906 0.0943800671 -2.3526594460
H -4.4183833171 0.7173051248 -2.2132490716
32
CONF654
C 3.6277696091 0.6886070333 -1.2163456957
C 3.2805066828 -0.7280745787 -0.7716618404
C 1.8542894930 -0.8559420233 -0.2332256960
C 1.6628395095 -0.1710766601 1.1200520075
C 0.2429635031 -0.3196507446 1.6860794136
C -0.6482592048 0.9066394179 1.4721877700
C -0.9691979791 1.2422050820 0.0147139232
C -1.7911432867 0.1849353677 -0.7243693848
C -3.2052774800 0.0175747303 -0.1719870703
C -4.0272377114 -0.9481634428 -1.0178858164
H 4.6243605689 0.7138754696 -1.6507754053
H 3.6077633841 1.3784571956 -0.3769058099
H 2.9186990381 1.0354583673 -1.9650491245
H 3.9868771398 -1.0513809656 -0.0034716373
H 3.3917752927 -1.4000357357 -1.6259936845
H 1.6183831873 -1.9174520108 -0.1201284018
H 1.1616028596 -0.4408007155 -0.9661677745
H 1.9022111991 0.8896129642 1.0357108607
H 2.3771604989 -0.6101159247 1.8208781699
H 0.3077149102 -0.4850814225 2.7640455652
H -0.2321654102 -1.2028049631 1.2569258123
H -0.1527508270 1.7732148098 1.9180554962
H -1.5819309410 0.7558942269 2.0177024696
H -1.5233242033 2.1846781562 -0.0025377141
H -0.0356523168 1.4076123470 -0.5256504216
H -1.8617270396 0.4802971400 -1.7747702445
H -1.2773446448 -0.7772291352 -0.6914876951
H -3.1600987044 -0.3576103426 0.8516586948
H -3.7003272641 0.9913939559 -0.1489122175
H -3.5550498499 -1.9278731065 -1.0434894065
H -5.0281563266 -1.0597783374 -0.6079293009
H -4.1127922655 -0.5835642139 -2.0392997199
32
CONF754
C 3.1196143076 0.9086891304 1.4150659465
C 3.7685198529 -0.1670918877 0.5524925437
C 3.1498386979 -0.2982750442 -0.8410296174
C 1.6834863005 -0.7547531061 -0.8342110526
C 0.6953485632 0.3960051683 -1.0265076749
C -0.7667406801 -0.0547086710 -0.9862244854
C -1.2504981585 -0.3790783607 0.4262639086
C -2.6607207528 -0.9713643933 0.4630716355
C -3.7653067959 -0.0535024945 -0.0644032699
C -3.9189047367 1.2298913145 0.7439474938
H 3.6521277953 1.0041882945 2.3588119691
H 2.0852261061 0.6586585429 1.6346549489
H 3.1463258270 1.8706547724 0.9076481054
H 3.6998572316 -1.1296471244 1.0651275944
H 4.8297738741 0.0669043676 0.4360278598
H 3.7472247164 -1.0213646952 -1.4006595522
H 3.2299372899 0.6590476990 -1.3603719930
H 1.4758649295 -1.2727604430 0.1029961515
H 1.5238137496 -1.4733045300 -1.6416477189
H 0.8931848687 0.8573647048 -1.9975348531
H 0.8544591303 1.1583956900 -0.2629746289
H -0.8908659674 -0.9341521376 -1.6230350405
H -1.3850638097 0.7441334459 -1.3994515449
H -0.5741792898 -1.1063672916 0.8800346436
H -1.2133588008 0.5248610503 1.0368040659
H -2.6668032090 -1.8931384452 -0.1243311460
H -2.8957661293 -1.2386894731 1.4965938747
H -3.5717746924 0.1944724710 -1.1091442603
H -4.7075966003 -0.6060321661 -0.0310749576
H -4.0613205777 1.0001882046 1.7976932343
H -3.0405715735 1.8618793066 0.6441141603
H -4.7815913856 1.7929796150 0.3955348890
32
CONF665
C 3.5453206898 1.4330282686 -0.4300881905
C 3.6580524606 -0.0044456124 0.0651371550
C 2.7396583769 -0.9744073137 -0.6810015023
C 1.2446126762 -0.6821225140 -0.5400831055
C 0.7399517616 -0.8054885841 0.8967664577
C -0.7833697276 -0.7181478174 1.0060323288
C -1.3222575156 0.6864671259 0.7335931138
C -2.8511305042 0.7784269235 0.8469182325
C -3.5776324494 0.7622098880 -0.4997403309
C -3.4034379592 -0.5369279318 -1.2770578278
H 2.5639108901 1.8455646166 -0.2118711521
H 3.7083677773 1.4784231177 -1.5047437050
H 4.2900485950 2.0582630298 0.0569182438
H 3.4411553511 -0.0397377071 1.1338199212
H 4.6882224873 -0.3436053478 -0.0688076142
H 2.9351146585 -1.9864011302 -0.3170123200
H 2.9983645509 -0.9510244558 -1.7427521840
H 0.6998203537 -1.3961768428 -1.1635778021
H 1.0336138486 0.3154353845 -0.9253130026
H 1.1827960502 -0.0220957442 1.5144192473
H 1.0655182370 -1.7689265961 1.2975055982
H -1.0776678984 -1.0094023994 2.0177895866
H -1.2337583768 -1.4319629367 0.3151566173
H -0.8638839542 1.3684818898 1.4537543191
H -1.0183787912 1.0139662148 -0.2612573661
H -3.2200104121 -0.0445469896 1.4628003298
H -3.1177931324 1.7078921844 1.3548160833
H -4.6429506400 0.9237151438 -0.3167706771
H -3.2197013514 1.5963582972 -1.1080491732
H -2.3663223350 -0.6783058367 -1.5688556626
H -3.7152785425 -1.3864362263 -0.6733269043
H -4.0092518119 -0.5176924760 -2.1803415689
32
CONF429
C 4.3148791982 -1.2310345093 0.6064475667
C 2.8940085102 -0.7386687587 0.3558185227
C 2.8274764604 0.1924395266 -0.8524500583
C 1.4111203590 0.6599264907 -1.1937606767
C 0.7796889528 1.5558053006 -0.1174105749
C -0.2371946436 0.8356060019 0.7717701543
C -1.5681904843 0.5922068499 0.0625119199
C -2.5531350576 -0.1616732990 0.9538195152
C -3.9415082473 -0.3154893849 0.3311230920
C -3.9531625552 -1.2174038775 -0.8980898857
H 4.9809862086 -0.3911520997 0.7914888740
H 4.6875607560 -1.7783307761 -0.2567016064
H 4.3448649935 -1.8901351708 1.4707472884
H 2.5370053510 -0.2143552888 1.2434860114
H 2.2390779143 -1.5963193921 0.1851168498
H 3.2384985154 -0.3313722991 -1.7195787307
H 3.4590642937 1.0651607302 -0.6682582517
H 0.7819866368 -0.2158618622 -1.3606246451
H 1.4589518979 1.2085764416 -2.1366487697
H 0.2751573757 2.3996167330 -0.5930433110
H 1.5726872956 1.9692819371 0.5086882726
H -0.4221628677 1.4424408337 1.6618544518
H 0.1730652668 -0.1193913879 1.1035978460
H -2.0037070873 1.5531800884 -0.2225538359
H -1.3929391299 0.0239959364 -0.8515276399
H -2.1497217782 -1.1512278664 1.1814713202
H -2.6528078774 0.3780355211 1.8990837836
H -4.6140120805 -0.7360614897 1.0825150691
H -4.3248580999 0.6709046743 0.0605350101
H -3.3754535936 -0.7802027197 -1.7078466109
H -3.5310760469 -2.1907582702 -0.6583058737
H -4.9721210310 -1.3623194813 -1.2492058686
32
CONF748
C 3.3874162530 0.5328575805 1.3513762083
C 3.4889169593 -0.5513738248 0.2829693918
C 2.1434425562 -1.2052165414 -0.0638555625
C 1.4710731563 -0.6441016696 -1.3194442367
C 1.0171483035 0.8142963881 -1.2346304838
C -0.0451316363 1.1010559906 -0.1717904849
C -1.3700910396 0.3858275331 -0.4275906842
C -2.4338195432 0.7962766681 0.5889983238
C -3.8028464027 0.1684831823 0.3225714675
C -3.8258958714 -1.3404329171 0.5401910750
H 2.9788544764 0.1195916319 2.2713656601
H 2.7475782863 1.3491925084 1.0293047161
H 4.3733827206 0.9380330724 1.5696012011
H 4.1734257565 -1.3204519479 0.6482795285
H 3.9308807039 -0.1299756303 -0.6222512372
H 1.4674096362 -1.1214726732 0.7877669535
H 2.3064078747 -2.2714600572 -0.2386273223
H 0.6095304800 -1.2708481999 -1.5584528196
H 2.1720874455 -0.7322290927 -2.1538732902
H 0.6155451752 1.0999278050 -2.2107520107
H 1.8857429213 1.4478024891 -1.0465411713
H -0.2267034156 2.1793187910 -0.1549349617
H 0.3286307479 0.8205637798 0.8141097082
H -1.7219847553 0.6260924136 -1.4340999061
H -1.2160960985 -0.6917340269 -0.3735087742
H -2.1005464143 0.5185843030 1.5919478605
H -2.5387206359 1.8841670224 0.5669963027
H -4.5324886695 0.6306218288 0.9917187869
H -4.1072454498 0.3922783843 -0.7023903581
H -3.1795662000 -1.8477639116 -0.1709772825
H -3.4906305205 -1.5836761196 1.5460563081
H -4.8355349037 -1.7238359813 0.4128131386
32
CONF752
C 3.1125255164 0.8828866214 1.4454038116
C 3.7651957288 -0.1758616771 0.5648123977
C 3.1555428759 -0.2797446225 -0.8350006511
C 1.6889438986 -0.7348785524 -0.8489014243
C 0.7020010313 0.4222867438 -1.0056468650
C -0.7603351517 -0.0289386581 -1.0104685394
C -1.2626704258 -0.4418336507 0.3720048675
C -2.6903863057 -0.9918925861 0.3581251087
C -3.7677049699 0.0064460824 -0.0706939096
C -3.8898985625 1.2010475210 0.8687317709
H 2.0799936018 0.6237744053 1.6632548043
H 3.1333718132 1.8527867053 0.9531593239
H 3.6465151275 0.9663458215 2.3894763887
H 3.6933992596 -1.1482711194 1.0580343698
H 4.8271669858 0.0598230948 0.4587948969
H 3.7562292358 -0.9931131901 -1.4036284945
H 3.2405049813 0.6870488458 -1.3357540030
H 1.4780460232 -1.2848825740 0.0690620315
H 1.5326157577 -1.4246592140 -1.6816890132
H 0.9146407909 0.9267919268 -1.9518098535
H 0.8473181056 1.1499897277 -0.2065471497
H -0.8778082854 -0.8660391564 -1.7031675105
H -1.3724757040 0.7956963767 -1.3799905109
H -0.6112831101 -1.2209302714 0.7730311091
H -1.2027765669 0.4128775655 1.0479875085
H -2.7257710491 -1.8512481807 -0.3164561421
H -2.9317437120 -1.3517011800 1.3617092942
H -3.5643483302 0.3581480685 -1.0833844280
H -4.7246934286 -0.5206806586 -0.0964336895
H -2.9948089118 1.8163531492 0.8370710761
H -4.7359716427 1.8208627124 0.5812196984
H -4.0422602174 0.8651403004 1.8922227732
32
CONF595
C 4.2782582851 0.3950063582 1.2453626100
C 4.1205458346 -0.4698354955 -0.0004465732
C 2.9365005920 -0.0571393393 -0.8762085701
C 1.5799304585 -0.3122963520 -0.2220116425
C 0.4289682386 0.0288877934 -1.1666027859
C -0.9525379310 -0.2811831800 -0.5860480339
C -1.3542844270 0.6637675019 0.5440948498
C -2.7146763929 0.3391688735 1.1656449683
C -3.9051326624 0.5177353514 0.2112325380
C -4.4094329075 -0.7973122911 -0.3750664540
H 4.3554564669 1.4446705715 0.9708541420
H 5.1785912547 0.1146634742 1.7869622579
H 3.4303877644 0.2747616721 1.9141434314
H 4.0014480508 -1.5144759329 0.2957787379
H 5.0337700927 -0.3978080371 -0.5958294540
H 2.9840939894 -0.6169086715 -1.8139398369
H 3.0239594160 1.0038941018 -1.1220482856
H 1.4969849435 0.2875876807 0.6841047112
H 1.5107386266 -1.3648476045 0.0636711224
H 0.5555432584 -0.5437032296 -2.0891623218
H 0.4792926707 1.0884930414 -1.4287691511
H -0.9655936366 -1.3102673811 -0.2190531870
H -1.6849151348 -0.2021342279 -1.3910704151
H -0.6034406584 0.6170534404 1.3352196620
H -1.3696671606 1.6885648466 0.1645747752
H -2.7015073810 -0.6866666230 1.5393999656
H -2.8470613010 0.9964712074 2.0279388041
H -4.7309198742 0.9876007701 0.7498668269
H -3.6231429700 1.1936529290 -0.5984154022
H -5.2377687036 -0.6141877497 -1.0561735776
H -3.6236535761 -1.3117265574 -0.9209508309
H -4.7595884862 -1.4540501943 0.4184944758
32
CONF771
C 3.4637863851 1.4472451083 -0.9086257317
C 3.6205630399 0.1074069319 -0.1960134134
C 2.5460366776 -0.9171396964 -0.5900515451
C 1.4075157645 -1.0610041450 0.4227094478
C 0.5697320933 0.2037962699 0.5920260863
C -0.5912739836 0.0300113319 1.5737937216
C -1.6746006151 -0.9603430476 1.1382629948
C -2.3546176248 -0.6345784860 -0.1926081293
C -3.0854805766 0.7065964148 -0.1923485871
C -3.8725975582 0.9171713913 -1.4807767344
H 3.5531324916 1.3142276950 -1.9847629314
H 4.2379489431 2.1399766894 -0.5856151755
H 2.4956155597 1.8933763156 -0.6997415074
H 3.5954145164 0.2629997150 0.8843143665
H 4.6067379593 -0.2933155124 -0.4406540610
H 3.0125057077 -1.8986836970 -0.7006145095
H 2.1285338558 -0.6461366928 -1.5619923236
H 1.8240735980 -1.3465188387 1.3921651131
H 0.7630974141 -1.8763955704 0.0884079648
H 0.1880256212 0.5187417895 -0.3804836429
H 1.2070615581 1.0042929471 0.9721550748
H -1.0511788668 1.0054564235 1.7439035945
H -0.1890359269 -0.3090369795 2.5321437218
H -1.2430010210 -1.9609925870 1.0721967364
H -2.4371764089 -0.9893696908 1.9210722060
H -1.6185263824 -0.6456946300 -0.9983101872
H -3.0782039033 -1.4259465236 -0.4058269993
H -3.7680741402 0.7435932960 0.6600212932
H -2.3660624784 1.5191214521 -0.0789443684
H -4.6190822661 0.1355410879 -1.6045267580
H -4.3807312003 1.8783853938 -1.4662430789
H -3.2074214164 0.8930604652 -2.3412494688
32
CONF539
C 3.5228033247 -0.5912481869 1.6401811365
C 3.7590811342 0.3871411991 0.4946733924
C 2.4742906419 0.7772976963 -0.2384501452
C 1.8900848037 -0.3629367346 -1.0725432308
C 0.6118654387 0.0335102875 -1.8262317145
C -0.6828260598 -0.4437223290 -1.1640970230
C -0.9384524183 0.1760649637 0.2077734929
C -2.2720967350 -0.2553646193 0.8215346632
C -3.4901707012 0.3539074967 0.1295442052
C -4.7863628518 -0.0318359948 0.8329691846
H 2.8071927192 -0.1795458032 2.3486789791
H 4.4536634528 -0.7861956977 2.1675112148
H 3.1380966819 -1.5387855749 1.2726425137
H 4.4616872875 -0.0507791560 -0.2181580447
H 4.2190720584 1.2926819452 0.8972285259
H 2.6944911707 1.6146584312 -0.9057423768
H 1.7391926699 1.1225384150 0.4898603348
H 1.6754316269 -1.2194150183 -0.4326327257
H 2.6509271143 -0.6775295883 -1.7908469917
H 0.6434249775 -0.3934830778 -2.8310469584
H 0.5773858251 1.1194022104 -1.9374546958
H -0.6537679516 -1.5317124294 -1.0642804219
H -1.5120702183 -0.1965662126 -1.8298529777
H -0.1375904268 -0.1226973485 0.8860875755
H -0.9181065302 1.2652188272 0.1221057934
H -2.3470093397 -1.3450392446 0.7909007163
H -2.2865185059 0.0456934365 1.8721574726
H -3.3914508050 1.4419295844 0.1223805114
H -3.5349358283 0.0172619115 -0.9074477268
H -4.9094354866 -1.1126393048 0.8372628954
H -4.7788429572 0.3151885643 1.8639756735
H -5.6421018524 0.4096094594 0.3279025530
32
CONF683
C 4.1430124839 -1.5576591898 0.0069921055
C 2.7453332618 -0.9849759614 0.2124187930
C 2.6936247879 0.5052087587 -0.1196188210
C 1.3351713659 1.1451374867 0.1700593548
C 0.2297083695 0.6502914745 -0.7611884281
C -1.0701165527 1.4455977222 -0.6271598385
C -1.7607110405 1.3243646046 0.7323757387
C -2.2364284536 -0.0804899485 1.1115476638
C -3.3425135189 -0.6423671489 0.2063151801
C -2.8285327397 -1.5887631493 -0.8742400687
H 4.1624747263 -2.6172517231 0.2499375299
H 4.8624405103 -1.0457843283 0.6425310820
H 4.4548011217 -1.4363111209 -1.0280608898
H 2.4429529435 -1.1314628984 1.2519995129
H 2.0416642996 -1.5282625604 -0.4200969788
H 2.9439756635 0.6485074799 -1.1736233439
H 3.4553024339 1.0196359035 0.4719742781
H 1.4284131130 2.2283986486 0.0573577523
H 1.0643522556 0.9411608912 1.2075147362
H 0.0338002370 -0.4045813439 -0.5705279993
H 0.5785271750 0.7386715891 -1.7936731278
H -1.7627449849 1.1280051567 -1.4084980017
H -0.8502551472 2.5024494761 -0.8018154113
H -1.0803825697 1.6794851724 1.5090490002
H -2.6261876904 1.9924982473 0.7336900399
H -1.3901139886 -0.7683838645 1.1226957426
H -2.6149455998 -0.0238242152 2.1350055865
H -4.0598764732 -1.1912470973 0.8207286721
H -3.8832985582 0.1835658531 -0.2602235618
H -2.3166470670 -2.4356924339 -0.4220109700
H -3.6587248508 -1.9697931295 -1.4653186792
H -2.1357067234 -1.0879319087 -1.5438742528
32
CONF425
C 4.6605667384 0.8831699877 -0.9540082436
C 3.4931977724 -0.0269424289 -0.5896527734
C 2.5727205765 0.6239460990 0.4412644260
C 1.4551135904 -0.2986419322 0.9296302283
C 0.4124153125 -0.6102764598 -0.1431037675
C -0.7489634613 -1.4457691420 0.4023016126
C -1.7303888383 -0.6538248869 1.2799321536
C -3.0438355534 -0.3074367332 0.5758788800
C -2.8776657038 0.6638299155 -0.5905177866
C -4.2224789926 1.0361609428 -1.2045573479
H 5.3024898576 0.4060160041 -1.6905413145
H 5.2573076585 1.1095276600 -0.0730127910
H 4.2967916483 1.8200459224 -1.3700949357
H 3.8783950348 -0.9653994779 -0.1840978666
H 2.9282844084 -0.2610732614 -1.4932481013
H 2.1336910127 1.5281219638 0.0127405254
H 3.1753803243 0.9267128200 1.3014383568
H 0.9612617890 0.1766893945 1.7798511508
H 1.8923821478 -1.2341753733 1.2872121807
H 0.8890687492 -1.1653580784 -0.9531277541
H 0.0315330247 0.3244318750 -0.5579549324
H -0.3284515957 -2.2735311084 0.9774350553
H -1.2964796676 -1.8841644465 -0.4343104560
H -1.9720270907 -1.2385975384 2.1697925088
H -1.2598139373 0.2706361358 1.6187036539
H -3.5115764587 -1.2266747228 0.2144302169
H -3.7225665496 0.1390657929 1.3074347209
H -2.3790623425 1.5690705874 -0.2360456676
H -2.2472904682 0.2119796922 -1.3579887171
H -4.0873621131 1.7248316168 -2.0350844778
H -4.7309860600 0.1480656546 -1.5735588012
H -4.8615842980 1.5119049784 -0.4637451709
32
CONF751
C 3.1080101632 0.8472251501 -1.4656659458
C 3.7623460175 -0.1839621090 -0.5543122701
C 3.1493481274 -0.2506798239 0.8462217233
C 1.6851861392 -0.7132781127 0.8688945659
C 0.6921370973 0.4423184122 0.9944043262
C -0.7680631902 -0.0156189172 1.0036152285
C -1.2615893469 -0.4631101499 -0.3710992062
C -2.6919377694 -1.0062262125 -0.3551379431
C -3.7652637121 0.0006264905 0.0636151067
C -3.8588062573 1.2041857799 -0.8674117627
H 2.0760641487 0.5801093159 -1.6762573278
H 3.6423021863 0.9041150242 -2.4115806874
H 3.1268720679 1.8310823977 -1.0019289351
H 4.8230803898 0.0586307619 -0.4525288009
H 3.6953987517 -1.1699986410 -1.0201274377
H 3.2275982010 0.7306269236 1.3189196650
H 3.7522074005 -0.9438695248 1.4369015385
H 1.5304747896 -1.3828250534 1.7183149214
H 1.4789144312 -1.2870155220 -0.0354688990
H 0.8373764091 1.1515508397 0.1787465742
H 0.8985078399 0.9702490688 1.9291220653
H -1.3853836899 0.8150090488 1.3501845863
H -0.8854005024 -0.8363596963 1.7156048143
H -1.1925411705 0.3731867221 -1.0689566911
H -0.6107840983 -1.2553879245 -0.7465204199
H -2.9323276997 -1.3727104790 -1.3564992092
H -2.7335689982 -1.8599758364 0.3261037873
H -4.7280514298 -0.5163739461 0.0695552620
H -3.5749472265 0.3418604947 1.0823637955
H -4.7035739534 1.8300601606 -0.5893802139
H -2.9582452600 1.8100118660 -0.8141557218
H -3.9961089746 0.8787409625 -1.8963359050
32
CONF655
C 2.4219685426 1.6230009081 1.2595277973
C 2.8027711503 0.1573643499 1.0815091841
C 2.9077078400 -0.2630375170 -0.3862812222
C 1.5740877365 -0.3013386133 -1.1359243659
C 0.6771357914 -1.4607238062 -0.7020774345
C -0.6742186844 -1.4837128315 -1.4315612305
C -1.8313518378 -0.9002899886 -0.6173605426
C -1.6804176657 0.5886353434 -0.3136967431
C -2.9312639995 1.2023292074 0.3178291609
C -3.2140774479 0.6762309032 1.7205835030
H 1.4297445302 1.8230790074 0.8636297732
H 3.1320524854 2.2649513603 0.7427656735
H 2.4242661710 1.8874454419 2.3144201907
H 2.0759531898 -0.4727036425 1.5964907180
H 3.7725302609 -0.0115203369 1.5557996678
H 3.3643916045 -1.2547768726 -0.4367129287
H 3.5775608566 0.4334626993 -0.8965788223
H 1.7833709045 -0.4102616179 -2.2033551991
H 1.0520498008 0.6452894894 -1.0038811901
H 0.4997771433 -1.4130610539 0.3729366815
H 1.2122877290 -2.3926925767 -0.8996145757
H -0.9311499263 -2.5170423186 -1.6749293886
H -0.5872424761 -0.9410610708 -2.3754677597
H -2.7575079529 -1.0501130990 -1.1788448311
H -1.9176005584 -1.4583025629 0.3168040508
H -0.8368466157 0.7410637191 0.3616586265
H -1.4670009181 1.1165946187 -1.2467426342
H -2.7985090540 2.2857432420 0.3690434811
H -3.7930755467 1.0059488776 -0.3240789433
H -4.0632604877 1.1987000381 2.1548629137
H -3.4446632393 -0.3855251664 1.6993193139
H -2.3508731739 0.8298552424 2.3646496960
32
CONF592
C 4.2551779148 0.7344847260 -0.9422166845
C 3.9739108392 -0.1692824174 0.2542740175
C 2.8006188256 0.3160114382 1.1184490765
C 1.4771900671 -0.4049963731 0.8517806502
C 0.9243986864 -0.1823083615 -0.5540776029
C -0.4468469173 -0.8270064044 -0.7684548979
C -1.5780362632 -0.1136736311 -0.0298612091
C -2.9374642703 -0.7266875446 -0.3609505524
C -4.0911330845 -0.1108918495 0.4321163237
C -4.3689628535 1.3412360466 0.0591560570
H 5.0845115629 0.3408538036 -1.5258405462
H 4.5202794968 1.7342835110 -0.6049156199
H 3.3867926729 0.8126124545 -1.5898247382
H 4.8773893312 -0.2111602296 0.8667067939
H 3.7732715743 -1.1845615220 -0.0935274378
H 2.6606128002 1.3883657075 0.9676830983
H 3.0486150848 0.1664958778 2.1717252335
H 0.7487338699 -0.0506403321 1.5837029800
H 1.6139034987 -1.4768937183 1.0158994920
H 1.6192016527 -0.6083283391 -1.2797413516
H 0.8502893428 0.8903737781 -0.7481528746
H -0.4074362282 -1.8718576258 -0.4509437307
H -0.6732994813 -0.8172262294 -1.8377236584
H -1.4162741802 -0.1758130971 1.0478041244
H -1.5710555707 0.9408950481 -0.3102687537
H -3.1350194771 -0.6123600279 -1.4295431230
H -2.8986117212 -1.7977236192 -0.1464114971
H -4.9924951484 -0.7000487570 0.2472309369
H -3.8683941200 -0.1750473447 1.4996418055
H -3.5293688953 1.9790461087 0.3217509997
H -4.5493949142 1.4302343459 -1.0098300554
H -5.2477504207 1.7039736730 0.5870022660
32
CONF749
C 3.4102743790 0.6242898446 -1.3011827865
C 3.5109287365 -0.5139826127 -0.2904226934
C 2.1704255697 -1.2083799367 -0.0087562357
C 1.4699888721 -0.7359225277 1.2678438084
C 1.0085165700 0.7225818569 1.2699191326
C -0.0465031988 1.0686111965 0.2175867385
C -1.3794089849 0.3559058663 0.4366842325
C -2.4344722082 0.8192975739 -0.5661420488
C -3.8151087355 0.2089478061 -0.3204121293
C -3.8633637468 -1.2936531046 -0.5750431050
H 2.7413593286 1.4059052132 -0.9530404989
H 3.0364107586 0.2523199041 -2.2529932377
H 4.3908746919 1.0644785453 -1.4700115329
H 3.9260196628 -0.1340362965 0.6453594105
H 4.2174756218 -1.2497852790 -0.6813025047
H 2.3462194504 -2.2811631572 0.1014446377
H 1.5070208182 -1.0805017070 -0.8648552800
H 2.1558315537 -0.8747738100 2.1079446901
H 0.6085782759 -1.3821798258 1.4480796127
H 1.8754183330 1.3703981630 1.1289921281
H 0.5969414509 0.9457699109 2.2580635563
H 0.3280434111 0.8297023572 -0.7789112171
H -0.2177634274 2.1482244702 0.2495710355
H -1.2355404981 -0.7199544704 0.3382035970
H -1.7337337934 0.5572336069 1.4508846709
H -2.5194629547 1.9076376361 -0.5082041484
H -2.1056519391 0.5688907784 -1.5776772493
H -4.1196988389 0.4124617488 0.7087670590
H -4.5338521371 0.7005494064 -0.9803884763
H -4.8813112960 -1.6610297830 -0.4681688395
H -3.5211058704 -1.5188290470 -1.5827295586
H -3.2347991476 -1.8297043210 0.1308880265
32
CONF622
C 3.9712707489 1.3750175497 -0.7144197626
C 2.7956236271 0.4111012993 -0.8263975837
C 2.6856917133 -0.4855057800 0.4052347430
C 1.6128259978 -1.5688304436 0.2798573251
C 0.1826297605 -1.0473091697 0.1242586247
C -0.2987789819 -0.2458712421 1.3315762201
C -1.7887875176 0.0994387706 1.2817910995
C -2.1638954729 1.0642067187 0.1472583956
C -2.7728634688 0.3810003555 -1.0799178060
C -4.2088697594 -0.0733803509 -0.8424667168
H 4.0320048765 2.0091320173 -1.5957058057
H 4.9064660288 0.8273001143 -0.6197010483
H 3.8587522249 2.0118387875 0.1604641045
H 2.9202325514 -0.2121324372 -1.7150972173
H 1.8763212565 0.9861132190 -0.9487336128
H 2.4890393651 0.1297789841 1.2849148485
H 3.6485147555 -0.9785563288 0.5635812204
H 1.6587135057 -2.2048989670 1.1676571802
H 1.8486921834 -2.1942634033 -0.5850597720
H -0.4773926301 -1.9085016882 -0.0096565081
H 0.1155116819 -0.4365466149 -0.7760888964
H 0.2723956410 0.6809885985 1.4105545693
H -0.1086544524 -0.8296887806 2.2363232524
H -2.3643418331 -0.8228088979 1.1881912936
H -2.0567450011 0.5520844908 2.2389482102
H -2.8848891818 1.7972344696 0.5160844978
H -1.2723875237 1.6171158691 -0.1560723345
H -2.7633811919 1.0860459505 -1.9146989498
H -2.1645708898 -0.4778288173 -1.3654318360
H -4.2628870457 -0.7845870484 -0.0219034245
H -4.8405732992 0.7776773178 -0.5968745366
H -4.6077463897 -0.5514032078 -1.7341121280
32
CONF553
C 4.7762280212 0.0645853264 -0.8542216666
C 3.4952187434 -0.3146897765 -0.1199590256
C 2.2587343880 0.2392582999 -0.8256290837
C 0.9381298568 -0.2111235688 -0.1979111224
C 0.6842795208 0.4056656922 1.1755343035
C -0.6163658208 -0.0641694757 1.8315797832
C -1.8885062865 0.3523318639 1.0782916693
C -2.4864334481 -0.7764706738 0.2383423990
C -3.7568856862 -0.3625457835 -0.5065234016
C -3.4936998367 0.6200149953 -1.6425906104
H 4.8738330873 1.1463399397 -0.9139186768
H 4.7682145768 -0.3340116410 -1.8664066481
H 5.6462679002 -0.3310605992 -0.3357927510
H 3.5435044890 0.0697702733 0.9000645253
H 3.4186853926 -1.4029957450 -0.0628899437
H 2.2788822964 -0.0915930734 -1.8672284503
H 2.3030157045 1.3310560058 -0.8267190311
H 0.9343893073 -1.3004077183 -0.1108710160
H 0.1276569808 0.0750457116 -0.8701262669
H 0.6639382617 1.4942226401 1.0799617571
H 1.5096094727 0.1488981335 1.8424712718
H -0.6454994758 0.3544403805 2.8399470475
H -0.5932155370 -1.1512603377 1.9334073666
H -2.6462064443 0.6739440951 1.7967485965
H -1.6615756145 1.2085503886 0.4423283379
H -1.7512375170 -1.1350359185 -0.4834041323
H -2.7280611384 -1.6100904107 0.9028791807
H -4.2248697237 -1.2588009705 -0.9205540214
H -4.4614231376 0.0805014629 0.2011799268
H -4.4146036636 0.8270095623 -2.1826290471
H -3.1055878984 1.5617783801 -1.2639297909
H -2.7715354722 0.2054970218 -2.3427680440
32
CONF690
C 4.2023056213 -0.0060202787 -0.0101539959
C 3.1509847225 -0.7927720847 -0.7846148225
C 1.9606360689 0.0613059572 -1.2255815760
C 1.1426025815 0.6746365670 -0.0871930834
C 0.4694634414 -0.3684366956 0.8022550428
C -0.4309723200 0.2469032178 1.8746663582
C -1.6912234858 0.9482715640 1.3604129275
C -2.6761349013 0.0205790280 0.6342040037
C -2.5931972810 0.1127595119 -0.8893710399
C -3.5758597735 -0.8376805004 -1.5637707490
H 3.8090834274 0.3384842756 0.9425527883
H 4.5271411849 0.8598268125 -0.5831466845
H 5.0695166066 -0.6314316600 0.1886859688
H 2.8013169135 -1.6292408491 -0.1775592973
H 3.6147369043 -1.2133945769 -1.6803735049
H 1.2990668293 -0.5578204154 -1.8374768534
H 2.3310294016 0.8710079213 -1.8596735586
H 0.3783025552 1.3129165296 -0.5346630420
H 1.7807223850 1.3139805730 0.5251613129
H 1.2385909209 -0.9541807104 1.3098986656
H -0.1100382003 -1.0569077375 0.1853935477
H 0.1550653531 0.9697169148 2.4486375754
H -0.7375558942 -0.5446295205 2.5635121720
H -2.1896355916 1.3878476104 2.2273841118
H -1.4146988052 1.7724840834 0.7014688850
H -2.4996785861 -1.0117067970 0.9439451263
H -3.6965940372 0.2748056309 0.9305104858
H -2.8143933225 1.1378009858 -1.1969497381
H -1.5818122301 -0.1203142385 -1.2239489107
H -3.3596035927 -1.8677317388 -1.2883666512
H -4.5956174102 -0.6105502422 -1.2602878627
H -3.5116426406 -0.7505674226 -2.6457246477
32
CONF766
C 4.1597656858 -0.1383533783 -0.8076461299
C 3.8889543768 -0.1864211150 0.6912675515
C 2.5710911955 0.4727836980 1.1039165233
C 1.3191889637 -0.2342364396 0.5629625816
C 0.7266589422 0.4561654225 -0.6656550854
C -0.3923760260 -0.3476560435 -1.3315951644
C -1.6089126126 -0.6333075850 -0.4481973757
C -2.3436246352 0.6295360910 -0.0033329201
C -3.5732398686 0.3372550172 0.8587807354
C -4.7106077869 -0.3244272999 0.0884857810
H 3.4213061767 -0.7177002501 -1.3550279447
H 5.1423527738 -0.5516462264 -1.0243036522
H 4.1338015660 0.8883208333 -1.1664168913
H 4.7044168129 0.3211431455 1.2127734756
H 3.8855588316 -1.2273324560 1.0234685136
H 2.5715901363 1.5135246892 0.7729878383
H 2.5345643541 0.4802880790 2.1955865394
H 0.5607769668 -0.2599454511 1.3468386564
H 1.5645393237 -1.2688797851 0.3138423951
H 1.5123530208 0.6135104400 -1.4061709307
H 0.3534916525 1.4409277684 -0.3782052776
H 0.0192173697 -1.3032743068 -1.6672032184
H -0.7261116849 0.1954738274 -2.2195187798
H -2.2930667811 -1.2629078298 -1.0202504419
H -1.3010997115 -1.2010338556 0.4316770707
H -1.6622995764 1.2544307335 0.5767841148
H -2.6485946469 1.1991591706 -0.8845534900
H -3.2811671691 -0.3024320878 1.6949072529
H -3.9358754551 1.2797446849 1.2760634423
H -5.5825354674 -0.4371687227 0.7285079690
H -4.9906104157 0.2826636468 -0.7695921016
H -4.4223190572 -1.3103208839 -0.2659596155
32
CONF737
C 3.7982879936 0.1341803706 1.6716808211
C 2.5476089846 0.5056533946 0.8831383008
C 2.6816472201 0.1301814458 -0.5924860808
C 1.4449580207 0.4754973958 -1.4345373509
C 0.5101501967 -0.7082760680 -1.6969143348
C -0.1601750890 -1.3086321616 -0.4597923682
C -1.1165100505 -0.3705032578 0.2796549154
C -2.3770520313 -0.0450411057 -0.5191774004
C -3.3292540755 0.8983690328 0.2182801639
C -3.9879780316 0.2624611730 1.4375582916
H 3.6905091736 0.4169453792 2.7160578529
H 4.6705338901 0.6422062633 1.2658736392
H 3.9746229223 -0.9382000215 1.6224080836
H 2.3779718353 1.5822635449 0.9631801201
H 1.6855189694 0.0018532850 1.3211734587
H 2.8910400290 -0.9385249519 -0.6755763406
H 3.5487673641 0.6597001227 -0.9946802258
H 1.7731302923 0.8459535130 -2.4085118433
H 0.8927970162 1.2855838938 -0.9562104566
H 1.0858021732 -1.4983468832 -2.1864579298
H -0.2597525300 -0.3894061673 -2.4024724142
H 0.6131362521 -1.6442211440 0.2332485268
H -0.7190145903 -2.1948303677 -0.7725242184
H -1.4026567501 -0.8540229338 1.2157312254
H -0.6039843157 0.5588265971 0.5336432482
H -2.0922399665 0.4260984118 -1.4617566341
H -2.9030636658 -0.9727712227 -0.7575732961
H -2.7817084015 1.7920010436 0.5266845371
H -4.1111766308 1.2145405883 -0.4764352373
H -3.2506078185 0.0138267360 2.1960926374
H -4.7070625463 0.9494686449 1.8776129569
H -4.5117889825 -0.6477978143 1.1539569936
32
CONF784
C 2.6898631059 1.3432893772 -1.1341601271
C 3.2198615615 -0.0771179803 -0.9768306008
C 2.2179056142 -1.0412945439 -0.3377260502
C 1.8705892566 -0.7038890757 1.1198081143
C 0.5452509992 0.0437470571 1.2877900857
C -0.6666737350 -0.8644004322 1.0890566076
C -2.0004449811 -0.1555346865 1.3311651729
C -2.2860479858 1.0266837523 0.4008840704
C -2.2546136319 0.6982820823 -1.0927548105
C -3.2923930217 -0.3402058356 -1.5028564695
H 2.5060616266 1.7988942568 -0.1649069783
H 1.7614259092 1.3431750689 -1.7016153564
H 3.4139719458 1.9574698921 -1.6650759452
H 4.1313670193 -0.0573435594 -0.3745443971
H 3.4874529726 -0.4642330953 -1.9633614805
H 2.6484596758 -2.0441274128 -0.3802172527
H 1.3088232472 -1.0553245772 -0.9408115191
H 2.6770977157 -0.1025285254 1.5446027020
H 1.8170404077 -1.6257622992 1.7037163387
H 0.5036768668 0.8703770781 0.5800241606
H 0.5021033825 0.4643925119 2.2958823542
H -0.5948993663 -1.7019950991 1.7884065546
H -0.6543081235 -1.2851806029 0.0830508224
H -2.8046785140 -0.8876723697 1.2356560612
H -2.0196037440 0.2134021929 2.3600966929
H -3.2751322266 1.4198492271 0.6501944261
H -1.5641246078 1.8215984540 0.5978809579
H -2.4414650767 1.6220121376 -1.6462823369
H -1.2597344980 0.3490300747 -1.3737066349
H -4.2867739812 -0.0254765755 -1.1936242585
H -3.2927862722 -0.4664085248 -2.5831907926
H -3.0799406767 -1.3047214575 -1.0493564292
32
CONF591
C 4.2767880306 0.7577655533 0.8991590094
C 3.9727195502 -0.1969631391 -0.2512535140
C 2.8019199498 0.2665723519 -1.1308241408
C 1.4714635930 -0.4274207042 -0.8298094606
C 0.9232351310 -0.1332218078 0.5646202650
C -0.4456069593 -0.7690277969 0.8172964758
C -1.5803007932 -0.1048720017 0.0393669550
C -2.9359050843 -0.7090385754 0.4011690895
C -4.0921072530 -0.1471570203 -0.4274397916
C -4.3838729860 1.3204369348 -0.1343906190
H 5.1036691314 0.3786505952 1.4958826197
H 3.4140155133 0.8807407511 1.5475339568
H 4.5556453646 1.7359692735 0.5131415545
H 3.7571323241 -1.1907201037 0.1460557149
H 4.8713666460 -0.2837744796 -0.8659324970
H 3.0439612845 0.0711475606 -2.1779081059
H 2.6748497959 1.3457351652 -1.0237171477
H 1.5970511383 -1.5071669205 -0.9435917659
H 0.7455725700 -0.1002565048 -1.5767636134
H 0.8479586214 0.9479511485 0.7032472510
H 1.6213696352 -0.5199160344 1.3088507803
H -0.6712645839 -0.6979635527 1.8844249142
H -0.4022874342 -1.8304495658 0.5611047111
H -1.5812002540 0.9634994801 0.2616939504
H -1.4160729933 -0.2247883592 -1.0330342637
H -2.8882544308 -1.7899653302 0.2461933405
H -3.1371605692 -0.5374329014 1.4613681872
H -3.8650536409 -0.2669693310 -1.4892521315
H -4.9890054938 -0.7333699696 -0.2137546242
H -3.5470596539 1.9500257761 -0.4243699872
H -5.2612811791 1.6475998218 -0.6872629795
H -4.5732570899 1.4646846097 0.9270266753
32
CONF619
C 3.9403265702 1.4931359116 0.5006336877
C 2.7715305120 0.5470704119 0.7508498758
C 2.6838844916 -0.5346437600 -0.3239765365
C 1.6235782399 -1.5990820151 -0.0354338870
C 0.1868824379 -1.0771081570 0.0346694215
C -0.3033551742 -0.4866327382 -1.2853166578
C -1.7920182346 -0.1318599180 -1.2794226933
C -2.1498551821 1.0186940196 -0.3269981138
C -2.7504270292 0.5643177356 1.0058938481
C -4.1946077209 0.0959377391 0.8651436844
H 4.8812664718 0.9472384791 0.5049346537
H 3.9841559815 2.2596170974 1.2706379224
H 3.8338501534 1.9818731131 -0.4654222658
H 1.8461671827 1.1249570894 0.7704146983
H 2.8901793684 0.0738623507 1.7284076025
H 3.6540420548 -1.0333622591 -0.3958817377
H 2.4874294107 -0.0690460527 -1.2912666367
H 1.8631719309 -2.0796131220 0.9167133219
H 1.6810122685 -2.3646069914 -0.8135859832
H 0.1118063835 -0.3298983014 0.8246182579
H -0.4632979588 -1.9129535744 0.3064933591
H -0.1226954393 -1.2138768902 -2.0815578271
H 0.2690210520 0.4119308666 -1.5229252906
H -2.0713626025 0.1469269007 -2.2977610020
H -2.3683426910 -1.0207939495 -1.0181113641
H -1.2518651914 1.6089173543 -0.1326211645
H -2.8698836303 1.6820905773 -0.8113851120
H -2.1487987615 -0.2416655080 1.4273381105
H -2.7215154507 1.4013625225 1.7077090091
H -4.8202037658 0.9024488975 0.4886131253
H -4.2679403301 -0.7412974025 0.1754566745
H -4.5861381525 -0.2212218977 1.8288581848
32
CONF797
C 4.0439201155 -0.8063776878 -0.2951284983
C 2.6499785875 -0.8183261058 -0.9121980773
C 1.9462721644 0.5378752135 -0.8388751978
C 1.6807116248 1.0529492978 0.5776175185
C 0.8288701814 0.1315685178 1.4539862130
C -0.5525164509 -0.2016147058 0.8869764281
C -1.4406025749 1.0282718616 0.7140284867
C -2.8977100238 0.6980191201 0.3827833303
C -3.0984942748 0.0259154359 -0.9833507506
C -3.2165125373 -1.4927370737 -0.9011655190
H 4.5365840141 -1.7620246515 -0.4591229277
H 3.9953582844 -0.6304813930 0.7762268952
H 4.6520192139 -0.0248175033 -0.7456840256
H 2.0413031463 -1.5783853533 -0.4199520978
H 2.7332929012 -1.1002870122 -1.9649166874
H 1.0005526635 0.4694034232 -1.3800581847
H 2.5617575450 1.2777534103 -1.3575659171
H 1.1901939610 2.0253610985 0.4996342444
H 2.6345065500 1.2174679724 1.0828327965
H 0.7014070357 0.6136894225 2.4270476107
H 1.3688257351 -0.8018708827 1.6251789279
H -1.0433696023 -0.8943454378 1.5757172385
H -0.4369927686 -0.7109220078 -0.0696837680
H -1.4221767254 1.6047383693 1.6430541739
H -1.0383572519 1.6647039396 -0.0765641002
H -3.3099608329 0.0572188112 1.1650495873
H -3.4586903241 1.6352754847 0.4019989753
H -4.0124519723 0.4117093386 -1.4406272030
H -2.2707953496 0.2926642729 -1.6436610551
H -4.0731069315 -1.7715196907 -0.2910770530
H -3.3544648082 -1.9139796196 -1.8947159786
H -2.3270991607 -1.9349460637 -0.4621585949
32
CONF598
C 5.1414830159 -0.0938430612 -0.5311486696
C 3.6694591409 -0.4863335263 -0.4776050603
C 2.9116993765 0.3182338068 0.5770220748
C 1.4553508503 -0.1159997162 0.7508515386
C 0.5782491254 0.2203143524 -0.4540976099
C -0.8873776262 -0.1796585493 -0.2652911235
C -1.6358354494 0.7244375151 0.7115228467
C -3.0796911094 0.2900061278 0.9739624737
C -3.9992633979 0.3716876290 -0.2537104623
C -4.2186421811 -0.9763728932 -0.9333686004
H 5.2446374016 0.9617314246 -0.7727241354
H 5.6646930627 -0.6726349249 -1.2884127395
H 5.6193680150 -0.2726399253 0.4296184970
H 3.5862113250 -1.5505349951 -0.2451499839
H 3.2222882620 -0.3234651411 -1.4594196733
H 2.9423405751 1.3780676710 0.3130742041
H 3.4256304408 0.2030248847 1.5347914127
H 1.0545606521 0.3807673983 1.6363410534
H 1.4202944639 -1.1931272871 0.9314295352
H 0.9657464935 -0.3015870760 -1.3308748765
H 0.6352419704 1.2930430102 -0.6540071271
H -0.9342880672 -1.2125245085 0.0879268361
H -1.3813330542 -0.1340468031 -1.2372496585
H -1.1091787071 0.7349091409 1.6678850767
H -1.6345571678 1.7466323721 0.3246143188
H -3.0816094215 -0.7314104877 1.3598445311
H -3.4781574163 0.9344284135 1.7607798504
H -4.9734356565 0.7592766453 0.0523397180
H -3.5825674455 1.0796010125 -0.9728274822
H -4.6948865415 -1.6719897967 -0.2456630588
H -4.8635312206 -0.8606500361 -1.8018601890
H -3.2780173125 -1.4105056839 -1.2599455476
32
CONF637
C 1.8534906055 0.4120050927 -1.8502130833
C 2.8760845150 -0.4720929925 -1.1466104175
C 2.9360766520 -0.2623813293 0.3682636498
C 1.6331898644 -0.6231003211 1.0968373806
C 0.7880409282 0.6011357726 1.4508794031
C -0.5712397032 0.2321341790 2.0500259244
C -1.5797337672 -0.3009454166 1.0295013719
C -2.1264500981 0.7883114697 0.1079146572
C -3.1740521683 0.2697804756 -0.8787629162
C -2.5850554991 -0.6299466282 -1.9600378280
H 2.0431997908 1.4612132739 -1.6334861774
H 0.8444549032 0.1655489314 -1.5310403830
H 1.9118068809 0.2690387221 -2.9271494842
H 3.8659887287 -0.2668201738 -1.5618949162
H 2.6458133314 -1.5203760864 -1.3519530419
H 3.1928687601 0.7783706858 0.5770588065
H 3.7488389322 -0.8804432004 0.7559262854
H 1.8669371679 -1.1530010681 2.0232540563
H 1.0556467261 -1.3073616077 0.4740556623
H 0.6412964067 1.2202734249 0.5670483367
H 1.3398446348 1.2008702602 2.1792384491
H -0.9989493338 1.1143637907 2.5325351865
H -0.4164814596 -0.5229934716 2.8247310245
H -1.1136686110 -1.0879443152 0.4366369693
H -2.4176769479 -0.7502704575 1.5684997358
H -2.5792939102 1.5693701587 0.7240368578
H -1.3112651740 1.2459033269 -0.4554557934
H -3.9458554986 -0.2765348022 -0.3316578440
H -3.6535247687 1.1259217251 -1.3592246349
H -1.7986940862 -0.1079033363 -2.5013778970
H -2.1657238589 -1.5357950029 -1.5302487107
H -3.3555921969 -0.9189955430 -2.6708446072
32
CONF732
C 2.6330186548 1.0719856556 -1.7110735819
C 3.0251571927 0.8985054521 -0.2478118727
C 2.9721515969 -0.5575657447 0.2205216588
C 1.5630782101 -1.1473411091 0.3128321747
C 0.7541383307 -0.5850345729 1.4819290885
C -0.6719840188 -1.1519473280 1.5517919349
C -1.7502247518 -0.1986684135 1.0309957058
C -1.6158200289 0.1265999725 -0.4546792870
C -2.7197507944 1.0524933589 -0.9697515952
C -4.0914447758 0.3886914129 -1.0225344373
H 3.2643873543 0.4568664400 -2.3484767623
H 2.7493098439 2.1107137430 -2.0115776245
H 1.5975525718 0.7868813087 -1.8780180745
H 2.3765088127 1.5132763466 0.3780851696
H 4.0462938546 1.2636171426 -0.1143463445
H 3.4443946626 -0.6287389488 1.2036841354
H 3.5620487732 -1.1632295573 -0.4718336997
H 1.6513473559 -2.2287963015 0.4455628586
H 1.0321617584 -0.9789851061 -0.6234589245
H 0.7028970086 0.5020886811 1.4111552169
H 1.2864838790 -0.8222692631 2.4060339225
H -0.9139519328 -1.3877671462 2.5903625275
H -0.7191697003 -2.0866863402 0.9889323321
H -2.7233945378 -0.6590856665 1.2117302700
H -1.7133028228 0.7310488028 1.6046728338
H -0.6552282796 0.6159168689 -0.6243587359
H -1.6278553536 -0.8018634113 -1.0308724183
H -2.7698063765 1.9395637008 -0.3340141591
H -2.4530257067 1.3832994290 -1.9765179331
H -4.8185204335 1.0630928977 -1.4688368065
H -4.0511843118 -0.5182013626 -1.6219771809
H -4.4396072013 0.1281295448 -0.0265863038
32
CONF765
C 4.6431237997 0.4193445288 0.3149922980
C 3.5302737841 -0.4729599387 0.8538654690
C 2.1293060967 0.0029233678 0.4625880199
C 1.8207366469 -0.2028141224 -1.0186007838
C 0.4630345757 0.3539357695 -1.4533469367
C -0.7450014830 -0.3419503118 -0.8085333655
C -1.3274046311 0.4396588926 0.3691968302
C -2.4268325865 -0.3189629500 1.1154755879
C -3.6864340778 -0.6075535842 0.2961788689
C -4.4170473483 0.6545766228 -0.1483509551
H 4.6642097470 0.4079814070 -0.7714955299
H 5.6096273480 0.0748975012 0.6752464086
H 4.4993269259 1.4456422726 0.6457673642
H 3.5980092861 -0.4941746257 1.9441885377
H 3.6765100479 -1.4941504281 0.4945025367
H 2.0305162665 1.0628664041 0.7090192403
H 1.4008343120 -0.5504091540 1.0577074864
H 1.8588083488 -1.2712192192 -1.2461206695
H 2.5911443314 0.2882166715 -1.6163334957
H 0.3981590175 0.2470453152 -2.5385584488
H 0.4262938043 1.4225894610 -1.2311130038
H -0.4546790792 -1.3400662828 -0.4734043209
H -1.5241972081 -0.4668885026 -1.5620309553
H -0.5316935453 0.6657968084 1.0806566683
H -1.7182372320 1.3926625724 0.0085688481
H -2.0175266494 -1.2690855173 1.4686741818
H -2.7121519002 0.2630837450 1.9955639443
H -3.4294275514 -1.2071825113 -0.5783472134
H -4.3613232202 -1.2058513798 0.9133412526
H -4.6386371614 1.2867005842 0.7088815004
H -3.8177514882 1.2257245364 -0.8523087045
H -5.3542223966 0.3953049402 -0.6353607907
