      -----------------------------------------------------------      
     |                   =====================                   |     
     |                           x T B                           |     
     |                   =====================                   |     
     |                         S. Grimme                         |     
     |          Mulliken Center for Theoretical Chemistry        |     
     |                    University of Bonn                     |     
      -----------------------------------------------------------      

   * xtb version 6.7.1 (edcfbbe) compiled by 'albert@albert-system' on 2024-07-22

   xtb is free software: you can redistribute it and/or modify it under
   the terms of the GNU Lesser General Public License as published by
   the Free Software Foundation, either version 3 of the License, or
   (at your option) any later version.
   
   xtb is distributed in the hope that it will be useful,
   but WITHOUT ANY WARRANTY; without even the implied warranty of
   MERCHANTABILITY or FITNESS FOR A PARTICULAR PURPOSE.  See the
   GNU Lesser General Public License for more details.
   
   Cite this work as:
   * C. Bannwarth, E. Caldeweyher, S. Ehlert, A. Hansen, P. Pracht,
     J. Seibert, S. Spicher, S. Grimme, WIREs Comput. Mol. Sci., 2020, 11,
     e01493. DOI: 10.1002/wcms.1493
   
   for GFN2-xTB:
   * C. Bannwarth, S. Ehlert and S. Grimme., J. Chem. Theory Comput., 2019,
     15, 1652-1671. DOI: 10.1021/acs.jctc.8b01176
   for GFN1-xTB:
   * S. Grimme, C. Bannwarth, P. Shushkov, J. Chem. Theory Comput., 2017,
     13, 1989-2009. DOI: 10.1021/acs.jctc.7b00118
   for GFN0-xTB:
   * P. Pracht, E. Caldeweyher, S. Ehlert, S. Grimme, ChemRxiv, 2019, preprint.
     DOI: 10.26434/chemrxiv.8326202.v1
   for GFN-FF:
   * S. Spicher and S. Grimme, Angew. Chem. Int. Ed., 2020, 59, 15665-15673.
     DOI: 10.1002/anie.202004239
   
   for ALPB and GBSA implicit solvation:
   * S. Ehlert, M. Stahn, S. Spicher, S. Grimme, J. Chem. Theory Comput.,
     2021, 17, 4250-4261. DOI: 10.1021/acs.jctc.1c00471
   
   for ddCOSMO and CPCM-X implicit solvation:
   * M. Stahn, S. Ehlert, S. Grimme, J. Phys. Chem. A,
     2023, XX, XXXX-XXXX. DOI: 10.1021/acs.jpca.3c04382
   
   for DFT-D4:
   * E. Caldeweyher, C. Bannwarth and S. Grimme, J. Chem. Phys., 2017,
     147, 034112. DOI: 10.1063/1.4993215
   * E. Caldeweyher, S. Ehlert, A. Hansen, H. Neugebauer, S. Spicher,
     C. Bannwarth and S. Grimme, J. Chem. Phys., 2019, 150, 154122.
     DOI: 10.1063/1.5090222
   * E. Caldeweyher, J.-M. Mewes, S. Ehlert and S. Grimme, Phys. Chem. Chem. Phys.
     2020, 22, 8499-8512. DOI: 10.1039/D0CP00502A
   
   for sTDA-xTB:
   * S. Grimme and C. Bannwarth, J. Chem. Phys., 2016, 145, 054103.
     DOI: 10.1063/1.4959605
   
   in the mass-spec context:
   * V. Asgeirsson, C. Bauer and S. Grimme, Chem. Sci., 2017, 8, 4879.
     DOI: 10.1039/c7sc00601b
   * J. Koopman and S. Grimme, ACS Omega 2019, 4, 12, 15120-15133.
     DOI: 10.1021/acsomega.9b02011
   
   for metadynamics refer to:
   * S. Grimme, J. Chem. Theory Comput., 2019, 155, 2847-2862
     DOI: 10.1021/acs.jctc.9b00143
   
   for SPH calculations refer to:
   * S. Spicher and S. Grimme, J. Chem. Theory Comput., 2021, 17, 1701-1714
     DOI: 10.1021/acs.jctc.0c01306
   
   for ONIOM refer to:
   * C. Plett, A. Katbashev, S. Ehlert, S. Grimme, M. Bursch,
     Phys. Chem. Chem. Phys., 2023, 25, 17860-17868. DOI: 10.1039/D3CP02178E
   
   for DIPRO refer to:
   * J. Kohn, N. Gildemeister, S. Grimme, D. Fazzi, A. Hansen,
     J. Chem. Phys., 2023, just accepted.
   
   for PTB refer to:
   * S. Grimme, M. Mueller, A. Hansen, J. Chem. Phys., 2023, 158, 124111.
     DOI: 10.1063/5.0137838
   
   with help from (in alphabetical order)
   P. Atkinson, C. Bannwarth, F. Bohle, G. Brandenburg, E. Caldeweyher
   M. Checinski, S. Dohm, S. Ehlert, S. Ehrlich, I. Gerasimov, C. Hölzer
   A. Katbashev, J. Kohn, J. Koopman, C. Lavigne, S. Lehtola, F. März, M. Müller,
   F. Musil, H. Neugebauer, J. Pisarek, C. Plett, P. Pracht, F. Pultar,
   J. Seibert, P. Shushkov, S. Spicher, M. Stahn, M. Steiner, T. Strunk,
   J. Stückrath, T. Rose, and J. Unsleber
   
 * started run on 2025/04/03 at 17:02:04.701     
   ID    Z sym.   atoms
    1    6 C      1-10
    2    8 O      11
    3    1 H      12-33

           -------------------------------------------------
          |                Calculation Setup                |
           -------------------------------------------------

          program call               : /srv/scratch/z5358697/.xtb/bin/xtb gas.coord --gfn2 --sp --chrg 0 --norestart --parallel 1
          hostname                   : k140
          coordinate file            : gas.coord
          omp threads                :                     1


           -------------------------------------------------
          |                 G F N 2 - x T B                 |
           -------------------------------------------------

        Reference                      10.1021/acs.jctc.8b01176
      * Hamiltonian:
        H0-scaling (s, p, d)           1.850000    2.230000    2.230000
        zeta-weighting                 0.500000
      * Dispersion:
        s8                             2.700000
        a1                             0.520000
        a2                             5.000000
        s9                             5.000000
      * Repulsion:
        kExp                           1.500000    1.000000
        rExp                           1.000000
      * Coulomb:
        alpha                          2.000000
        third order                    shell-resolved
        anisotropic                    true
        a3                             3.000000
        a5                             4.000000
        cn-shift                       1.200000
        cn-exp                         4.000000
        max-rad                        5.000000


          ...................................................
          :                      SETUP                      :
          :.................................................:
          :  # basis functions                  66          :
          :  # atomic orbitals                  66          :
          :  # shells                           44          :
          :  # electrons                        68          :
          :  max. iterations                   250          :
          :  Hamiltonian                  GFN2-xTB          :
          :  restarted?                      false          :
          :  GBSA solvation                  false          :
          :  PC potential                    false          :
          :  electronic temp.          300.0000000     K    :
          :  accuracy                    1.0000000          :
          :  -> integral cutoff          0.2500000E+02      :
          :  -> integral neglect         0.1000000E-07      :
          :  -> SCF convergence          0.1000000E-05 Eh   :
          :  -> wf. convergence          0.1000000E-03 e    :
          :  Broyden damping             0.4000000          :
          :  net charge                          0          :
          :  unpaired electrons                  0          :
          ...................................................

 iter      E             dE          RMSdq      gap      omega  full diag
   1    -37.1209383 -0.371209E+02  0.288E+00   12.21       0.0  T
   2    -37.2000275 -0.790893E-01  0.158E+00   11.86       1.0  T
   3    -37.2012739 -0.124632E-02  0.741E-01   12.04       1.0  T
   4    -37.2015481 -0.274227E-03  0.960E-02   12.20       1.0  T
   5    -37.2015801 -0.320556E-04  0.552E-02   12.20       1.0  T
   6    -37.2015818 -0.171080E-05  0.584E-03   12.20       3.0  T
   7    -37.2015820 -0.204469E-06  0.307E-03   12.20       5.7  T
   8    -37.2015821 -0.148573E-07  0.770E-04   12.20      22.6  T
   9    -37.2015821 -0.116142E-08  0.309E-04   12.20      56.3  T

   *** convergence criteria satisfied after 9 iterations ***

         #    Occupation            Energy/Eh            Energy/eV
      -------------------------------------------------------------
         1        2.0000           -0.6840664             -18.6144
       ...           ...                  ...                  ...
        28        2.0000           -0.4320410             -11.7564
        29        2.0000           -0.4292966             -11.6818
        30        2.0000           -0.4221646             -11.4877
        31        2.0000           -0.4201361             -11.4325
        32        2.0000           -0.4169050             -11.3446
        33        2.0000           -0.4124304             -11.2228
        34        2.0000           -0.4047262             -11.0132 (HOMO)
        35                          0.0434822               1.1832 (LUMO)
        36                          0.0595845               1.6214
        37                          0.0803536               2.1865
        38                          0.0987248               2.6864
        39                          0.1053776               2.8675
       ...                                ...                  ...
        66                          0.3217172               8.7544
      -------------------------------------------------------------
                  HL-Gap            0.4482085 Eh           12.1964 eV
             Fermi-level           -0.1806220 Eh           -4.9150 eV

 SCC (total)                   0 d,  0 h,  0 min,  0.035 sec
 SCC setup                      ...        0 min,  0.000 sec (  0.582%)
 Dispersion                     ...        0 min,  0.000 sec (  0.625%)
 classical contributions        ...        0 min,  0.000 sec (  0.119%)
 integral evaluation            ...        0 min,  0.004 sec ( 12.039%)
 iterations                     ...        0 min,  0.020 sec ( 59.303%)
 molecular gradient             ...        0 min,  0.009 sec ( 26.863%)
 printout                       ...        0 min,  0.000 sec (  0.437%)

         :::::::::::::::::::::::::::::::::::::::::::::::::::::
         ::                     SUMMARY                     ::
         :::::::::::::::::::::::::::::::::::::::::::::::::::::
         :: total energy             -36.707549398678 Eh    ::
         :: gradient norm              0.005684902450 Eh/a0 ::
         :: HOMO-LUMO gap             12.196372734794 eV    ::
         ::.................................................::
         :: SCC energy               -37.201591253002 Eh    ::
         :: -> isotropic ES            0.029238496152 Eh    ::
         :: -> anisotropic ES          0.009788493507 Eh    ::
         :: -> anisotropic XC          0.016849028947 Eh    ::
         :: -> dispersion             -0.021201387050 Eh    ::
         :: repulsion energy           0.494041854324 Eh    ::
         :: add. restraining           0.000000000000 Eh    ::
         :: total charge               0.000000000000 e     ::
         :::::::::::::::::::::::::::::::::::::::::::::::::::::

           -------------------------------------------------
          |                Property Printout                |
           -------------------------------------------------

    * Orbital Energies and Occupations

         #    Occupation            Energy/Eh            Energy/eV
      -------------------------------------------------------------
         1        2.0000           -0.6840664             -18.6144
       ...           ...                  ...                  ...
        22        2.0000           -0.4673200             -12.7164
        23        2.0000           -0.4562429             -12.4150
        24        2.0000           -0.4510277             -12.2731
        25        2.0000           -0.4496280             -12.2350
        26        2.0000           -0.4430964             -12.0573
        27        2.0000           -0.4343636             -11.8196
        28        2.0000           -0.4320410             -11.7564
        29        2.0000           -0.4292966             -11.6818
        30        2.0000           -0.4221646             -11.4877
        31        2.0000           -0.4201361             -11.4325
        32        2.0000           -0.4169050             -11.3446
        33        2.0000           -0.4124304             -11.2228
        34        2.0000           -0.4047262             -11.0132 (HOMO)
        35                          0.0434822               1.1832 (LUMO)
        36                          0.0595845               1.6214
        37                          0.0803536               2.1865
        38                          0.0987248               2.6864
        39                          0.1053776               2.8675
        40                          0.1090846               2.9683
        41                          0.1188250               3.2334
        42                          0.1295293               3.5247
        43                          0.1302105               3.5432
        44                          0.1362693               3.7081
        45                          0.1446549               3.9363
       ...                                ...                  ...
        66                          0.3217172               8.7544
      -------------------------------------------------------------
                  HL-Gap            0.4482085 Eh           12.1964 eV
             Fermi-level           -0.1806220 Eh           -4.9150 eV

     #   Z          covCN         q      C6AA      α(0)
     1   6 C        3.752    -0.102    22.509     6.766
     2   6 C        3.800    -0.053    21.520     6.605
     3   6 C        3.802    -0.059    21.638     6.623
     4   6 C        3.801    -0.058    21.617     6.620
     5   6 C        3.802    -0.058    21.617     6.620
     6   6 C        3.802    -0.059    21.630     6.621
     7   6 C        3.803    -0.059    21.625     6.621
     8   6 C        3.803    -0.059    21.640     6.623
     9   6 C        3.801    -0.069    21.813     6.650
    10   6 C        3.674     0.079    19.482     6.325
    11   8 O        1.654    -0.442    21.677     6.285
    12   1 H        0.925     0.032     2.560     2.502
    13   1 H        0.925     0.032     2.563     2.504
    14   1 H        0.925     0.033     2.549     2.497
    15   1 H        0.924     0.028     2.619     2.531
    16   1 H        0.924     0.031     2.565     2.505
    17   1 H        0.924     0.033     2.551     2.498
    18   1 H        0.924     0.028     2.609     2.526
    19   1 H        0.924     0.028     2.613     2.528
    20   1 H        0.924     0.029     2.606     2.524
    21   1 H        0.924     0.027     2.629     2.536
    22   1 H        0.924     0.031     2.576     2.510
    23   1 H        0.924     0.030     2.589     2.516
    24   1 H        0.924     0.034     2.527     2.486
    25   1 H        0.924     0.027     2.626     2.534
    26   1 H        0.924     0.027     2.624     2.533
    27   1 H        0.924     0.033     2.547     2.496
    28   1 H        0.924     0.044     2.391     2.418
    29   1 H        0.924     0.032     2.558     2.501
    30   1 H        0.924     0.031     2.569     2.506
    31   1 H        0.923     0.015     2.815     2.624
    32   1 H        0.924     0.048     2.342     2.393
    33   1 H        0.805     0.285     0.769     1.378

 Mol. C6AA /au·bohr⁶  :       7297.013705
 Mol. C8AA /au·bohr⁸  :     151940.475401
 Mol. α(0) /au        :        126.402343


Wiberg/Mayer (AO) data.
largest (>0.10) Wiberg bond orders for each atom

 ---------------------------------------------------------------------------
     #   Z sym  total        # sym  WBO       # sym  WBO       # sym  WBO
 ---------------------------------------------------------------------------
     1   6 C    3.997 --     2 C    1.019    14 H    0.988    12 H    0.988
                            13 H    0.988
     2   6 C    3.998 --     1 C    1.019     3 C    1.009    15 H    0.979
                            16 H    0.977
     3   6 C    3.997 --     2 C    1.009     4 C    1.007    18 H    0.977
                            17 H    0.976
     4   6 C    3.997 --     3 C    1.007     5 C    1.007    20 H    0.978
                            19 H    0.977
     5   6 C    3.997 --     6 C    1.008     4 C    1.007    21 H    0.977
                            22 H    0.976
     6   6 C    3.997 --     5 C    1.008     7 C    1.007    23 H    0.977
                            24 H    0.975
     7   6 C    3.998 --     8 C    1.007     6 C    1.007    25 H    0.978
                            26 H    0.977
     8   6 C    3.996 --     9 C    1.008     7 C    1.007    27 H    0.977
                            28 H    0.976
     9   6 C    3.997 --     8 C    1.008    10 C    0.997    29 H    0.976
                            30 H    0.975
    10   6 C    3.956 --    11 O    0.999     9 C    0.997    32 H    0.972
                            31 H    0.971
    11   8 O    1.961 --    10 C    0.999    33 H    0.904
    12   1 H    0.999 --     1 C    0.988
    13   1 H    0.999 --     1 C    0.988
    14   1 H    0.999 --     1 C    0.988
    15   1 H    0.999 --     2 C    0.979
    16   1 H    0.999 --     2 C    0.977
    17   1 H    0.999 --     3 C    0.976
    18   1 H    0.999 --     3 C    0.977
    19   1 H    0.999 --     4 C    0.977
    20   1 H    0.999 --     4 C    0.978
    21   1 H    0.999 --     5 C    0.977
    22   1 H    0.999 --     5 C    0.976
    23   1 H    0.999 --     6 C    0.977
    24   1 H    0.999 --     6 C    0.975
    25   1 H    0.999 --     7 C    0.978
    26   1 H    0.999 --     7 C    0.977
    27   1 H    0.999 --     8 C    0.977
    28   1 H    0.998 --     8 C    0.976
    29   1 H    0.999 --     9 C    0.976
    30   1 H    0.999 --     9 C    0.975
    31   1 H    0.999 --    10 C    0.971
    32   1 H    0.998 --    10 C    0.972
    33   1 H    0.919 --    11 O    0.904
 ---------------------------------------------------------------------------

Topologies differ in total number of bonds
Writing topology from bond orders to xtbtopo.mol

molecular dipole:
                 x           y           z       tot (Debye)
 q only:        0.078      -0.023      -0.500
   full:        0.032      -0.089      -0.725       1.858
molecular quadrupole (traceless):
                xx          xy          yy          xz          yz          zz
 q only:       -0.537       0.133       2.888       6.586       1.710      -2.350
  q+dip:       -0.640       1.010       4.603       8.884       3.465      -3.963
   full:       -0.359       0.961       4.286       9.108       2.970      -3.927


           -------------------------------------------------
          | TOTAL ENERGY              -36.707549398678 Eh   |
          | GRADIENT NORM               0.005684902450 Eh/α |
          | HOMO-LUMO GAP              12.196372734794 eV   |
           -------------------------------------------------

------------------------------------------------------------------------
 * finished run on 2025/04/03 at 17:02:04.776     
------------------------------------------------------------------------
 total:
 * wall-time:     0 d,  0 h,  0 min,  0.074 sec
 *  cpu-time:     0 d,  0 h,  0 min,  0.034 sec
 * ratio c/w:     0.463 speedup
 SCF:
 * wall-time:     0 d,  0 h,  0 min,  0.035 sec
 *  cpu-time:     0 d,  0 h,  0 min,  0.024 sec
 * ratio c/w:     0.684 speedup

