      -----------------------------------------------------------      
     |                   =====================                   |     
     |                           x T B                           |     
     |                   =====================                   |     
     |                         S. Grimme                         |     
     |          Mulliken Center for Theoretical Chemistry        |     
     |                    University of Bonn                     |     
      -----------------------------------------------------------      

   * xtb version 6.7.1 (edcfbbe) compiled by 'albert@albert-system' on 2024-07-22

   xtb is free software: you can redistribute it and/or modify it under
   the terms of the GNU Lesser General Public License as published by
   the Free Software Foundation, either version 3 of the License, or
   (at your option) any later version.
   
   xtb is distributed in the hope that it will be useful,
   but WITHOUT ANY WARRANTY; without even the implied warranty of
   MERCHANTABILITY or FITNESS FOR A PARTICULAR PURPOSE.  See the
   GNU Lesser General Public License for more details.
   
   Cite this work as:
   * C. Bannwarth, E. Caldeweyher, S. Ehlert, A. Hansen, P. Pracht,
     J. Seibert, S. Spicher, S. Grimme, WIREs Comput. Mol. Sci., 2020, 11,
     e01493. DOI: 10.1002/wcms.1493
   
   for GFN2-xTB:
   * C. Bannwarth, S. Ehlert and S. Grimme., J. Chem. Theory Comput., 2019,
     15, 1652-1671. DOI: 10.1021/acs.jctc.8b01176
   for GFN1-xTB:
   * S. Grimme, C. Bannwarth, P. Shushkov, J. Chem. Theory Comput., 2017,
     13, 1989-2009. DOI: 10.1021/acs.jctc.7b00118
   for GFN0-xTB:
   * P. Pracht, E. Caldeweyher, S. Ehlert, S. Grimme, ChemRxiv, 2019, preprint.
     DOI: 10.26434/chemrxiv.8326202.v1
   for GFN-FF:
   * S. Spicher and S. Grimme, Angew. Chem. Int. Ed., 2020, 59, 15665-15673.
     DOI: 10.1002/anie.202004239
   
   for ALPB and GBSA implicit solvation:
   * S. Ehlert, M. Stahn, S. Spicher, S. Grimme, J. Chem. Theory Comput.,
     2021, 17, 4250-4261. DOI: 10.1021/acs.jctc.1c00471
   
   for ddCOSMO and CPCM-X implicit solvation:
   * M. Stahn, S. Ehlert, S. Grimme, J. Phys. Chem. A,
     2023, XX, XXXX-XXXX. DOI: 10.1021/acs.jpca.3c04382
   
   for DFT-D4:
   * E. Caldeweyher, C. Bannwarth and S. Grimme, J. Chem. Phys., 2017,
     147, 034112. DOI: 10.1063/1.4993215
   * E. Caldeweyher, S. Ehlert, A. Hansen, H. Neugebauer, S. Spicher,
     C. Bannwarth and S. Grimme, J. Chem. Phys., 2019, 150, 154122.
     DOI: 10.1063/1.5090222
   * E. Caldeweyher, J.-M. Mewes, S. Ehlert and S. Grimme, Phys. Chem. Chem. Phys.
     2020, 22, 8499-8512. DOI: 10.1039/D0CP00502A
   
   for sTDA-xTB:
   * S. Grimme and C. Bannwarth, J. Chem. Phys., 2016, 145, 054103.
     DOI: 10.1063/1.4959605
   
   in the mass-spec context:
   * V. Asgeirsson, C. Bauer and S. Grimme, Chem. Sci., 2017, 8, 4879.
     DOI: 10.1039/c7sc00601b
   * J. Koopman and S. Grimme, ACS Omega 2019, 4, 12, 15120-15133.
     DOI: 10.1021/acsomega.9b02011
   
   for metadynamics refer to:
   * S. Grimme, J. Chem. Theory Comput., 2019, 155, 2847-2862
     DOI: 10.1021/acs.jctc.9b00143
   
   for SPH calculations refer to:
   * S. Spicher and S. Grimme, J. Chem. Theory Comput., 2021, 17, 1701-1714
     DOI: 10.1021/acs.jctc.0c01306
   
   for ONIOM refer to:
   * C. Plett, A. Katbashev, S. Ehlert, S. Grimme, M. Bursch,
     Phys. Chem. Chem. Phys., 2023, 25, 17860-17868. DOI: 10.1039/D3CP02178E
   
   for DIPRO refer to:
   * J. Kohn, N. Gildemeister, S. Grimme, D. Fazzi, A. Hansen,
     J. Chem. Phys., 2023, just accepted.
   
   for PTB refer to:
   * S. Grimme, M. Mueller, A. Hansen, J. Chem. Phys., 2023, 158, 124111.
     DOI: 10.1063/5.0137838
   
   with help from (in alphabetical order)
   P. Atkinson, C. Bannwarth, F. Bohle, G. Brandenburg, E. Caldeweyher
   M. Checinski, S. Dohm, S. Ehlert, S. Ehrlich, I. Gerasimov, C. Hölzer
   A. Katbashev, J. Kohn, J. Koopman, C. Lavigne, S. Lehtola, F. März, M. Müller,
   F. Musil, H. Neugebauer, J. Pisarek, C. Plett, P. Pracht, F. Pultar,
   J. Seibert, P. Shushkov, S. Spicher, M. Stahn, M. Steiner, T. Strunk,
   J. Stückrath, T. Rose, and J. Unsleber
   
 * started run on 2025/04/03 at 17:02:04.816     
   ID    Z sym.   atoms
    1    6 C      1-10
    2    8 O      11
    3    1 H      12-33

           -------------------------------------------------
          |                Calculation Setup                |
           -------------------------------------------------

          program call               : /srv/scratch/z5358697/.xtb/bin/xtb solv.coord --gfn2 --sp --chrg 0 --norestart --parallel 1 --alpb water reference -I xtb_sp-xcontrol-inp
          hostname                   : k140
          coordinate file            : solv.coord
          omp threads                :                     1


           -------------------------------------------------
          |                 G F N 2 - x T B                 |
           -------------------------------------------------

        Reference                      10.1021/acs.jctc.8b01176
      * Hamiltonian:
        H0-scaling (s, p, d)           1.850000    2.230000    2.230000
        zeta-weighting                 0.500000
      * Dispersion:
        s8                             2.700000
        a1                             0.520000
        a2                             5.000000
        s9                             5.000000
      * Repulsion:
        kExp                           1.500000    1.000000
        rExp                           1.000000
      * Coulomb:
        alpha                          2.000000
        third order                    shell-resolved
        anisotropic                    true
        a3                             3.000000
        a5                             4.000000
        cn-shift                       1.200000
        cn-exp                         4.000000
        max-rad                        5.000000

      * Solvation model:               ALPB
        Solvent                        water
        Parameter file                 internal GFN2-xTB/ALPB
        Dielectric constant                8.0200E+01
        Reference state                gsolv=reference [X=1]
        Free energy shift                  2.8945E-03 Eh       1.8164E+00 kcal/mol
        Temperature                        2.9815E+02 K
        Density                            1.0000E+00 kg/L
        Solvent mass                       1.8000E+01 g/mol
        Interaction kernel             P16
        Born radius scaling (c1)           1.4744E+00
        Born radii integrator          GBOBC
        Born offset                        0.0000E+00 a0       0.0000E+00 AA
        H-bond correction              true
        Ion screening                  false
        Surface tension                    1.0000E-05 Eh       1.5569E+01 dyn/cm
        Grid points                               974 per atom

          ...................................................
          :                      SETUP                      :
          :.................................................:
          :  # basis functions                  66          :
          :  # atomic orbitals                  66          :
          :  # shells                           44          :
          :  # electrons                        68          :
          :  max. iterations                   250          :
          :  Hamiltonian                  GFN2-xTB          :
          :  restarted?                      false          :
          :  GBSA solvation                   true          :
          :  PC potential                    false          :
          :  electronic temp.          300.0000000     K    :
          :  accuracy                    1.0000000          :
          :  -> integral cutoff          0.2500000E+02      :
          :  -> integral neglect         0.1000000E-07      :
          :  -> SCF convergence          0.1000000E-05 Eh   :
          :  -> wf. convergence          0.1000000E-03 e    :
          :  Broyden damping             0.4000000          :
          :  net charge                          0          :
          :  unpaired electrons                  0          :
          ...................................................

 iter      E             dE          RMSdq      gap      omega  full diag
   1    -37.1472936 -0.371473E+02  0.290E+00   12.35       0.0  T
   2    -37.2051326 -0.578391E-01  0.157E+00   12.20       1.0  T
   3    -37.2068478 -0.171512E-02  0.630E-01   12.16       1.0  T
   4    -37.2071223 -0.274582E-03  0.934E-02   12.23       1.0  T
   5    -37.2071386 -0.162925E-04  0.531E-02   12.24       1.0  T
   6    -37.2071414 -0.276342E-05  0.747E-03   12.25       2.3  T
   7    -37.2071417 -0.259866E-06  0.403E-03   12.25       4.3  T
   8    -37.2071417 -0.584683E-07  0.169E-03   12.25      10.3  T
   9    -37.2071417 -0.941308E-08  0.543E-04   12.25      32.1  T
  10    -37.2071417 -0.157200E-08  0.144E-04   12.25     121.0  T

   *** convergence criteria satisfied after 10 iterations ***

         #    Occupation            Energy/Eh            Energy/eV
      -------------------------------------------------------------
         1        2.0000           -0.6869106             -18.6918
       ...           ...                  ...                  ...
        28        2.0000           -0.4302435             -11.7075
        29        2.0000           -0.4282053             -11.6521
        30        2.0000           -0.4203632             -11.4387
        31        2.0000           -0.4188702             -11.3980
        32        2.0000           -0.4155615             -11.3080
        33        2.0000           -0.4110622             -11.1856
        34        2.0000           -0.4044394             -11.0054 (HOMO)
        35                          0.0456272               1.2416 (LUMO)
        36                          0.0606804               1.6512
        37                          0.0814690               2.2169
        38                          0.1001133               2.7242
        39                          0.1082837               2.9466
       ...                                ...                  ...
        66                          0.3234896               8.8026
      -------------------------------------------------------------
                  HL-Gap            0.4500666 Eh           12.2469 eV
             Fermi-level           -0.1794061 Eh           -4.8819 eV

 SCC (total)                   0 d,  0 h,  0 min,  0.034 sec
 SCC setup                      ...        0 min,  0.002 sec (  5.162%)
 Dispersion                     ...        0 min,  0.000 sec (  0.568%)
 classical contributions        ...        0 min,  0.000 sec (  0.106%)
 integral evaluation            ...        0 min,  0.002 sec (  7.054%)
 iterations                     ...        0 min,  0.021 sec ( 63.552%)
 molecular gradient             ...        0 min,  0.008 sec ( 23.149%)
 printout                       ...        0 min,  0.000 sec (  0.375%)

         :::::::::::::::::::::::::::::::::::::::::::::::::::::
         ::                     SUMMARY                     ::
         :::::::::::::::::::::::::::::::::::::::::::::::::::::
         :: total energy             -36.713109065670 Eh    ::
         :: total w/o Gsasa/hb       -36.710366231087 Eh    ::
         :: gradient norm              0.000169681120 Eh/a0 ::
         :: HOMO-LUMO gap             12.246934887059 eV    ::
         ::.................................................::
         :: SCC energy               -37.207150919994 Eh    ::
         :: -> isotropic ES            0.038250727643 Eh    ::
         :: -> anisotropic ES          0.008904023659 Eh    ::
         :: -> anisotropic XC          0.017075134691 Eh    ::
         :: -> dispersion             -0.021142105555 Eh    ::
         :: -> Gsolv                  -0.007361154939 Eh    ::
         ::    -> Gelec               -0.004618320356 Eh    ::
         ::    -> Gsasa                0.000072366344 Eh    ::
         ::    -> Ghb                 -0.005709750088 Eh    ::
         ::    -> Gshift               0.002894549160 Eh    ::
         :: repulsion energy           0.494041854324 Eh    ::
         :: add. restraining           0.000000000000 Eh    ::
         :: total charge               0.000000000000 e     ::
         :::::::::::::::::::::::::::::::::::::::::::::::::::::

           -------------------------------------------------
          |                Property Printout                |
           -------------------------------------------------

    * Orbital Energies and Occupations

         #    Occupation            Energy/Eh            Energy/eV
      -------------------------------------------------------------
         1        2.0000           -0.6869106             -18.6918
       ...           ...                  ...                  ...
        22        2.0000           -0.4657287             -12.6731
        23        2.0000           -0.4541521             -12.3581
        24        2.0000           -0.4496662             -12.2360
        25        2.0000           -0.4477678             -12.1844
        26        2.0000           -0.4415718             -12.0158
        27        2.0000           -0.4321665             -11.7598
        28        2.0000           -0.4302435             -11.7075
        29        2.0000           -0.4282053             -11.6521
        30        2.0000           -0.4203632             -11.4387
        31        2.0000           -0.4188702             -11.3980
        32        2.0000           -0.4155615             -11.3080
        33        2.0000           -0.4110622             -11.1856
        34        2.0000           -0.4044394             -11.0054 (HOMO)
        35                          0.0456272               1.2416 (LUMO)
        36                          0.0606804               1.6512
        37                          0.0814690               2.2169
        38                          0.1001133               2.7242
        39                          0.1082837               2.9466
        40                          0.1114186               3.0319
        41                          0.1205892               3.2814
        42                          0.1310823               3.5669
        43                          0.1327754               3.6130
        44                          0.1381052               3.7580
        45                          0.1462440               3.9795
       ...                                ...                  ...
        66                          0.3234896               8.8026
      -------------------------------------------------------------
                  HL-Gap            0.4500666 Eh           12.2469 eV
             Fermi-level           -0.1794061 Eh           -4.8819 eV

     #   Z          covCN         q      C6AA      α(0)
     1   6 C        3.752    -0.110    22.671     6.790
     2   6 C        3.800    -0.057    21.596     6.617
     3   6 C        3.802    -0.063    21.703     6.633
     4   6 C        3.801    -0.063    21.702     6.633
     5   6 C        3.802    -0.062    21.690     6.631
     6   6 C        3.802    -0.061    21.674     6.628
     7   6 C        3.803    -0.063    21.701     6.632
     8   6 C        3.803    -0.061    21.677     6.628
     9   6 C        3.801    -0.075    21.939     6.669
    10   6 C        3.674     0.078    19.495     6.327
    11   8 O        1.654    -0.517    23.257     6.510
    12   1 H        0.925     0.034     2.525     2.485
    13   1 H        0.925     0.036     2.501     2.473
    14   1 H        0.925     0.035     2.513     2.479
    15   1 H        0.924     0.030     2.593     2.518
    16   1 H        0.924     0.033     2.544     2.494
    17   1 H        0.924     0.033     2.546     2.495
    18   1 H        0.924     0.030     2.585     2.515
    19   1 H        0.924     0.031     2.575     2.509
    20   1 H        0.924     0.031     2.572     2.508
    21   1 H        0.924     0.030     2.585     2.514
    22   1 H        0.924     0.033     2.548     2.496
    23   1 H        0.924     0.030     2.583     2.514
    24   1 H        0.924     0.034     2.534     2.489
    25   1 H        0.924     0.031     2.565     2.505
    26   1 H        0.924     0.031     2.576     2.510
    27   1 H        0.924     0.032     2.561     2.503
    28   1 H        0.924     0.040     2.444     2.445
    29   1 H        0.924     0.040     2.444     2.445
    30   1 H        0.924     0.042     2.420     2.433
    31   1 H        0.923     0.021     2.718     2.578
    32   1 H        0.924     0.043     2.406     2.426
    33   1 H        0.805     0.352     0.583     1.199

 Mol. C6AA /au·bohr⁶  :       7283.390889
 Mol. C8AA /au·bohr⁸  :     151976.745562
 Mol. α(0) /au        :        126.230456


Wiberg/Mayer (AO) data.
largest (>0.10) Wiberg bond orders for each atom

 ---------------------------------------------------------------------------
     #   Z sym  total        # sym  WBO       # sym  WBO       # sym  WBO
 ---------------------------------------------------------------------------
     1   6 C    3.997 --     2 C    1.019    14 H    0.988    12 H    0.988
                            13 H    0.987
     2   6 C    3.998 --     1 C    1.019     3 C    1.009    15 H    0.978
                            16 H    0.977
     3   6 C    3.997 --     2 C    1.009     4 C    1.007    18 H    0.977
                            17 H    0.976
     4   6 C    3.997 --     3 C    1.007     5 C    1.007    20 H    0.977
                            19 H    0.977
     5   6 C    3.997 --     6 C    1.008     4 C    1.007    21 H    0.977
                            22 H    0.976
     6   6 C    3.997 --     5 C    1.008     7 C    1.007    23 H    0.977
                            24 H    0.975
     7   6 C    3.997 --     8 C    1.007     6 C    1.007    25 H    0.977
                            26 H    0.977
     8   6 C    3.996 --     9 C    1.008     7 C    1.007    27 H    0.977
                            28 H    0.976
     9   6 C    3.996 --     8 C    1.008    10 C    0.998    29 H    0.976
                            30 H    0.975
    10   6 C    3.953 --     9 C    0.998    11 O    0.994    32 H    0.973
                            31 H    0.971
    11   8 O    1.913 --    10 C    0.994    33 H    0.862
    12   1 H    0.999 --     1 C    0.988
    13   1 H    0.998 --     1 C    0.987
    14   1 H    0.999 --     1 C    0.988
    15   1 H    0.999 --     2 C    0.978
    16   1 H    0.999 --     2 C    0.977
    17   1 H    0.999 --     3 C    0.976
    18   1 H    0.999 --     3 C    0.977
    19   1 H    0.999 --     4 C    0.977
    20   1 H    0.999 --     4 C    0.977
    21   1 H    0.999 --     5 C    0.977
    22   1 H    0.999 --     5 C    0.976
    23   1 H    0.999 --     6 C    0.977
    24   1 H    0.999 --     6 C    0.975
    25   1 H    0.999 --     7 C    0.977
    26   1 H    0.999 --     7 C    0.977
    27   1 H    0.999 --     8 C    0.977
    28   1 H    0.998 --     8 C    0.976
    29   1 H    0.998 --     9 C    0.976
    30   1 H    0.998 --     9 C    0.975
    31   1 H    0.999 --    10 C    0.971
    32   1 H    0.998 --    10 C    0.973
    33   1 H    0.876 --    11 O    0.862
 ---------------------------------------------------------------------------

Topologies differ in total number of bonds
Writing topology from bond orders to xtbtopo.mol

molecular dipole:
                 x           y           z       tot (Debye)
 q only:        0.074      -0.129      -0.667
   full:        0.030      -0.159      -0.827       2.143
molecular quadrupole (traceless):
                xx          xy          yy          xz          yz          zz
 q only:       -0.650       1.241       3.608       8.264       1.743      -2.959
  q+dip:       -0.760       1.740       5.111       9.924       3.508      -4.352
   full:       -0.473       1.691       4.788      10.151       2.997      -4.315


           -------------------------------------------------
          | TOTAL ENERGY              -36.713109065670 Eh   |
          | GRADIENT NORM               0.000169681120 Eh/α |
          | HOMO-LUMO GAP              12.246934887059 eV   |
           -------------------------------------------------

------------------------------------------------------------------------
 * finished run on 2025/04/03 at 17:02:04.894     
------------------------------------------------------------------------
 total:
 * wall-time:     0 d,  0 h,  0 min,  0.077 sec
 *  cpu-time:     0 d,  0 h,  0 min,  0.032 sec
 * ratio c/w:     0.412 speedup
 SCF:
 * wall-time:     0 d,  0 h,  0 min,  0.034 sec
 *  cpu-time:     0 d,  0 h,  0 min,  0.022 sec
 * ratio c/w:     0.643 speedup

