      -----------------------------------------------------------      
     |                   =====================                   |     
     |                           x T B                           |     
     |                   =====================                   |     
     |                         S. Grimme                         |     
     |          Mulliken Center for Theoretical Chemistry        |     
     |                    University of Bonn                     |     
      -----------------------------------------------------------      

   * xtb version 6.7.1 (edcfbbe) compiled by 'albert@albert-system' on 2024-07-22

   xtb is free software: you can redistribute it and/or modify it under
   the terms of the GNU Lesser General Public License as published by
   the Free Software Foundation, either version 3 of the License, or
   (at your option) any later version.
   
   xtb is distributed in the hope that it will be useful,
   but WITHOUT ANY WARRANTY; without even the implied warranty of
   MERCHANTABILITY or FITNESS FOR A PARTICULAR PURPOSE.  See the
   GNU Lesser General Public License for more details.
   
   Cite this work as:
   * C. Bannwarth, E. Caldeweyher, S. Ehlert, A. Hansen, P. Pracht,
     J. Seibert, S. Spicher, S. Grimme, WIREs Comput. Mol. Sci., 2020, 11,
     e01493. DOI: 10.1002/wcms.1493
   
   for GFN2-xTB:
   * C. Bannwarth, S. Ehlert and S. Grimme., J. Chem. Theory Comput., 2019,
     15, 1652-1671. DOI: 10.1021/acs.jctc.8b01176
   for GFN1-xTB:
   * S. Grimme, C. Bannwarth, P. Shushkov, J. Chem. Theory Comput., 2017,
     13, 1989-2009. DOI: 10.1021/acs.jctc.7b00118
   for GFN0-xTB:
   * P. Pracht, E. Caldeweyher, S. Ehlert, S. Grimme, ChemRxiv, 2019, preprint.
     DOI: 10.26434/chemrxiv.8326202.v1
   for GFN-FF:
   * S. Spicher and S. Grimme, Angew. Chem. Int. Ed., 2020, 59, 15665-15673.
     DOI: 10.1002/anie.202004239
   
   for ALPB and GBSA implicit solvation:
   * S. Ehlert, M. Stahn, S. Spicher, S. Grimme, J. Chem. Theory Comput.,
     2021, 17, 4250-4261. DOI: 10.1021/acs.jctc.1c00471
   
   for ddCOSMO and CPCM-X implicit solvation:
   * M. Stahn, S. Ehlert, S. Grimme, J. Phys. Chem. A,
     2023, XX, XXXX-XXXX. DOI: 10.1021/acs.jpca.3c04382
   
   for DFT-D4:
   * E. Caldeweyher, C. Bannwarth and S. Grimme, J. Chem. Phys., 2017,
     147, 034112. DOI: 10.1063/1.4993215
   * E. Caldeweyher, S. Ehlert, A. Hansen, H. Neugebauer, S. Spicher,
     C. Bannwarth and S. Grimme, J. Chem. Phys., 2019, 150, 154122.
     DOI: 10.1063/1.5090222
   * E. Caldeweyher, J.-M. Mewes, S. Ehlert and S. Grimme, Phys. Chem. Chem. Phys.
     2020, 22, 8499-8512. DOI: 10.1039/D0CP00502A
   
   for sTDA-xTB:
   * S. Grimme and C. Bannwarth, J. Chem. Phys., 2016, 145, 054103.
     DOI: 10.1063/1.4959605
   
   in the mass-spec context:
   * V. Asgeirsson, C. Bauer and S. Grimme, Chem. Sci., 2017, 8, 4879.
     DOI: 10.1039/c7sc00601b
   * J. Koopman and S. Grimme, ACS Omega 2019, 4, 12, 15120-15133.
     DOI: 10.1021/acsomega.9b02011
   
   for metadynamics refer to:
   * S. Grimme, J. Chem. Theory Comput., 2019, 155, 2847-2862
     DOI: 10.1021/acs.jctc.9b00143
   
   for SPH calculations refer to:
   * S. Spicher and S. Grimme, J. Chem. Theory Comput., 2021, 17, 1701-1714
     DOI: 10.1021/acs.jctc.0c01306
   
   for ONIOM refer to:
   * C. Plett, A. Katbashev, S. Ehlert, S. Grimme, M. Bursch,
     Phys. Chem. Chem. Phys., 2023, 25, 17860-17868. DOI: 10.1039/D3CP02178E
   
   for DIPRO refer to:
   * J. Kohn, N. Gildemeister, S. Grimme, D. Fazzi, A. Hansen,
     J. Chem. Phys., 2023, just accepted.
   
   for PTB refer to:
   * S. Grimme, M. Mueller, A. Hansen, J. Chem. Phys., 2023, 158, 124111.
     DOI: 10.1063/5.0137838
   
   with help from (in alphabetical order)
   P. Atkinson, C. Bannwarth, F. Bohle, G. Brandenburg, E. Caldeweyher
   M. Checinski, S. Dohm, S. Ehlert, S. Ehrlich, I. Gerasimov, C. Hölzer
   A. Katbashev, J. Kohn, J. Koopman, C. Lavigne, S. Lehtola, F. März, M. Müller,
   F. Musil, H. Neugebauer, J. Pisarek, C. Plett, P. Pracht, F. Pultar,
   J. Seibert, P. Shushkov, S. Spicher, M. Stahn, M. Steiner, T. Strunk,
   J. Stückrath, T. Rose, and J. Unsleber
   
 * started run on 2025/04/03 at 17:02:51.966     
   ID    Z sym.   atoms
    1    6 C      1-10
    2    8 O      11
    3    1 H      12-33

           -------------------------------------------------
          |                Calculation Setup                |
           -------------------------------------------------

          program call               : /srv/scratch/z5358697/.xtb/bin/xtb gas.coord --gfn2 --sp --chrg 0 --norestart --parallel 1
          hostname                   : k140
          coordinate file            : gas.coord
          omp threads                :                     1


           -------------------------------------------------
          |                 G F N 2 - x T B                 |
           -------------------------------------------------

        Reference                      10.1021/acs.jctc.8b01176
      * Hamiltonian:
        H0-scaling (s, p, d)           1.850000    2.230000    2.230000
        zeta-weighting                 0.500000
      * Dispersion:
        s8                             2.700000
        a1                             0.520000
        a2                             5.000000
        s9                             5.000000
      * Repulsion:
        kExp                           1.500000    1.000000
        rExp                           1.000000
      * Coulomb:
        alpha                          2.000000
        third order                    shell-resolved
        anisotropic                    true
        a3                             3.000000
        a5                             4.000000
        cn-shift                       1.200000
        cn-exp                         4.000000
        max-rad                        5.000000


          ...................................................
          :                      SETUP                      :
          :.................................................:
          :  # basis functions                  66          :
          :  # atomic orbitals                  66          :
          :  # shells                           44          :
          :  # electrons                        68          :
          :  max. iterations                   250          :
          :  Hamiltonian                  GFN2-xTB          :
          :  restarted?                      false          :
          :  GBSA solvation                  false          :
          :  PC potential                    false          :
          :  electronic temp.          300.0000000     K    :
          :  accuracy                    1.0000000          :
          :  -> integral cutoff          0.2500000E+02      :
          :  -> integral neglect         0.1000000E-07      :
          :  -> SCF convergence          0.1000000E-05 Eh   :
          :  -> wf. convergence          0.1000000E-03 e    :
          :  Broyden damping             0.4000000          :
          :  net charge                          0          :
          :  unpaired electrons                  0          :
          ...................................................

 iter      E             dE          RMSdq      gap      omega  full diag
   1    -37.1170810 -0.371171E+02  0.286E+00   12.60       0.0  T
   2    -37.1966718 -0.795908E-01  0.154E+00   12.25       1.0  T
   3    -37.1979816 -0.130978E-02  0.729E-01   12.32       1.0  T
   4    -37.1982722 -0.290616E-03  0.101E-01   12.30       1.0  T
   5    -37.1983174 -0.451344E-04  0.571E-02   12.32       1.0  T
   6    -37.1983195 -0.212242E-05  0.642E-03   12.33       2.7  T
   7    -37.1983197 -0.236200E-06  0.322E-03   12.33       5.4  T
   8    -37.1983197 -0.198962E-07  0.980E-04   12.33      17.8  T
   9    -37.1983197 -0.162423E-08  0.368E-04   12.33      47.3  T

   *** convergence criteria satisfied after 9 iterations ***

         #    Occupation            Energy/Eh            Energy/eV
      -------------------------------------------------------------
         1        2.0000           -0.6833332             -18.5944
       ...           ...                  ...                  ...
        28        2.0000           -0.4263530             -11.6017
        29        2.0000           -0.4224924             -11.4966
        30        2.0000           -0.4210910             -11.4585
        31        2.0000           -0.4170610             -11.3488
        32        2.0000           -0.4101814             -11.1616
        33        2.0000           -0.4090639             -11.1312
        34        2.0000           -0.4047266             -11.0132 (HOMO)
        35                          0.0483284               1.3151 (LUMO)
        36                          0.0647918               1.7631
        37                          0.0729490               1.9850
        38                          0.0910681               2.4781
        39                          0.1058752               2.8810
       ...                                ...                  ...
        66                          0.3233704               8.7994
      -------------------------------------------------------------
                  HL-Gap            0.4530550 Eh           12.3283 eV
             Fermi-level           -0.1781991 Eh           -4.8490 eV

 SCC (total)                   0 d,  0 h,  0 min,  0.045 sec
 SCC setup                      ...        0 min,  0.000 sec (  0.395%)
 Dispersion                     ...        0 min,  0.000 sec (  0.458%)
 classical contributions        ...        0 min,  0.000 sec (  0.083%)
 integral evaluation            ...        0 min,  0.003 sec (  6.600%)
 iterations                     ...        0 min,  0.033 sec ( 74.645%)
 molecular gradient             ...        0 min,  0.008 sec ( 17.510%)
 printout                       ...        0 min,  0.000 sec (  0.278%)

         :::::::::::::::::::::::::::::::::::::::::::::::::::::
         ::                     SUMMARY                     ::
         :::::::::::::::::::::::::::::::::::::::::::::::::::::
         :: total energy             -36.704351142004 Eh    ::
         :: gradient norm              0.005017304734 Eh/a0 ::
         :: HOMO-LUMO gap             12.328253733740 eV    ::
         ::.................................................::
         :: SCC energy               -37.198202935728 Eh    ::
         :: -> isotropic ES            0.029218247836 Eh    ::
         :: -> anisotropic ES          0.010102176756 Eh    ::
         :: -> anisotropic XC          0.016575799813 Eh    ::
         :: -> dispersion             -0.021703269562 Eh    ::
         :: repulsion energy           0.493851793724 Eh    ::
         :: add. restraining           0.000000000000 Eh    ::
         :: total charge              -0.000000000000 e     ::
         :::::::::::::::::::::::::::::::::::::::::::::::::::::

           -------------------------------------------------
          |                Property Printout                |
           -------------------------------------------------

    * Orbital Energies and Occupations

         #    Occupation            Energy/Eh            Energy/eV
      -------------------------------------------------------------
         1        2.0000           -0.6833332             -18.5944
       ...           ...                  ...                  ...
        22        2.0000           -0.4641683             -12.6307
        23        2.0000           -0.4566903             -12.4272
        24        2.0000           -0.4506905             -12.2639
        25        2.0000           -0.4447411             -12.1020
        26        2.0000           -0.4422451             -12.0341
        27        2.0000           -0.4366368             -11.8815
        28        2.0000           -0.4263530             -11.6017
        29        2.0000           -0.4224924             -11.4966
        30        2.0000           -0.4210910             -11.4585
        31        2.0000           -0.4170610             -11.3488
        32        2.0000           -0.4101814             -11.1616
        33        2.0000           -0.4090639             -11.1312
        34        2.0000           -0.4047266             -11.0132 (HOMO)
        35                          0.0483284               1.3151 (LUMO)
        36                          0.0647918               1.7631
        37                          0.0729490               1.9850
        38                          0.0910681               2.4781
        39                          0.1058752               2.8810
        40                          0.1146200               3.1190
        41                          0.1206770               3.2838
        42                          0.1297551               3.5308
        43                          0.1328046               3.6138
        44                          0.1446546               3.9363
        45                          0.1464904               3.9862
       ...                                ...                  ...
        66                          0.3233704               8.7994
      -------------------------------------------------------------
                  HL-Gap            0.4530550 Eh           12.3283 eV
             Fermi-level           -0.1781991 Eh           -4.8490 eV

     #   Z          covCN         q      C6AA      α(0)
     1   6 C        3.752    -0.102    22.511     6.766
     2   6 C        3.800    -0.053    21.523     6.605
     3   6 C        3.802    -0.059    21.634     6.622
     4   6 C        3.801    -0.058    21.622     6.620
     5   6 C        3.801    -0.059    21.635     6.622
     6   6 C        3.801    -0.058    21.621     6.620
     7   6 C        3.802    -0.059    21.638     6.623
     8   6 C        3.803    -0.059    21.639     6.623
     9   6 C        3.802    -0.061    21.670     6.628
    10   6 C        3.674     0.088    19.340     6.302
    11   8 O        1.655    -0.441    21.664     6.283
    12   1 H        0.925     0.033     2.550     2.497
    13   1 H        0.925     0.032     2.559     2.501
    14   1 H        0.925     0.032     2.563     2.504
    15   1 H        0.924     0.027     2.623     2.533
    16   1 H        0.924     0.030     2.580     2.512
    17   1 H        0.924     0.029     2.602     2.523
    18   1 H        0.924     0.028     2.613     2.528
    19   1 H        0.924     0.032     2.561     2.503
    20   1 H        0.924     0.028     2.612     2.528
    21   1 H        0.925     0.034     2.534     2.489
    22   1 H        0.924     0.028     2.615     2.529
    23   1 H        0.924     0.028     2.617     2.530
    24   1 H        0.924     0.030     2.581     2.512
    25   1 H        0.924     0.030     2.587     2.515
    26   1 H        0.924     0.029     2.600     2.522
    27   1 H        0.924     0.049     2.332     2.388
    28   1 H        0.924     0.033     2.543     2.494
    29   1 H        0.924     0.049     2.338     2.391
    30   1 H        0.924     0.030     2.585     2.514
    31   1 H        0.923     0.015     2.810     2.622
    32   1 H        0.923     0.013     2.835     2.633
    33   1 H        0.805     0.282     0.777     1.385

 Mol. C6AA /au·bohr⁶  :       7303.416186
 Mol. C8AA /au·bohr⁸  :     151998.347297
 Mol. α(0) /au        :        126.465970


Wiberg/Mayer (AO) data.
largest (>0.10) Wiberg bond orders for each atom

 ---------------------------------------------------------------------------
     #   Z sym  total        # sym  WBO       # sym  WBO       # sym  WBO
 ---------------------------------------------------------------------------
     1   6 C    3.997 --     2 C    1.019    12 H    0.988    13 H    0.988
                            14 H    0.988
     2   6 C    3.998 --     1 C    1.019     3 C    1.009    15 H    0.979
                            16 H    0.977
     3   6 C    3.997 --     2 C    1.009     4 C    1.006    18 H    0.977
                            17 H    0.977
     4   6 C    3.998 --     5 C    1.009     3 C    1.006    20 H    0.977
                            19 H    0.976
     5   6 C    3.998 --     4 C    1.009     6 C    1.007    22 H    0.977
                            21 H    0.974
     6   6 C    3.997 --     7 C    1.007     5 C    1.007    24 H    0.978
                            23 H    0.977
     7   6 C    3.998 --     8 C    1.008     6 C    1.007    26 H    0.977
                            25 H    0.976
     8   6 C    3.996 --     7 C    1.008     9 C    1.007    27 H    0.976
                            28 H    0.975
     9   6 C    3.996 --     8 C    1.007    10 C    1.004    30 H    0.977
                            29 H    0.975
    10   6 C    3.957 --     9 C    1.004    11 O    0.993    32 H    0.972
                            31 H    0.972
    11   8 O    1.951 --    10 C    0.993    33 H    0.907
    12   1 H    0.999 --     1 C    0.988
    13   1 H    0.999 --     1 C    0.988
    14   1 H    0.999 --     1 C    0.988
    15   1 H    0.999 --     2 C    0.979
    16   1 H    0.999 --     2 C    0.977
    17   1 H    0.999 --     3 C    0.977
    18   1 H    0.999 --     3 C    0.977
    19   1 H    0.999 --     4 C    0.976
    20   1 H    0.999 --     4 C    0.977
    21   1 H    0.999 --     5 C    0.974
    22   1 H    0.999 --     5 C    0.977
    23   1 H    0.999 --     6 C    0.977
    24   1 H    0.999 --     6 C    0.978
    25   1 H    0.999 --     7 C    0.976
    26   1 H    0.999 --     7 C    0.977
    27   1 H    0.998 --     8 C    0.976
    28   1 H    0.999 --     8 C    0.975
    29   1 H    0.998 --     9 C    0.975
    30   1 H    0.999 --     9 C    0.977
    31   1 H    1.000 --    10 C    0.972
    32   1 H    0.999 --    10 C    0.972
    33   1 H    0.920 --    11 O    0.907
 ---------------------------------------------------------------------------

Topologies differ in total number of bonds
Writing topology from bond orders to xtbtopo.mol

molecular dipole:
                 x           y           z       tot (Debye)
 q only:        0.061      -0.294      -0.239
   full:        0.011      -0.542      -0.349       1.638
molecular quadrupole (traceless):
                xx          xy          yy          xz          yz          zz
 q only:       -1.988       4.302       2.967       2.442      -0.305      -0.979
  q+dip:       -2.413       7.448       4.011       3.640      -0.064      -1.598
   full:       -2.202       7.449       4.105       3.489      -0.209      -1.903


           -------------------------------------------------
          | TOTAL ENERGY              -36.704351142004 Eh   |
          | GRADIENT NORM               0.005017304734 Eh/α |
          | HOMO-LUMO GAP              12.328253733740 eV   |
           -------------------------------------------------

------------------------------------------------------------------------
 * finished run on 2025/04/03 at 17:02:52.045     
------------------------------------------------------------------------
 total:
 * wall-time:     0 d,  0 h,  0 min,  0.079 sec
 *  cpu-time:     0 d,  0 h,  0 min,  0.029 sec
 * ratio c/w:     0.365 speedup
 SCF:
 * wall-time:     0 d,  0 h,  0 min,  0.045 sec
 *  cpu-time:     0 d,  0 h,  0 min,  0.020 sec
 * ratio c/w:     0.458 speedup

