      -----------------------------------------------------------      
     |                   =====================                   |     
     |                           x T B                           |     
     |                   =====================                   |     
     |                         S. Grimme                         |     
     |          Mulliken Center for Theoretical Chemistry        |     
     |                    University of Bonn                     |     
      -----------------------------------------------------------      

   * xtb version 6.7.1 (edcfbbe) compiled by 'albert@albert-system' on 2024-07-22

   xtb is free software: you can redistribute it and/or modify it under
   the terms of the GNU Lesser General Public License as published by
   the Free Software Foundation, either version 3 of the License, or
   (at your option) any later version.
   
   xtb is distributed in the hope that it will be useful,
   but WITHOUT ANY WARRANTY; without even the implied warranty of
   MERCHANTABILITY or FITNESS FOR A PARTICULAR PURPOSE.  See the
   GNU Lesser General Public License for more details.
   
   Cite this work as:
   * C. Bannwarth, E. Caldeweyher, S. Ehlert, A. Hansen, P. Pracht,
     J. Seibert, S. Spicher, S. Grimme, WIREs Comput. Mol. Sci., 2020, 11,
     e01493. DOI: 10.1002/wcms.1493
   
   for GFN2-xTB:
   * C. Bannwarth, S. Ehlert and S. Grimme., J. Chem. Theory Comput., 2019,
     15, 1652-1671. DOI: 10.1021/acs.jctc.8b01176
   for GFN1-xTB:
   * S. Grimme, C. Bannwarth, P. Shushkov, J. Chem. Theory Comput., 2017,
     13, 1989-2009. DOI: 10.1021/acs.jctc.7b00118
   for GFN0-xTB:
   * P. Pracht, E. Caldeweyher, S. Ehlert, S. Grimme, ChemRxiv, 2019, preprint.
     DOI: 10.26434/chemrxiv.8326202.v1
   for GFN-FF:
   * S. Spicher and S. Grimme, Angew. Chem. Int. Ed., 2020, 59, 15665-15673.
     DOI: 10.1002/anie.202004239
   
   for ALPB and GBSA implicit solvation:
   * S. Ehlert, M. Stahn, S. Spicher, S. Grimme, J. Chem. Theory Comput.,
     2021, 17, 4250-4261. DOI: 10.1021/acs.jctc.1c00471
   
   for ddCOSMO and CPCM-X implicit solvation:
   * M. Stahn, S. Ehlert, S. Grimme, J. Phys. Chem. A,
     2023, XX, XXXX-XXXX. DOI: 10.1021/acs.jpca.3c04382
   
   for DFT-D4:
   * E. Caldeweyher, C. Bannwarth and S. Grimme, J. Chem. Phys., 2017,
     147, 034112. DOI: 10.1063/1.4993215
   * E. Caldeweyher, S. Ehlert, A. Hansen, H. Neugebauer, S. Spicher,
     C. Bannwarth and S. Grimme, J. Chem. Phys., 2019, 150, 154122.
     DOI: 10.1063/1.5090222
   * E. Caldeweyher, J.-M. Mewes, S. Ehlert and S. Grimme, Phys. Chem. Chem. Phys.
     2020, 22, 8499-8512. DOI: 10.1039/D0CP00502A
   
   for sTDA-xTB:
   * S. Grimme and C. Bannwarth, J. Chem. Phys., 2016, 145, 054103.
     DOI: 10.1063/1.4959605
   
   in the mass-spec context:
   * V. Asgeirsson, C. Bauer and S. Grimme, Chem. Sci., 2017, 8, 4879.
     DOI: 10.1039/c7sc00601b
   * J. Koopman and S. Grimme, ACS Omega 2019, 4, 12, 15120-15133.
     DOI: 10.1021/acsomega.9b02011
   
   for metadynamics refer to:
   * S. Grimme, J. Chem. Theory Comput., 2019, 155, 2847-2862
     DOI: 10.1021/acs.jctc.9b00143
   
   for SPH calculations refer to:
   * S. Spicher and S. Grimme, J. Chem. Theory Comput., 2021, 17, 1701-1714
     DOI: 10.1021/acs.jctc.0c01306
   
   for ONIOM refer to:
   * C. Plett, A. Katbashev, S. Ehlert, S. Grimme, M. Bursch,
     Phys. Chem. Chem. Phys., 2023, 25, 17860-17868. DOI: 10.1039/D3CP02178E
   
   for DIPRO refer to:
   * J. Kohn, N. Gildemeister, S. Grimme, D. Fazzi, A. Hansen,
     J. Chem. Phys., 2023, just accepted.
   
   for PTB refer to:
   * S. Grimme, M. Mueller, A. Hansen, J. Chem. Phys., 2023, 158, 124111.
     DOI: 10.1063/5.0137838
   
   with help from (in alphabetical order)
   P. Atkinson, C. Bannwarth, F. Bohle, G. Brandenburg, E. Caldeweyher
   M. Checinski, S. Dohm, S. Ehlert, S. Ehrlich, I. Gerasimov, C. Hölzer
   A. Katbashev, J. Kohn, J. Koopman, C. Lavigne, S. Lehtola, F. März, M. Müller,
   F. Musil, H. Neugebauer, J. Pisarek, C. Plett, P. Pracht, F. Pultar,
   J. Seibert, P. Shushkov, S. Spicher, M. Stahn, M. Steiner, T. Strunk,
   J. Stückrath, T. Rose, and J. Unsleber
   
 * started run on 2025/04/03 at 17:02:52.134     
   ID    Z sym.   atoms
    1    6 C      1-10
    2    8 O      11
    3    1 H      12-33

           -------------------------------------------------
          |                Calculation Setup                |
           -------------------------------------------------

          program call               : /srv/scratch/z5358697/.xtb/bin/xtb solv.coord --gfn2 --sp --chrg 0 --norestart --parallel 1 --alpb water reference -I xtb_sp-xcontrol-inp
          hostname                   : k140
          coordinate file            : solv.coord
          omp threads                :                     1


           -------------------------------------------------
          |                 G F N 2 - x T B                 |
           -------------------------------------------------

        Reference                      10.1021/acs.jctc.8b01176
      * Hamiltonian:
        H0-scaling (s, p, d)           1.850000    2.230000    2.230000
        zeta-weighting                 0.500000
      * Dispersion:
        s8                             2.700000
        a1                             0.520000
        a2                             5.000000
        s9                             5.000000
      * Repulsion:
        kExp                           1.500000    1.000000
        rExp                           1.000000
      * Coulomb:
        alpha                          2.000000
        third order                    shell-resolved
        anisotropic                    true
        a3                             3.000000
        a5                             4.000000
        cn-shift                       1.200000
        cn-exp                         4.000000
        max-rad                        5.000000

      * Solvation model:               ALPB
        Solvent                        water
        Parameter file                 internal GFN2-xTB/ALPB
        Dielectric constant                8.0200E+01
        Reference state                gsolv=reference [X=1]
        Free energy shift                  2.8945E-03 Eh       1.8164E+00 kcal/mol
        Temperature                        2.9815E+02 K
        Density                            1.0000E+00 kg/L
        Solvent mass                       1.8000E+01 g/mol
        Interaction kernel             P16
        Born radius scaling (c1)           1.4744E+00
        Born radii integrator          GBOBC
        Born offset                        0.0000E+00 a0       0.0000E+00 AA
        H-bond correction              true
        Ion screening                  false
        Surface tension                    1.0000E-05 Eh       1.5569E+01 dyn/cm
        Grid points                               974 per atom

          ...................................................
          :                      SETUP                      :
          :.................................................:
          :  # basis functions                  66          :
          :  # atomic orbitals                  66          :
          :  # shells                           44          :
          :  # electrons                        68          :
          :  max. iterations                   250          :
          :  Hamiltonian                  GFN2-xTB          :
          :  restarted?                      false          :
          :  GBSA solvation                   true          :
          :  PC potential                    false          :
          :  electronic temp.          300.0000000     K    :
          :  accuracy                    1.0000000          :
          :  -> integral cutoff          0.2500000E+02      :
          :  -> integral neglect         0.1000000E-07      :
          :  -> SCF convergence          0.1000000E-05 Eh   :
          :  -> wf. convergence          0.1000000E-03 e    :
          :  Broyden damping             0.4000000          :
          :  net charge                          0          :
          :  unpaired electrons                  0          :
          ...................................................

 iter      E             dE          RMSdq      gap      omega  full diag
   1    -37.1445426 -0.371445E+02  0.287E+00   12.48       0.0  T
   2    -37.2026624 -0.581198E-01  0.154E+00   12.43       1.0  T
   3    -37.2044217 -0.175933E-02  0.621E-01   12.40       1.0  T
   4    -37.2047063 -0.284564E-03  0.986E-02   12.41       1.0  T
   5    -37.2047340 -0.276926E-04  0.560E-02   12.42       1.0  T
   6    -37.2047375 -0.349742E-05  0.883E-03   12.42       2.0  T
   7    -37.2047378 -0.346353E-06  0.453E-03   12.42       3.8  T
   8    -37.2047379 -0.765243E-07  0.197E-03   12.42       8.8  T
   9    -37.2047379 -0.119907E-07  0.640E-04   12.42      27.2  T
  10    -37.2047379 -0.205289E-08  0.150E-04   12.42     116.0  T

   *** convergence criteria satisfied after 10 iterations ***

         #    Occupation            Energy/Eh            Energy/eV
      -------------------------------------------------------------
         1        2.0000           -0.6852713             -18.6472
       ...           ...                  ...                  ...
        28        2.0000           -0.4262838             -11.5998
        29        2.0000           -0.4226493             -11.5009
        30        2.0000           -0.4213677             -11.4660
        31        2.0000           -0.4173831             -11.3576
        32        2.0000           -0.4106004             -11.1730
        33        2.0000           -0.4090416             -11.1306
        34        2.0000           -0.4051394             -11.0244 (HOMO)
        35                          0.0514329               1.3996 (LUMO)
        36                          0.0645808               1.7573
        37                          0.0728967               1.9836
        38                          0.0910997               2.4790
        39                          0.1056141               2.8739
       ...                                ...                  ...
        66                          0.3222837               8.7698
      -------------------------------------------------------------
                  HL-Gap            0.4565723 Eh           12.4240 eV
             Fermi-level           -0.1768533 Eh           -4.8124 eV

 SCC (total)                   0 d,  0 h,  0 min,  0.025 sec
 SCC setup                      ...        0 min,  0.002 sec (  7.611%)
 Dispersion                     ...        0 min,  0.000 sec (  0.828%)
 classical contributions        ...        0 min,  0.000 sec (  0.151%)
 integral evaluation            ...        0 min,  0.003 sec ( 10.349%)
 iterations                     ...        0 min,  0.012 sec ( 47.612%)
 molecular gradient             ...        0 min,  0.008 sec ( 32.825%)
 printout                       ...        0 min,  0.000 sec (  0.571%)

         :::::::::::::::::::::::::::::::::::::::::::::::::::::
         ::                     SUMMARY                     ::
         :::::::::::::::::::::::::::::::::::::::::::::::::::::
         :: total energy             -36.710769326682 Eh    ::
         :: total w/o Gsasa/hb       -36.706823952920 Eh    ::
         :: gradient norm              0.000049089060 Eh/a0 ::
         :: HOMO-LUMO gap             12.423965118098 eV    ::
         ::.................................................::
         :: SCC energy               -37.204621120406 Eh    ::
         :: -> isotropic ES            0.038916070088 Eh    ::
         :: -> anisotropic ES          0.009444004751 Eh    ::
         :: -> anisotropic XC          0.016787044879 Eh    ::
         :: -> dispersion             -0.021660862332 Eh    ::
         :: -> Gsolv                  -0.008609411392 Eh    ::
         ::    -> Gelec               -0.004664037629 Eh    ::
         ::    -> Gsasa               -0.000150977813 Eh    ::
         ::    -> Ghb                 -0.006688945110 Eh    ::
         ::    -> Gshift               0.002894549160 Eh    ::
         :: repulsion energy           0.493851793724 Eh    ::
         :: add. restraining           0.000000000000 Eh    ::
         :: total charge               0.000000000000 e     ::
         :::::::::::::::::::::::::::::::::::::::::::::::::::::

           -------------------------------------------------
          |                Property Printout                |
           -------------------------------------------------

    * Orbital Energies and Occupations

         #    Occupation            Energy/Eh            Energy/eV
      -------------------------------------------------------------
         1        2.0000           -0.6852713             -18.6472
       ...           ...                  ...                  ...
        22        2.0000           -0.4642778             -12.6336
        23        2.0000           -0.4561865             -12.4135
        24        2.0000           -0.4504080             -12.2562
        25        2.0000           -0.4451345             -12.1127
        26        2.0000           -0.4416006             -12.0166
        27        2.0000           -0.4366886             -11.8829
        28        2.0000           -0.4262838             -11.5998
        29        2.0000           -0.4226493             -11.5009
        30        2.0000           -0.4213677             -11.4660
        31        2.0000           -0.4173831             -11.3576
        32        2.0000           -0.4106004             -11.1730
        33        2.0000           -0.4090416             -11.1306
        34        2.0000           -0.4051394             -11.0244 (HOMO)
        35                          0.0514329               1.3996 (LUMO)
        36                          0.0645808               1.7573
        37                          0.0728967               1.9836
        38                          0.0910997               2.4790
        39                          0.1056141               2.8739
        40                          0.1140421               3.1032
        41                          0.1205725               3.2809
        42                          0.1301196               3.5407
        43                          0.1350357               3.6745
        44                          0.1452834               3.9534
        45                          0.1472130               4.0059
       ...                                ...                  ...
        66                          0.3222837               8.7698
      -------------------------------------------------------------
                  HL-Gap            0.4565723 Eh           12.4240 eV
             Fermi-level           -0.1768533 Eh           -4.8124 eV

     #   Z          covCN         q      C6AA      α(0)
     1   6 C        3.752    -0.111    22.679     6.791
     2   6 C        3.800    -0.057    21.600     6.617
     3   6 C        3.802    -0.063    21.709     6.634
     4   6 C        3.801    -0.062    21.688     6.630
     5   6 C        3.801    -0.062    21.688     6.630
     6   6 C        3.801    -0.062    21.699     6.632
     7   6 C        3.802    -0.063    21.703     6.633
     8   6 C        3.803    -0.060    21.653     6.625
     9   6 C        3.802    -0.067    21.783     6.645
    10   6 C        3.674     0.084    19.400     6.312
    11   8 O        1.655    -0.521    23.355     6.524
    12   1 H        0.925     0.035     2.510     2.478
    13   1 H        0.925     0.035     2.515     2.480
    14   1 H        0.925     0.036     2.497     2.471
    15   1 H        0.924     0.030     2.592     2.518
    16   1 H        0.924     0.031     2.566     2.505
    17   1 H        0.924     0.030     2.586     2.515
    18   1 H        0.924     0.031     2.574     2.509
    19   1 H        0.924     0.033     2.539     2.492
    20   1 H        0.924     0.031     2.575     2.510
    21   1 H        0.925     0.034     2.534     2.489
    22   1 H        0.924     0.030     2.582     2.513
    23   1 H        0.924     0.031     2.569     2.507
    24   1 H        0.924     0.031     2.568     2.506
    25   1 H        0.924     0.034     2.533     2.489
    26   1 H        0.924     0.030     2.584     2.514
    27   1 H        0.924     0.041     2.432     2.439
    28   1 H        0.924     0.035     2.515     2.480
    29   1 H        0.924     0.045     2.379     2.412
    30   1 H        0.924     0.038     2.472     2.459
    31   1 H        0.923     0.021     2.714     2.576
    32   1 H        0.923     0.019     2.744     2.591
    33   1 H        0.805     0.359     0.567     1.183

 Mol. C6AA /au·bohr⁶  :       7291.318707
 Mol. C8AA /au·bohr⁸  :     152070.816993
 Mol. α(0) /au        :        126.305451


Wiberg/Mayer (AO) data.
largest (>0.10) Wiberg bond orders for each atom

 ---------------------------------------------------------------------------
     #   Z sym  total        # sym  WBO       # sym  WBO       # sym  WBO
 ---------------------------------------------------------------------------
     1   6 C    3.997 --     2 C    1.019    12 H    0.988    13 H    0.988
                            14 H    0.987
     2   6 C    3.998 --     1 C    1.019     3 C    1.009    15 H    0.978
                            16 H    0.977
     3   6 C    3.997 --     2 C    1.009     4 C    1.006    17 H    0.977
                            18 H    0.977
     4   6 C    3.997 --     5 C    1.009     3 C    1.006    20 H    0.977
                            19 H    0.975
     5   6 C    3.997 --     4 C    1.009     6 C    1.007    22 H    0.976
                            21 H    0.974
     6   6 C    3.997 --     7 C    1.007     5 C    1.007    24 H    0.977
                            23 H    0.977
     7   6 C    3.997 --     8 C    1.008     6 C    1.007    26 H    0.977
                            25 H    0.976
     8   6 C    3.996 --     7 C    1.008     9 C    1.008    27 H    0.976
                            28 H    0.975
     9   6 C    3.996 --     8 C    1.008    10 C    1.005    30 H    0.976
                            29 H    0.976
    10   6 C    3.955 --     9 C    1.005    11 O    0.991    32 H    0.972
                            31 H    0.972
    11   8 O    1.901 --    10 C    0.991    33 H    0.858
    12   1 H    0.999 --     1 C    0.988
    13   1 H    0.999 --     1 C    0.988
    14   1 H    0.998 --     1 C    0.987
    15   1 H    0.999 --     2 C    0.978
    16   1 H    0.999 --     2 C    0.977
    17   1 H    0.999 --     3 C    0.977
    18   1 H    0.999 --     3 C    0.977
    19   1 H    0.999 --     4 C    0.975
    20   1 H    0.999 --     4 C    0.977
    21   1 H    0.999 --     5 C    0.974
    22   1 H    0.999 --     5 C    0.976
    23   1 H    0.999 --     6 C    0.977
    24   1 H    0.999 --     6 C    0.977
    25   1 H    0.999 --     7 C    0.976
    26   1 H    0.999 --     7 C    0.977
    27   1 H    0.998 --     8 C    0.976
    28   1 H    0.999 --     8 C    0.975
    29   1 H    0.998 --     9 C    0.976
    30   1 H    0.999 --     9 C    0.976
    31   1 H    1.000 --    10 C    0.972
    32   1 H    0.999 --    10 C    0.972
    33   1 H    0.871 --    11 O    0.858
 ---------------------------------------------------------------------------

Topologies differ in total number of bonds
Writing topology from bond orders to xtbtopo.mol

molecular dipole:
                 x           y           z       tot (Debye)
 q only:        0.041      -0.451      -0.277
   full:       -0.004      -0.640      -0.369       1.878
molecular quadrupole (traceless):
                xx          xy          yy          xz          yz          zz
 q only:       -1.660       6.286       3.497       2.354      -0.661      -1.837
  q+dip:       -2.208       8.740       4.374       3.539      -0.319      -2.166
   full:       -1.989       8.734       4.455       3.382      -0.465      -2.465


           -------------------------------------------------
          | TOTAL ENERGY              -36.710769326682 Eh   |
          | GRADIENT NORM               0.000049089060 Eh/α |
          | HOMO-LUMO GAP              12.423965118098 eV   |
           -------------------------------------------------

------------------------------------------------------------------------
 * finished run on 2025/04/03 at 17:02:52.218     
------------------------------------------------------------------------
 total:
 * wall-time:     0 d,  0 h,  0 min,  0.084 sec
 *  cpu-time:     0 d,  0 h,  0 min,  0.034 sec
 * ratio c/w:     0.410 speedup
 SCF:
 * wall-time:     0 d,  0 h,  0 min,  0.025 sec
 *  cpu-time:     0 d,  0 h,  0 min,  0.023 sec
 * ratio c/w:     0.942 speedup

