      -----------------------------------------------------------      
     |                   =====================                   |     
     |                           x T B                           |     
     |                   =====================                   |     
     |                         S. Grimme                         |     
     |          Mulliken Center for Theoretical Chemistry        |     
     |                    University of Bonn                     |     
      -----------------------------------------------------------      

   * xtb version 6.7.1 (edcfbbe) compiled by 'albert@albert-system' on 2024-07-22

   xtb is free software: you can redistribute it and/or modify it under
   the terms of the GNU Lesser General Public License as published by
   the Free Software Foundation, either version 3 of the License, or
   (at your option) any later version.
   
   xtb is distributed in the hope that it will be useful,
   but WITHOUT ANY WARRANTY; without even the implied warranty of
   MERCHANTABILITY or FITNESS FOR A PARTICULAR PURPOSE.  See the
   GNU Lesser General Public License for more details.
   
   Cite this work as:
   * C. Bannwarth, E. Caldeweyher, S. Ehlert, A. Hansen, P. Pracht,
     J. Seibert, S. Spicher, S. Grimme, WIREs Comput. Mol. Sci., 2020, 11,
     e01493. DOI: 10.1002/wcms.1493
   
   for GFN2-xTB:
   * C. Bannwarth, S. Ehlert and S. Grimme., J. Chem. Theory Comput., 2019,
     15, 1652-1671. DOI: 10.1021/acs.jctc.8b01176
   for GFN1-xTB:
   * S. Grimme, C. Bannwarth, P. Shushkov, J. Chem. Theory Comput., 2017,
     13, 1989-2009. DOI: 10.1021/acs.jctc.7b00118
   for GFN0-xTB:
   * P. Pracht, E. Caldeweyher, S. Ehlert, S. Grimme, ChemRxiv, 2019, preprint.
     DOI: 10.26434/chemrxiv.8326202.v1
   for GFN-FF:
   * S. Spicher and S. Grimme, Angew. Chem. Int. Ed., 2020, 59, 15665-15673.
     DOI: 10.1002/anie.202004239
   
   for ALPB and GBSA implicit solvation:
   * S. Ehlert, M. Stahn, S. Spicher, S. Grimme, J. Chem. Theory Comput.,
     2021, 17, 4250-4261. DOI: 10.1021/acs.jctc.1c00471
   
   for ddCOSMO and CPCM-X implicit solvation:
   * M. Stahn, S. Ehlert, S. Grimme, J. Phys. Chem. A,
     2023, XX, XXXX-XXXX. DOI: 10.1021/acs.jpca.3c04382
   
   for DFT-D4:
   * E. Caldeweyher, C. Bannwarth and S. Grimme, J. Chem. Phys., 2017,
     147, 034112. DOI: 10.1063/1.4993215
   * E. Caldeweyher, S. Ehlert, A. Hansen, H. Neugebauer, S. Spicher,
     C. Bannwarth and S. Grimme, J. Chem. Phys., 2019, 150, 154122.
     DOI: 10.1063/1.5090222
   * E. Caldeweyher, J.-M. Mewes, S. Ehlert and S. Grimme, Phys. Chem. Chem. Phys.
     2020, 22, 8499-8512. DOI: 10.1039/D0CP00502A
   
   for sTDA-xTB:
   * S. Grimme and C. Bannwarth, J. Chem. Phys., 2016, 145, 054103.
     DOI: 10.1063/1.4959605
   
   in the mass-spec context:
   * V. Asgeirsson, C. Bauer and S. Grimme, Chem. Sci., 2017, 8, 4879.
     DOI: 10.1039/c7sc00601b
   * J. Koopman and S. Grimme, ACS Omega 2019, 4, 12, 15120-15133.
     DOI: 10.1021/acsomega.9b02011
   
   for metadynamics refer to:
   * S. Grimme, J. Chem. Theory Comput., 2019, 155, 2847-2862
     DOI: 10.1021/acs.jctc.9b00143
   
   for SPH calculations refer to:
   * S. Spicher and S. Grimme, J. Chem. Theory Comput., 2021, 17, 1701-1714
     DOI: 10.1021/acs.jctc.0c01306
   
   for ONIOM refer to:
   * C. Plett, A. Katbashev, S. Ehlert, S. Grimme, M. Bursch,
     Phys. Chem. Chem. Phys., 2023, 25, 17860-17868. DOI: 10.1039/D3CP02178E
   
   for DIPRO refer to:
   * J. Kohn, N. Gildemeister, S. Grimme, D. Fazzi, A. Hansen,
     J. Chem. Phys., 2023, just accepted.
   
   for PTB refer to:
   * S. Grimme, M. Mueller, A. Hansen, J. Chem. Phys., 2023, 158, 124111.
     DOI: 10.1063/5.0137838
   
   with help from (in alphabetical order)
   P. Atkinson, C. Bannwarth, F. Bohle, G. Brandenburg, E. Caldeweyher
   M. Checinski, S. Dohm, S. Ehlert, S. Ehrlich, I. Gerasimov, C. Hölzer
   A. Katbashev, J. Kohn, J. Koopman, C. Lavigne, S. Lehtola, F. März, M. Müller,
   F. Musil, H. Neugebauer, J. Pisarek, C. Plett, P. Pracht, F. Pultar,
   J. Seibert, P. Shushkov, S. Spicher, M. Stahn, M. Steiner, T. Strunk,
   J. Stückrath, T. Rose, and J. Unsleber
   
 * started run on 2025/04/03 at 17:02:52.318     
   ID    Z sym.   atoms
    1    6 C      1-10
    2    8 O      11
    3    1 H      12-33

           -------------------------------------------------
          |                Calculation Setup                |
           -------------------------------------------------

          program call               : /srv/scratch/z5358697/.xtb/bin/xtb gas.coord --gfn2 --sp --chrg 0 --norestart --parallel 1
          hostname                   : k140
          coordinate file            : gas.coord
          omp threads                :                     1


           -------------------------------------------------
          |                 G F N 2 - x T B                 |
           -------------------------------------------------

        Reference                      10.1021/acs.jctc.8b01176
      * Hamiltonian:
        H0-scaling (s, p, d)           1.850000    2.230000    2.230000
        zeta-weighting                 0.500000
      * Dispersion:
        s8                             2.700000
        a1                             0.520000
        a2                             5.000000
        s9                             5.000000
      * Repulsion:
        kExp                           1.500000    1.000000
        rExp                           1.000000
      * Coulomb:
        alpha                          2.000000
        third order                    shell-resolved
        anisotropic                    true
        a3                             3.000000
        a5                             4.000000
        cn-shift                       1.200000
        cn-exp                         4.000000
        max-rad                        5.000000


          ...................................................
          :                      SETUP                      :
          :.................................................:
          :  # basis functions                  66          :
          :  # atomic orbitals                  66          :
          :  # shells                           44          :
          :  # electrons                        68          :
          :  max. iterations                   250          :
          :  Hamiltonian                  GFN2-xTB          :
          :  restarted?                      false          :
          :  GBSA solvation                  false          :
          :  PC potential                    false          :
          :  electronic temp.          300.0000000     K    :
          :  accuracy                    1.0000000          :
          :  -> integral cutoff          0.2500000E+02      :
          :  -> integral neglect         0.1000000E-07      :
          :  -> SCF convergence          0.1000000E-05 Eh   :
          :  -> wf. convergence          0.1000000E-03 e    :
          :  Broyden damping             0.4000000          :
          :  net charge                          0          :
          :  unpaired electrons                  0          :
          ...................................................

 iter      E             dE          RMSdq      gap      omega  full diag
   1    -37.1195716 -0.371196E+02  0.288E+00   12.47       0.0  T
   2    -37.1982781 -0.787065E-01  0.156E+00   11.97       1.0  T
   3    -37.1995086 -0.123048E-02  0.733E-01   12.14       1.0  T
   4    -37.1997810 -0.272404E-03  0.962E-02   12.34       1.0  T
   5    -37.1998183 -0.373228E-04  0.552E-02   12.33       1.0  T
   6    -37.1998200 -0.173225E-05  0.641E-03   12.33       2.7  T
   7    -37.1998203 -0.223533E-06  0.304E-03   12.33       5.7  T
   8    -37.1998203 -0.132664E-07  0.796E-04   12.33      21.9  T
   9    -37.1998203 -0.106300E-08  0.298E-04   12.33      58.3  T

   *** convergence criteria satisfied after 9 iterations ***

         #    Occupation            Energy/Eh            Energy/eV
      -------------------------------------------------------------
         1        2.0000           -0.6822166             -18.5641
       ...           ...                  ...                  ...
        28        2.0000           -0.4367528             -11.8846
        29        2.0000           -0.4292805             -11.6813
        30        2.0000           -0.4284020             -11.6574
        31        2.0000           -0.4248492             -11.5607
        32        2.0000           -0.4200257             -11.4295
        33        2.0000           -0.4158144             -11.3149
        34        2.0000           -0.4039130             -10.9910 (HOMO)
        35                          0.0493027               1.3416 (LUMO)
        36                          0.0538640               1.4657
        37                          0.0765351               2.0826
        38                          0.0834772               2.2715
        39                          0.0899001               2.4463
       ...                                ...                  ...
        66                          0.3248452               8.8395
      -------------------------------------------------------------
                  HL-Gap            0.4532157 Eh           12.3326 eV
             Fermi-level           -0.1773052 Eh           -4.8247 eV

 SCC (total)                   0 d,  0 h,  0 min,  0.039 sec
 SCC setup                      ...        0 min,  0.000 sec (  0.461%)
 Dispersion                     ...        0 min,  0.000 sec (  0.481%)
 classical contributions        ...        0 min,  0.000 sec (  0.094%)
 integral evaluation            ...        0 min,  0.004 sec (  9.638%)
 iterations                     ...        0 min,  0.027 sec ( 67.799%)
 molecular gradient             ...        0 min,  0.008 sec ( 21.158%)
 printout                       ...        0 min,  0.000 sec (  0.339%)

         :::::::::::::::::::::::::::::::::::::::::::::::::::::
         ::                     SUMMARY                     ::
         :::::::::::::::::::::::::::::::::::::::::::::::::::::
         :: total energy             -36.705981126429 Eh    ::
         :: gradient norm              0.006013851100 Eh/a0 ::
         :: HOMO-LUMO gap             12.332626913774 eV    ::
         ::.................................................::
         :: SCC energy               -37.199851162030 Eh    ::
         :: -> isotropic ES            0.029639807398 Eh    ::
         :: -> anisotropic ES          0.009954915119 Eh    ::
         :: -> anisotropic XC          0.016786824401 Eh    ::
         :: -> dispersion             -0.021355966974 Eh    ::
         :: repulsion energy           0.493870035601 Eh    ::
         :: add. restraining           0.000000000000 Eh    ::
         :: total charge              -0.000000000000 e     ::
         :::::::::::::::::::::::::::::::::::::::::::::::::::::

           -------------------------------------------------
          |                Property Printout                |
           -------------------------------------------------

    * Orbital Energies and Occupations

         #    Occupation            Energy/Eh            Energy/eV
      -------------------------------------------------------------
         1        2.0000           -0.6822166             -18.5641
       ...           ...                  ...                  ...
        22        2.0000           -0.4722629             -12.8509
        23        2.0000           -0.4599674             -12.5163
        24        2.0000           -0.4573266             -12.4445
        25        2.0000           -0.4518137             -12.2945
        26        2.0000           -0.4451328             -12.1127
        27        2.0000           -0.4377945             -11.9130
        28        2.0000           -0.4367528             -11.8846
        29        2.0000           -0.4292805             -11.6813
        30        2.0000           -0.4284020             -11.6574
        31        2.0000           -0.4248492             -11.5607
        32        2.0000           -0.4200257             -11.4295
        33        2.0000           -0.4158144             -11.3149
        34        2.0000           -0.4039130             -10.9910 (HOMO)
        35                          0.0493027               1.3416 (LUMO)
        36                          0.0538640               1.4657
        37                          0.0765351               2.0826
        38                          0.0834772               2.2715
        39                          0.0899001               2.4463
        40                          0.1053574               2.8669
        41                          0.1170013               3.1838
        42                          0.1231520               3.3511
        43                          0.1247515               3.3947
        44                          0.1298500               3.5334
        45                          0.1360885               3.7032
       ...                                ...                  ...
        66                          0.3248452               8.8395
      -------------------------------------------------------------
                  HL-Gap            0.4532157 Eh           12.3326 eV
             Fermi-level           -0.1773052 Eh           -4.8247 eV

     #   Z          covCN         q      C6AA      α(0)
     1   6 C        3.752    -0.102    22.518     6.767
     2   6 C        3.800    -0.053    21.528     6.606
     3   6 C        3.802    -0.059    21.636     6.622
     4   6 C        3.802    -0.059    21.626     6.621
     5   6 C        3.802    -0.060    21.647     6.624
     6   6 C        3.802    -0.058    21.621     6.620
     7   6 C        3.801    -0.060    21.651     6.625
     8   6 C        3.801    -0.057    21.599     6.617
     9   6 C        3.800    -0.074    21.911     6.665
    10   6 C        3.673     0.079    19.481     6.325
    11   8 O        1.654    -0.445    21.751     6.296
    12   1 H        0.925     0.033     2.549     2.497
    13   1 H        0.925     0.033     2.550     2.497
    14   1 H        0.925     0.033     2.545     2.495
    15   1 H        0.924     0.030     2.588     2.516
    16   1 H        0.924     0.029     2.602     2.523
    17   1 H        0.924     0.030     2.587     2.515
    18   1 H        0.924     0.030     2.582     2.513
    19   1 H        0.924     0.028     2.614     2.529
    20   1 H        0.924     0.029     2.606     2.524
    21   1 H        0.924     0.031     2.579     2.511
    22   1 H        0.925     0.033     2.548     2.496
    23   1 H        0.924     0.029     2.597     2.520
    24   1 H        0.924     0.028     2.615     2.529
    25   1 H        0.924     0.031     2.566     2.505
    26   1 H        0.924     0.030     2.590     2.517
    27   1 H        0.924     0.027     2.626     2.534
    28   1 H        0.924     0.035     2.517     2.481
    29   1 H        0.924     0.035     2.516     2.481
    30   1 H        0.924     0.046     2.375     2.410
    31   1 H        0.924     0.045     2.388     2.416
    32   1 H        0.924     0.018     2.757     2.597
    33   1 H        0.805     0.286     0.765     1.374

 Mol. C6AA /au·bohr⁶  :       7293.429830
 Mol. C8AA /au·bohr⁸  :     151910.278608
 Mol. α(0) /au        :        126.367043


Wiberg/Mayer (AO) data.
largest (>0.10) Wiberg bond orders for each atom

 ---------------------------------------------------------------------------
     #   Z sym  total        # sym  WBO       # sym  WBO       # sym  WBO
 ---------------------------------------------------------------------------
     1   6 C    3.997 --     2 C    1.019    14 H    0.988    13 H    0.988
                            12 H    0.988
     2   6 C    3.998 --     1 C    1.019     3 C    1.009    16 H    0.978
                            15 H    0.977
     3   6 C    3.997 --     2 C    1.009     4 C    1.006    18 H    0.977
                            17 H    0.977
     4   6 C    3.997 --     5 C    1.008     3 C    1.006    20 H    0.978
                            19 H    0.977
     5   6 C    3.997 --     6 C    1.008     4 C    1.008    21 H    0.977
                            22 H    0.974
     6   6 C    3.997 --     5 C    1.008     7 C    1.006    24 H    0.977
                            23 H    0.977
     7   6 C    3.997 --     8 C    1.009     6 C    1.006    25 H    0.977
                            26 H    0.974
     8   6 C    3.998 --     7 C    1.009     9 C    1.006    28 H    0.975
                            27 H    0.974
     9   6 C    3.996 --     8 C    1.006    10 C    0.998    30 H    0.976
                            29 H    0.976
    10   6 C    3.957 --    11 O    0.998     9 C    0.998    31 H    0.974
                            32 H    0.967
    11   8 O    1.957 --    10 C    0.998    33 H    0.900
    12   1 H    0.999 --     1 C    0.988
    13   1 H    0.999 --     1 C    0.988
    14   1 H    0.999 --     1 C    0.988
    15   1 H    0.999 --     2 C    0.977
    16   1 H    0.999 --     2 C    0.978
    17   1 H    0.999 --     3 C    0.977
    18   1 H    0.999 --     3 C    0.977
    19   1 H    0.999 --     4 C    0.977
    20   1 H    0.999 --     4 C    0.978
    21   1 H    0.999 --     5 C    0.977
    22   1 H    0.999 --     5 C    0.974
    23   1 H    0.999 --     6 C    0.977
    24   1 H    0.999 --     6 C    0.977
    25   1 H    0.999 --     7 C    0.977
    26   1 H    0.999 --     7 C    0.974
    27   1 H    0.999 --     8 C    0.974
    28   1 H    0.999 --     8 C    0.975
    29   1 H    0.999 --     9 C    0.976
    30   1 H    0.998 --     9 C    0.976
    31   1 H    0.998 --    10 C    0.974
    32   1 H    1.000 --    10 C    0.967
    33   1 H    0.918 --    11 O    0.900
 ---------------------------------------------------------------------------

Topologies differ in total number of bonds
Writing topology from bond orders to xtbtopo.mol

molecular dipole:
                 x           y           z       tot (Debye)
 q only:        0.586       0.026      -0.239
   full:        0.777       0.108      -0.297       2.132
molecular quadrupole (traceless):
                xx          xy          yy          xz          yz          zz
 q only:       -8.922      -0.240       4.918       5.018       0.985       4.003
  q+dip:      -13.886      -0.403       7.527       6.585       1.668       6.359
   full:      -13.031      -0.560       7.051       6.624       1.615       5.980


           -------------------------------------------------
          | TOTAL ENERGY              -36.705981126429 Eh   |
          | GRADIENT NORM               0.006013851100 Eh/α |
          | HOMO-LUMO GAP              12.332626913774 eV   |
           -------------------------------------------------

------------------------------------------------------------------------
 * finished run on 2025/04/03 at 17:02:52.395     
------------------------------------------------------------------------
 total:
 * wall-time:     0 d,  0 h,  0 min,  0.077 sec
 *  cpu-time:     0 d,  0 h,  0 min,  0.031 sec
 * ratio c/w:     0.411 speedup
 SCF:
 * wall-time:     0 d,  0 h,  0 min,  0.040 sec
 *  cpu-time:     0 d,  0 h,  0 min,  0.022 sec
 * ratio c/w:     0.555 speedup

