      -----------------------------------------------------------      
     |                   =====================                   |     
     |                           x T B                           |     
     |                   =====================                   |     
     |                         S. Grimme                         |     
     |          Mulliken Center for Theoretical Chemistry        |     
     |                    University of Bonn                     |     
      -----------------------------------------------------------      

   * xtb version 6.7.1 (edcfbbe) compiled by 'albert@albert-system' on 2024-07-22

   xtb is free software: you can redistribute it and/or modify it under
   the terms of the GNU Lesser General Public License as published by
   the Free Software Foundation, either version 3 of the License, or
   (at your option) any later version.
   
   xtb is distributed in the hope that it will be useful,
   but WITHOUT ANY WARRANTY; without even the implied warranty of
   MERCHANTABILITY or FITNESS FOR A PARTICULAR PURPOSE.  See the
   GNU Lesser General Public License for more details.
   
   Cite this work as:
   * C. Bannwarth, E. Caldeweyher, S. Ehlert, A. Hansen, P. Pracht,
     J. Seibert, S. Spicher, S. Grimme, WIREs Comput. Mol. Sci., 2020, 11,
     e01493. DOI: 10.1002/wcms.1493
   
   for GFN2-xTB:
   * C. Bannwarth, S. Ehlert and S. Grimme., J. Chem. Theory Comput., 2019,
     15, 1652-1671. DOI: 10.1021/acs.jctc.8b01176
   for GFN1-xTB:
   * S. Grimme, C. Bannwarth, P. Shushkov, J. Chem. Theory Comput., 2017,
     13, 1989-2009. DOI: 10.1021/acs.jctc.7b00118
   for GFN0-xTB:
   * P. Pracht, E. Caldeweyher, S. Ehlert, S. Grimme, ChemRxiv, 2019, preprint.
     DOI: 10.26434/chemrxiv.8326202.v1
   for GFN-FF:
   * S. Spicher and S. Grimme, Angew. Chem. Int. Ed., 2020, 59, 15665-15673.
     DOI: 10.1002/anie.202004239
   
   for ALPB and GBSA implicit solvation:
   * S. Ehlert, M. Stahn, S. Spicher, S. Grimme, J. Chem. Theory Comput.,
     2021, 17, 4250-4261. DOI: 10.1021/acs.jctc.1c00471
   
   for ddCOSMO and CPCM-X implicit solvation:
   * M. Stahn, S. Ehlert, S. Grimme, J. Phys. Chem. A,
     2023, XX, XXXX-XXXX. DOI: 10.1021/acs.jpca.3c04382
   
   for DFT-D4:
   * E. Caldeweyher, C. Bannwarth and S. Grimme, J. Chem. Phys., 2017,
     147, 034112. DOI: 10.1063/1.4993215
   * E. Caldeweyher, S. Ehlert, A. Hansen, H. Neugebauer, S. Spicher,
     C. Bannwarth and S. Grimme, J. Chem. Phys., 2019, 150, 154122.
     DOI: 10.1063/1.5090222
   * E. Caldeweyher, J.-M. Mewes, S. Ehlert and S. Grimme, Phys. Chem. Chem. Phys.
     2020, 22, 8499-8512. DOI: 10.1039/D0CP00502A
   
   for sTDA-xTB:
   * S. Grimme and C. Bannwarth, J. Chem. Phys., 2016, 145, 054103.
     DOI: 10.1063/1.4959605
   
   in the mass-spec context:
   * V. Asgeirsson, C. Bauer and S. Grimme, Chem. Sci., 2017, 8, 4879.
     DOI: 10.1039/c7sc00601b
   * J. Koopman and S. Grimme, ACS Omega 2019, 4, 12, 15120-15133.
     DOI: 10.1021/acsomega.9b02011
   
   for metadynamics refer to:
   * S. Grimme, J. Chem. Theory Comput., 2019, 155, 2847-2862
     DOI: 10.1021/acs.jctc.9b00143
   
   for SPH calculations refer to:
   * S. Spicher and S. Grimme, J. Chem. Theory Comput., 2021, 17, 1701-1714
     DOI: 10.1021/acs.jctc.0c01306
   
   for ONIOM refer to:
   * C. Plett, A. Katbashev, S. Ehlert, S. Grimme, M. Bursch,
     Phys. Chem. Chem. Phys., 2023, 25, 17860-17868. DOI: 10.1039/D3CP02178E
   
   for DIPRO refer to:
   * J. Kohn, N. Gildemeister, S. Grimme, D. Fazzi, A. Hansen,
     J. Chem. Phys., 2023, just accepted.
   
   for PTB refer to:
   * S. Grimme, M. Mueller, A. Hansen, J. Chem. Phys., 2023, 158, 124111.
     DOI: 10.1063/5.0137838
   
   with help from (in alphabetical order)
   P. Atkinson, C. Bannwarth, F. Bohle, G. Brandenburg, E. Caldeweyher
   M. Checinski, S. Dohm, S. Ehlert, S. Ehrlich, I. Gerasimov, C. Hölzer
   A. Katbashev, J. Kohn, J. Koopman, C. Lavigne, S. Lehtola, F. März, M. Müller,
   F. Musil, H. Neugebauer, J. Pisarek, C. Plett, P. Pracht, F. Pultar,
   J. Seibert, P. Shushkov, S. Spicher, M. Stahn, M. Steiner, T. Strunk,
   J. Stückrath, T. Rose, and J. Unsleber
   
 * started run on 2025/04/03 at 17:02:52.463     
   ID    Z sym.   atoms
    1    6 C      1-10
    2    8 O      11
    3    1 H      12-33

           -------------------------------------------------
          |                Calculation Setup                |
           -------------------------------------------------

          program call               : /srv/scratch/z5358697/.xtb/bin/xtb solv.coord --gfn2 --sp --chrg 0 --norestart --parallel 1 --alpb water reference -I xtb_sp-xcontrol-inp
          hostname                   : k140
          coordinate file            : solv.coord
          omp threads                :                     1


           -------------------------------------------------
          |                 G F N 2 - x T B                 |
           -------------------------------------------------

        Reference                      10.1021/acs.jctc.8b01176
      * Hamiltonian:
        H0-scaling (s, p, d)           1.850000    2.230000    2.230000
        zeta-weighting                 0.500000
      * Dispersion:
        s8                             2.700000
        a1                             0.520000
        a2                             5.000000
        s9                             5.000000
      * Repulsion:
        kExp                           1.500000    1.000000
        rExp                           1.000000
      * Coulomb:
        alpha                          2.000000
        third order                    shell-resolved
        anisotropic                    true
        a3                             3.000000
        a5                             4.000000
        cn-shift                       1.200000
        cn-exp                         4.000000
        max-rad                        5.000000

      * Solvation model:               ALPB
        Solvent                        water
        Parameter file                 internal GFN2-xTB/ALPB
        Dielectric constant                8.0200E+01
        Reference state                gsolv=reference [X=1]
        Free energy shift                  2.8945E-03 Eh       1.8164E+00 kcal/mol
        Temperature                        2.9815E+02 K
        Density                            1.0000E+00 kg/L
        Solvent mass                       1.8000E+01 g/mol
        Interaction kernel             P16
        Born radius scaling (c1)           1.4744E+00
        Born radii integrator          GBOBC
        Born offset                        0.0000E+00 a0       0.0000E+00 AA
        H-bond correction              true
        Ion screening                  false
        Surface tension                    1.0000E-05 Eh       1.5569E+01 dyn/cm
        Grid points                               974 per atom

          ...................................................
          :                      SETUP                      :
          :.................................................:
          :  # basis functions                  66          :
          :  # atomic orbitals                  66          :
          :  # shells                           44          :
          :  # electrons                        68          :
          :  max. iterations                   250          :
          :  Hamiltonian                  GFN2-xTB          :
          :  restarted?                      false          :
          :  GBSA solvation                   true          :
          :  PC potential                    false          :
          :  electronic temp.          300.0000000     K    :
          :  accuracy                    1.0000000          :
          :  -> integral cutoff          0.2500000E+02      :
          :  -> integral neglect         0.1000000E-07      :
          :  -> SCF convergence          0.1000000E-05 Eh   :
          :  -> wf. convergence          0.1000000E-03 e    :
          :  Broyden damping             0.4000000          :
          :  net charge                          0          :
          :  unpaired electrons                  0          :
          ...................................................

 iter      E             dE          RMSdq      gap      omega  full diag
   1    -37.1448199 -0.371448E+02  0.290E+00   12.48       0.0  T
   2    -37.2025836 -0.577637E-01  0.156E+00   12.40       1.0  T
   3    -37.2043007 -0.171716E-02  0.623E-01   12.33       1.0  T
   4    -37.2045743 -0.273565E-03  0.954E-02   12.39       1.0  T
   5    -37.2045987 -0.244072E-04  0.543E-02   12.40       1.0  T
   6    -37.2046015 -0.283169E-05  0.807E-03   12.40       2.2  T
   7    -37.2046018 -0.265376E-06  0.385E-03   12.40       4.5  T
   8    -37.2046019 -0.495070E-07  0.166E-03   12.40      10.5  T
   9    -37.2046019 -0.717034E-08  0.557E-04   12.40      31.3  T
  10    -37.2046019 -0.149495E-08  0.130E-04   12.40     133.4  T

   *** convergence criteria satisfied after 10 iterations ***

         #    Occupation            Energy/Eh            Energy/eV
      -------------------------------------------------------------
         1        2.0000           -0.6868852             -18.6911
       ...           ...                  ...                  ...
        28        2.0000           -0.4322003             -11.7608
        29        2.0000           -0.4252589             -11.5719
        30        2.0000           -0.4244195             -11.5490
        31        2.0000           -0.4208726             -11.4525
        32        2.0000           -0.4165851             -11.3359
        33        2.0000           -0.4123109             -11.2196
        34        2.0000           -0.4033832             -10.9766 (HOMO)
        35                          0.0524186               1.4264 (LUMO)
        36                          0.0558782               1.5205
        37                          0.0802735               2.1844
        38                          0.0868811               2.3642
        39                          0.0939412               2.5563
       ...                                ...                  ...
        66                          0.3295506               8.9675
      -------------------------------------------------------------
                  HL-Gap            0.4558018 Eh           12.4030 eV
             Fermi-level           -0.1754823 Eh           -4.7751 eV

 SCC (total)                   0 d,  0 h,  0 min,  0.027 sec
 SCC setup                      ...        0 min,  0.002 sec (  7.015%)
 Dispersion                     ...        0 min,  0.000 sec (  0.842%)
 classical contributions        ...        0 min,  0.000 sec (  0.161%)
 integral evaluation            ...        0 min,  0.003 sec (  9.585%)
 iterations                     ...        0 min,  0.013 sec ( 49.228%)
 molecular gradient             ...        0 min,  0.009 sec ( 32.582%)
 printout                       ...        0 min,  0.000 sec (  0.524%)

         :::::::::::::::::::::::::::::::::::::::::::::::::::::
         ::                     SUMMARY                     ::
         :::::::::::::::::::::::::::::::::::::::::::::::::::::
         :: total energy             -36.710762709321 Eh    ::
         :: total w/o Gsasa/hb       -36.709105926623 Eh    ::
         :: gradient norm              0.000072273113 Eh/a0 ::
         :: HOMO-LUMO gap             12.402998265920 eV    ::
         ::.................................................::
         :: SCC energy               -37.204632744922 Eh    ::
         :: -> isotropic ES            0.037998562582 Eh    ::
         :: -> anisotropic ES          0.009048593625 Eh    ::
         :: -> anisotropic XC          0.017053283887 Eh    ::
         :: -> dispersion             -0.021269713865 Eh    ::
         :: -> Gsolv                  -0.006216796028 Eh    ::
         ::    -> Gelec               -0.004560013329 Eh    ::
         ::    -> Gsasa                0.000281279655 Eh    ::
         ::    -> Ghb                 -0.004832611514 Eh    ::
         ::    -> Gshift               0.002894549160 Eh    ::
         :: repulsion energy           0.493870035601 Eh    ::
         :: add. restraining           0.000000000000 Eh    ::
         :: total charge               0.000000000000 e     ::
         :::::::::::::::::::::::::::::::::::::::::::::::::::::

           -------------------------------------------------
          |                Property Printout                |
           -------------------------------------------------

    * Orbital Energies and Occupations

         #    Occupation            Energy/Eh            Energy/eV
      -------------------------------------------------------------
         1        2.0000           -0.6868852             -18.6911
       ...           ...                  ...                  ...
        22        2.0000           -0.4681982             -12.7403
        23        2.0000           -0.4561622             -12.4128
        24        2.0000           -0.4539414             -12.3524
        25        2.0000           -0.4478080             -12.1855
        26        2.0000           -0.4410930             -12.0028
        27        2.0000           -0.4348469             -11.8328
        28        2.0000           -0.4322003             -11.7608
        29        2.0000           -0.4252589             -11.5719
        30        2.0000           -0.4244195             -11.5490
        31        2.0000           -0.4208726             -11.4525
        32        2.0000           -0.4165851             -11.3359
        33        2.0000           -0.4123109             -11.2196
        34        2.0000           -0.4033832             -10.9766 (HOMO)
        35                          0.0524186               1.4264 (LUMO)
        36                          0.0558782               1.5205
        37                          0.0802735               2.1844
        38                          0.0868811               2.3642
        39                          0.0939412               2.5563
        40                          0.1110673               3.0223
        41                          0.1207778               3.2865
        42                          0.1269171               3.4536
        43                          0.1287334               3.5030
        44                          0.1345917               3.6624
        45                          0.1399767               3.8090
       ...                                ...                  ...
        66                          0.3295506               8.9675
      -------------------------------------------------------------
                  HL-Gap            0.4558018 Eh           12.4030 eV
             Fermi-level           -0.1754823 Eh           -4.7751 eV

     #   Z          covCN         q      C6AA      α(0)
     1   6 C        3.752    -0.111    22.683     6.792
     2   6 C        3.800    -0.058    21.611     6.619
     3   6 C        3.802    -0.063    21.711     6.634
     4   6 C        3.802    -0.063    21.702     6.632
     5   6 C        3.802    -0.063    21.703     6.633
     6   6 C        3.802    -0.063    21.700     6.632
     7   6 C        3.801    -0.064    21.723     6.636
     8   6 C        3.801    -0.062    21.685     6.630
     9   6 C        3.800    -0.078    22.000     6.678
    10   6 C        3.673     0.079    19.491     6.327
    11   8 O        1.654    -0.515    23.224     6.505
    12   1 H        0.925     0.037     2.494     2.469
    13   1 H        0.925     0.035     2.517     2.481
    14   1 H        0.925     0.036     2.506     2.475
    15   1 H        0.924     0.032     2.559     2.502
    16   1 H        0.924     0.031     2.577     2.511
    17   1 H        0.924     0.031     2.567     2.506
    18   1 H        0.924     0.032     2.564     2.504
    19   1 H        0.924     0.030     2.588     2.516
    20   1 H        0.924     0.030     2.583     2.513
    21   1 H        0.924     0.032     2.560     2.502
    22   1 H        0.925     0.034     2.531     2.488
    23   1 H        0.924     0.031     2.572     2.508
    24   1 H        0.924     0.031     2.568     2.506
    25   1 H        0.924     0.034     2.533     2.489
    26   1 H        0.924     0.033     2.550     2.497
    27   1 H        0.924     0.034     2.529     2.487
    28   1 H        0.924     0.039     2.460     2.453
    29   1 H        0.924     0.043     2.415     2.430
    30   1 H        0.924     0.048     2.348     2.396
    31   1 H        0.924     0.041     2.436     2.441
    32   1 H        0.924     0.023     2.683     2.562
    33   1 H        0.805     0.344     0.601     1.218

 Mol. C6AA /au·bohr⁶  :       7277.155956
 Mol. C8AA /au·bohr⁸  :     151900.421608
 Mol. α(0) /au        :        126.172751


Wiberg/Mayer (AO) data.
largest (>0.10) Wiberg bond orders for each atom

 ---------------------------------------------------------------------------
     #   Z sym  total        # sym  WBO       # sym  WBO       # sym  WBO
 ---------------------------------------------------------------------------
     1   6 C    3.997 --     2 C    1.019    14 H    0.988    13 H    0.988
                            12 H    0.987
     2   6 C    3.998 --     1 C    1.019     3 C    1.009    16 H    0.978
                            15 H    0.977
     3   6 C    3.997 --     2 C    1.009     4 C    1.006    18 H    0.977
                            17 H    0.977
     4   6 C    3.997 --     5 C    1.008     3 C    1.006    20 H    0.977
                            19 H    0.977
     5   6 C    3.997 --     6 C    1.008     4 C    1.008    21 H    0.977
                            22 H    0.974
     6   6 C    3.997 --     5 C    1.008     7 C    1.006    24 H    0.977
                            23 H    0.977
     7   6 C    3.997 --     8 C    1.009     6 C    1.006    25 H    0.977
                            26 H    0.973
     8   6 C    3.997 --     7 C    1.009     9 C    1.007    28 H    0.975
                            27 H    0.973
     9   6 C    3.995 --     8 C    1.007    10 C    0.999    30 H    0.976
                            29 H    0.975
    10   6 C    3.951 --     9 C    0.999    11 O    0.992    31 H    0.974
                            32 H    0.967
    11   8 O    1.914 --    10 C    0.992    33 H    0.864
    12   1 H    0.998 --     1 C    0.987
    13   1 H    0.999 --     1 C    0.988
    14   1 H    0.999 --     1 C    0.988
    15   1 H    0.999 --     2 C    0.977
    16   1 H    0.999 --     2 C    0.978
    17   1 H    0.999 --     3 C    0.977
    18   1 H    0.999 --     3 C    0.977
    19   1 H    0.999 --     4 C    0.977
    20   1 H    0.999 --     4 C    0.977
    21   1 H    0.999 --     5 C    0.977
    22   1 H    0.999 --     5 C    0.974
    23   1 H    0.999 --     6 C    0.977
    24   1 H    0.999 --     6 C    0.977
    25   1 H    0.999 --     7 C    0.977
    26   1 H    0.999 --     7 C    0.973
    27   1 H    0.999 --     8 C    0.973
    28   1 H    0.998 --     8 C    0.975
    29   1 H    0.998 --     9 C    0.975
    30   1 H    0.997 --     9 C    0.976
    31   1 H    0.998 --    10 C    0.974
    32   1 H    0.999 --    10 C    0.967
    33   1 H    0.881 --    11 O    0.864
 ---------------------------------------------------------------------------

Topologies differ in total number of bonds
Writing topology from bond orders to xtbtopo.mol

molecular dipole:
                 x           y           z       tot (Debye)
 q only:        0.710       0.066      -0.224
   full:        0.855       0.133      -0.285       2.315
molecular quadrupole (traceless):
                xx          xy          yy          xz          yz          zz
 q only:      -11.296      -0.868       6.073       5.344       1.246       5.222
  q+dip:      -15.367      -0.790       8.241       6.760       1.854       7.127
   full:      -14.510      -0.950       7.761       6.799       1.798       6.749


           -------------------------------------------------
          | TOTAL ENERGY              -36.710762709321 Eh   |
          | GRADIENT NORM               0.000072273113 Eh/α |
          | HOMO-LUMO GAP              12.402998265920 eV   |
           -------------------------------------------------

------------------------------------------------------------------------
 * finished run on 2025/04/03 at 17:02:52.528     
------------------------------------------------------------------------
 total:
 * wall-time:     0 d,  0 h,  0 min,  0.064 sec
 *  cpu-time:     0 d,  0 h,  0 min,  0.034 sec
 * ratio c/w:     0.533 speedup
 SCF:
 * wall-time:     0 d,  0 h,  0 min,  0.027 sec
 *  cpu-time:     0 d,  0 h,  0 min,  0.024 sec
 * ratio c/w:     0.902 speedup

