      -----------------------------------------------------------      
     |                   =====================                   |     
     |                           x T B                           |     
     |                   =====================                   |     
     |                         S. Grimme                         |     
     |          Mulliken Center for Theoretical Chemistry        |     
     |                    University of Bonn                     |     
      -----------------------------------------------------------      

   * xtb version 6.7.1 (edcfbbe) compiled by 'albert@albert-system' on 2024-07-22

   xtb is free software: you can redistribute it and/or modify it under
   the terms of the GNU Lesser General Public License as published by
   the Free Software Foundation, either version 3 of the License, or
   (at your option) any later version.
   
   xtb is distributed in the hope that it will be useful,
   but WITHOUT ANY WARRANTY; without even the implied warranty of
   MERCHANTABILITY or FITNESS FOR A PARTICULAR PURPOSE.  See the
   GNU Lesser General Public License for more details.
   
   Cite this work as:
   * C. Bannwarth, E. Caldeweyher, S. Ehlert, A. Hansen, P. Pracht,
     J. Seibert, S. Spicher, S. Grimme, WIREs Comput. Mol. Sci., 2020, 11,
     e01493. DOI: 10.1002/wcms.1493
   
   for GFN2-xTB:
   * C. Bannwarth, S. Ehlert and S. Grimme., J. Chem. Theory Comput., 2019,
     15, 1652-1671. DOI: 10.1021/acs.jctc.8b01176
   for GFN1-xTB:
   * S. Grimme, C. Bannwarth, P. Shushkov, J. Chem. Theory Comput., 2017,
     13, 1989-2009. DOI: 10.1021/acs.jctc.7b00118
   for GFN0-xTB:
   * P. Pracht, E. Caldeweyher, S. Ehlert, S. Grimme, ChemRxiv, 2019, preprint.
     DOI: 10.26434/chemrxiv.8326202.v1
   for GFN-FF:
   * S. Spicher and S. Grimme, Angew. Chem. Int. Ed., 2020, 59, 15665-15673.
     DOI: 10.1002/anie.202004239
   
   for ALPB and GBSA implicit solvation:
   * S. Ehlert, M. Stahn, S. Spicher, S. Grimme, J. Chem. Theory Comput.,
     2021, 17, 4250-4261. DOI: 10.1021/acs.jctc.1c00471
   
   for ddCOSMO and CPCM-X implicit solvation:
   * M. Stahn, S. Ehlert, S. Grimme, J. Phys. Chem. A,
     2023, XX, XXXX-XXXX. DOI: 10.1021/acs.jpca.3c04382
   
   for DFT-D4:
   * E. Caldeweyher, C. Bannwarth and S. Grimme, J. Chem. Phys., 2017,
     147, 034112. DOI: 10.1063/1.4993215
   * E. Caldeweyher, S. Ehlert, A. Hansen, H. Neugebauer, S. Spicher,
     C. Bannwarth and S. Grimme, J. Chem. Phys., 2019, 150, 154122.
     DOI: 10.1063/1.5090222
   * E. Caldeweyher, J.-M. Mewes, S. Ehlert and S. Grimme, Phys. Chem. Chem. Phys.
     2020, 22, 8499-8512. DOI: 10.1039/D0CP00502A
   
   for sTDA-xTB:
   * S. Grimme and C. Bannwarth, J. Chem. Phys., 2016, 145, 054103.
     DOI: 10.1063/1.4959605
   
   in the mass-spec context:
   * V. Asgeirsson, C. Bauer and S. Grimme, Chem. Sci., 2017, 8, 4879.
     DOI: 10.1039/c7sc00601b
   * J. Koopman and S. Grimme, ACS Omega 2019, 4, 12, 15120-15133.
     DOI: 10.1021/acsomega.9b02011
   
   for metadynamics refer to:
   * S. Grimme, J. Chem. Theory Comput., 2019, 155, 2847-2862
     DOI: 10.1021/acs.jctc.9b00143
   
   for SPH calculations refer to:
   * S. Spicher and S. Grimme, J. Chem. Theory Comput., 2021, 17, 1701-1714
     DOI: 10.1021/acs.jctc.0c01306
   
   for ONIOM refer to:
   * C. Plett, A. Katbashev, S. Ehlert, S. Grimme, M. Bursch,
     Phys. Chem. Chem. Phys., 2023, 25, 17860-17868. DOI: 10.1039/D3CP02178E
   
   for DIPRO refer to:
   * J. Kohn, N. Gildemeister, S. Grimme, D. Fazzi, A. Hansen,
     J. Chem. Phys., 2023, just accepted.
   
   for PTB refer to:
   * S. Grimme, M. Mueller, A. Hansen, J. Chem. Phys., 2023, 158, 124111.
     DOI: 10.1063/5.0137838
   
   with help from (in alphabetical order)
   P. Atkinson, C. Bannwarth, F. Bohle, G. Brandenburg, E. Caldeweyher
   M. Checinski, S. Dohm, S. Ehlert, S. Ehrlich, I. Gerasimov, C. Hölzer
   A. Katbashev, J. Kohn, J. Koopman, C. Lavigne, S. Lehtola, F. März, M. Müller,
   F. Musil, H. Neugebauer, J. Pisarek, C. Plett, P. Pracht, F. Pultar,
   J. Seibert, P. Shushkov, S. Spicher, M. Stahn, M. Steiner, T. Strunk,
   J. Stückrath, T. Rose, and J. Unsleber
   
 * started run on 2025/04/03 at 17:49:48.355     
   ID    Z sym.   atoms
    1    6 C      1, 2, 7, 8, 10-12, 14, 16-19
    2    8 O      3, 6, 9
    3   15 P      4
    4   16 S      5
    5    7 N      13, 15
    6    1 H      20-40

           -------------------------------------------------
          |                Calculation Setup                |
           -------------------------------------------------

          program call               : /srv/scratch/z5358697/.xtb/bin/xtb gas.coord --gfn2 --sp --chrg 0 --norestart --parallel 1
          hostname                   : k164
          coordinate file            : gas.coord
          omp threads                :                     1


           -------------------------------------------------
          |                 G F N 2 - x T B                 |
           -------------------------------------------------

        Reference                      10.1021/acs.jctc.8b01176
      * Hamiltonian:
        H0-scaling (s, p, d)           1.850000    2.230000    2.230000
        zeta-weighting                 0.500000
      * Dispersion:
        s8                             2.700000
        a1                             0.520000
        a2                             5.000000
        s9                             5.000000
      * Repulsion:
        kExp                           1.500000    1.000000
        rExp                           1.000000
      * Coulomb:
        alpha                          2.000000
        third order                    shell-resolved
        anisotropic                    true
        a3                             3.000000
        a5                             4.000000
        cn-shift                       1.200000
        cn-exp                         4.000000
        max-rad                        5.000000


          ...................................................
          :                      SETUP                      :
          :.................................................:
          :  # basis functions                 109          :
          :  # atomic orbitals                 107          :
          :  # shells                           61          :
          :  # electrons                       108          :
          :  max. iterations                   250          :
          :  Hamiltonian                  GFN2-xTB          :
          :  restarted?                      false          :
          :  GBSA solvation                  false          :
          :  PC potential                    false          :
          :  electronic temp.          300.0000000     K    :
          :  accuracy                    1.0000000          :
          :  -> integral cutoff          0.2500000E+02      :
          :  -> integral neglect         0.1000000E-07      :
          :  -> SCF convergence          0.1000000E-05 Eh   :
          :  -> wf. convergence          0.1000000E-03 e    :
          :  Broyden damping             0.4000000          :
          :  net charge                          0          :
          :  unpaired electrons                  0          :
          ...................................................

 iter      E             dE          RMSdq      gap      omega  full diag
   1    -60.9764600 -0.609765E+02  0.529E+00    3.34       0.0  T
   2    -61.0810469 -0.104587E+00  0.351E+00    2.81       1.0  T
   3    -61.0920688 -0.110219E-01  0.113E+00    2.34       1.0  T
   4    -61.0948523 -0.278347E-02  0.420E-01    2.28       1.0  T
   5    -61.0960458 -0.119354E-02  0.230E-01    2.40       1.0  T
   6    -61.0963623 -0.316519E-03  0.101E-01    2.40       1.0  T
   7    -61.0964012 -0.388581E-04  0.472E-02    2.41       1.0  T
   8    -61.0964125 -0.112983E-04  0.211E-02    2.41       1.0  T
   9    -61.0964139 -0.145904E-05  0.844E-03    2.42       1.9  T
  10    -61.0964153 -0.132130E-05  0.259E-03    2.42       6.1  T
  11    -61.0964153 -0.696273E-07  0.152E-03    2.42      10.4  T
  12    -61.0964153 -0.731595E-08  0.455E-04    2.42      34.8  T
  13    -61.0964153 -0.702158E-09  0.132E-04    2.42     120.1  T

   *** convergence criteria satisfied after 13 iterations ***

         #    Occupation            Energy/Eh            Energy/eV
      -------------------------------------------------------------
         1        2.0000           -0.7529602             -20.4891
       ...           ...                  ...                  ...
        48        2.0000           -0.4389691             -11.9450
        49        2.0000           -0.4278075             -11.6412
        50        2.0000           -0.4229301             -11.5085
        51        2.0000           -0.4098296             -11.1520
        52        2.0000           -0.3798432             -10.3361
        53        2.0000           -0.3564214              -9.6987
        54        2.0000           -0.3527111              -9.5978 (HOMO)
        55                         -0.2639132              -7.1814 (LUMO)
        56                         -0.2523658              -6.8672
        57                         -0.1629973              -4.4354
        58                         -0.1329385              -3.6174
        59                         -0.1106610              -3.0112
       ...                                ...                  ...
       107                          1.2646782              34.4136
      -------------------------------------------------------------
                  HL-Gap            0.0887979 Eh            2.4163 eV
             Fermi-level           -0.3083122 Eh           -8.3896 eV

 SCC (total)                   0 d,  0 h,  0 min,  0.045 sec
 SCC setup                      ...        0 min,  0.000 sec (  0.516%)
 Dispersion                     ...        0 min,  0.000 sec (  0.588%)
 classical contributions        ...        0 min,  0.000 sec (  0.110%)
 integral evaluation            ...        0 min,  0.017 sec ( 38.673%)
 iterations                     ...        0 min,  0.014 sec ( 31.997%)
 molecular gradient             ...        0 min,  0.012 sec ( 27.754%)
 printout                       ...        0 min,  0.000 sec (  0.332%)

         :::::::::::::::::::::::::::::::::::::::::::::::::::::
         ::                     SUMMARY                     ::
         :::::::::::::::::::::::::::::::::::::::::::::::::::::
         :: total energy             -60.392689312470 Eh    ::
         :: gradient norm              0.024271205616 Eh/a0 ::
         :: HOMO-LUMO gap              2.416313750230 eV    ::
         ::.................................................::
         :: SCC energy               -61.095787493930 Eh    ::
         :: -> isotropic ES            0.094801732358 Eh    ::
         :: -> anisotropic ES         -0.005421523180 Eh    ::
         :: -> anisotropic XC          0.034051275090 Eh    ::
         :: -> dispersion             -0.043696435007 Eh    ::
         :: repulsion energy           0.703098181460 Eh    ::
         :: add. restraining           0.000000000000 Eh    ::
         :: total charge              -0.000000000000 e     ::
         :::::::::::::::::::::::::::::::::::::::::::::::::::::

           -------------------------------------------------
          |                Property Printout                |
           -------------------------------------------------

    * Orbital Energies and Occupations

         #    Occupation            Energy/Eh            Energy/eV
      -------------------------------------------------------------
         1        2.0000           -0.7529602             -20.4891
       ...           ...                  ...                  ...
        42        2.0000           -0.4593625             -12.4999
        43        2.0000           -0.4576611             -12.4536
        44        2.0000           -0.4512962             -12.2804
        45        2.0000           -0.4474062             -12.1745
        46        2.0000           -0.4455037             -12.1228
        47        2.0000           -0.4421678             -12.0320
        48        2.0000           -0.4389691             -11.9450
        49        2.0000           -0.4278075             -11.6412
        50        2.0000           -0.4229301             -11.5085
        51        2.0000           -0.4098296             -11.1520
        52        2.0000           -0.3798432             -10.3361
        53        2.0000           -0.3564214              -9.6987
        54        2.0000           -0.3527111              -9.5978 (HOMO)
        55                         -0.2639132              -7.1814 (LUMO)
        56                         -0.2523658              -6.8672
        57                         -0.1629973              -4.4354
        58                         -0.1329385              -3.6174
        59                         -0.1106610              -3.0112
        60                         -0.1013231              -2.7571
        61                         -0.0742590              -2.0207
        62                          0.0129895               0.3535
        63                          0.0293755               0.7993
        64                          0.0317523               0.8640
        65                          0.0500863               1.3629
       ...                                ...                  ...
       107                          1.2646782              34.4136
      -------------------------------------------------------------
                  HL-Gap            0.0887979 Eh            2.4163 eV
             Fermi-level           -0.3083122 Eh           -8.3896 eV

     #   Z          covCN         q      C6AA      α(0)
     1   6 C        3.751    -0.114    22.739     6.800
     2   6 C        3.870     0.082    19.183     6.228
     3   8 O        1.655    -0.267    18.449     5.798
     4  15 P        4.307     0.493   140.150    21.266
     5  16 S        0.924    -0.451   159.059    21.332
     6   8 O        1.655    -0.249    18.139     5.749
     7   6 C        3.904     0.083    19.157     6.221
     8   6 C        3.751    -0.117    22.796     6.809
     9   8 O        1.664    -0.247    18.112     5.745
    10   6 C        3.237     0.255    22.005     7.610
    11   6 C        2.908    -0.091    30.280     9.023
    12   6 C        2.963     0.124    25.285     8.248
    13   7 N        1.845    -0.265    27.733     7.805
    14   6 C        2.954     0.194    23.876     8.015
    15   7 N        1.988    -0.274    27.905     7.834
    16   6 C        3.859    -0.018    20.864     6.496
    17   6 C        3.758    -0.107    22.606     6.779
    18   6 C        3.758    -0.104    22.547     6.770
    19   6 C        3.760    -0.123    22.901     6.822
    20   1 H        0.925     0.057     2.240     2.340
    21   1 H        0.925     0.057     2.229     2.335
    22   1 H        0.925     0.058     2.222     2.331
    23   1 H        0.924     0.061     2.192     2.315
    24   1 H        0.924     0.061     2.190     2.314
    25   1 H        0.924     0.064     2.149     2.293
    26   1 H        0.924     0.063     2.165     2.301
    27   1 H        0.925     0.059     2.210     2.325
    28   1 H        0.925     0.060     2.198     2.318
    29   1 H        0.925     0.061     2.189     2.314
    30   1 H        0.926     0.056     2.250     2.346
    31   1 H        0.924     0.054     2.276     2.359
    32   1 H        0.925     0.065     2.137     2.286
    33   1 H        0.925     0.045     2.383     2.414
    34   1 H        0.925     0.040     2.444     2.445
    35   1 H        0.925     0.036     2.506     2.476
    36   1 H        0.925     0.047     2.357     2.401
    37   1 H        0.925     0.049     2.327     2.385
    38   1 H        0.925     0.068     2.113     2.273
    39   1 H        0.925     0.062     2.174     2.306
    40   1 H        0.925     0.075     2.027     2.226

 Mol. C6AA /au·bohr⁶  :      18489.172833
 Mol. C8AA /au·bohr⁸  :     486870.458450
 Mol. α(0) /au        :        210.453161


Wiberg/Mayer (AO) data.
largest (>0.10) Wiberg bond orders for each atom

 ---------------------------------------------------------------------------
     #   Z sym  total        # sym  WBO       # sym  WBO       # sym  WBO
 ---------------------------------------------------------------------------
     1   6 C    3.992 --     2 C    1.021    21 H    0.984    20 H    0.982
                            22 H    0.977
     2   6 C    3.915 --     1 C    1.021    24 H    0.971    23 H    0.967
                             3 O    0.915
     3   8 O    2.374 --     4 P    1.268     2 C    0.915
     4  15 P    5.418 --     5 S    1.518     6 O    1.285     3 O    1.268
                             9 O    1.125
     5  16 S    1.793 --     4 P    1.518
     6   8 O    2.393 --     4 P    1.285     7 C    0.907
     7   6 C    3.910 --     8 C    1.021    26 H    0.971    25 H    0.966
                             6 O    0.907
     8   6 C    3.991 --     7 C    1.021    28 H    0.984    27 H    0.981
                            29 H    0.977
     9   8 O    2.434 --     4 P    1.125    10 C    1.021
    10   6 C    3.924 --    15 N    1.384    11 C    1.365     9 O    1.021
    11   6 C    3.981 --    12 C    1.403    10 C    1.365    30 H    0.966
                            14 C    0.104
    12   6 C    3.968 --    11 C    1.403    13 N    1.386    19 C    1.031
    13   7 N    3.056 --    14 C    1.418    12 C    1.386
    14   6 C    3.952 --    13 N    1.418    15 N    1.357    16 C    0.998
                            11 C    0.104
    15   7 N    3.130 --    10 C    1.384    14 C    1.357
    16   6 C    3.992 --    14 C    0.998    18 C    0.990    17 C    0.988
                            31 H    0.967
    17   6 C    3.991 --    16 C    0.988    34 H    0.987    33 H    0.984
                            32 H    0.981
    18   6 C    3.994 --    16 C    0.990    35 H    0.988    36 H    0.984
                            37 H    0.983
    19   6 C    3.992 --    12 C    1.031    40 H    0.982    39 H    0.968
                            38 H    0.960
    20   1 H    0.996 --     1 C    0.982
    21   1 H    0.997 --     1 C    0.984
    22   1 H    0.997 --     1 C    0.977
    23   1 H    0.996 --     2 C    0.967
    24   1 H    0.996 --     2 C    0.971
    25   1 H    0.996 --     7 C    0.966
    26   1 H    0.995 --     7 C    0.971
    27   1 H    0.996 --     8 C    0.981
    28   1 H    0.996 --     8 C    0.984
    29   1 H    0.996 --     8 C    0.977
    30   1 H    0.997 --    11 C    0.966
    31   1 H    0.997 --    16 C    0.967
    32   1 H    0.996 --    17 C    0.981
    33   1 H    0.997 --    17 C    0.984
    34   1 H    0.998 --    17 C    0.987
    35   1 H    0.999 --    18 C    0.988
    36   1 H    0.997 --    18 C    0.984
    37   1 H    0.998 --    18 C    0.983
    38   1 H    0.995 --    19 C    0.960
    39   1 H    0.996 --    19 C    0.968
    40   1 H    0.994 --    19 C    0.982
 ---------------------------------------------------------------------------

Topologies differ in total number of bonds
Writing topology from bond orders to xtbtopo.mol

molecular dipole:
                 x           y           z       tot (Debye)
 q only:        0.063      -0.134      -0.807
   full:       -0.024      -0.784      -1.421       4.126
molecular quadrupole (traceless):
                xx          xy          yy          xz          yz          zz
 q only:        8.813      -2.759       9.646       1.696      -5.237     -18.459
  q+dip:        5.417      -2.286      12.146       4.291      -4.801     -17.563
   full:        4.594      -2.763      11.997       3.394      -6.207     -16.591


           -------------------------------------------------
          | TOTAL ENERGY              -60.392689312470 Eh   |
          | GRADIENT NORM               0.024271205616 Eh/α |
          | HOMO-LUMO GAP               2.416313750230 eV   |
           -------------------------------------------------

------------------------------------------------------------------------
 * finished run on 2025/04/03 at 17:49:48.432     
------------------------------------------------------------------------
 total:
 * wall-time:     0 d,  0 h,  0 min,  0.076 sec
 *  cpu-time:     0 d,  0 h,  0 min,  0.043 sec
 * ratio c/w:     0.562 speedup
 SCF:
 * wall-time:     0 d,  0 h,  0 min,  0.045 sec
 *  cpu-time:     0 d,  0 h,  0 min,  0.033 sec
 * ratio c/w:     0.732 speedup

