      -----------------------------------------------------------      
     |                   =====================                   |     
     |                           x T B                           |     
     |                   =====================                   |     
     |                         S. Grimme                         |     
     |          Mulliken Center for Theoretical Chemistry        |     
     |                    University of Bonn                     |     
      -----------------------------------------------------------      

   * xtb version 6.7.1 (edcfbbe) compiled by 'albert@albert-system' on 2024-07-22

   xtb is free software: you can redistribute it and/or modify it under
   the terms of the GNU Lesser General Public License as published by
   the Free Software Foundation, either version 3 of the License, or
   (at your option) any later version.
   
   xtb is distributed in the hope that it will be useful,
   but WITHOUT ANY WARRANTY; without even the implied warranty of
   MERCHANTABILITY or FITNESS FOR A PARTICULAR PURPOSE.  See the
   GNU Lesser General Public License for more details.
   
   Cite this work as:
   * C. Bannwarth, E. Caldeweyher, S. Ehlert, A. Hansen, P. Pracht,
     J. Seibert, S. Spicher, S. Grimme, WIREs Comput. Mol. Sci., 2020, 11,
     e01493. DOI: 10.1002/wcms.1493
   
   for GFN2-xTB:
   * C. Bannwarth, S. Ehlert and S. Grimme., J. Chem. Theory Comput., 2019,
     15, 1652-1671. DOI: 10.1021/acs.jctc.8b01176
   for GFN1-xTB:
   * S. Grimme, C. Bannwarth, P. Shushkov, J. Chem. Theory Comput., 2017,
     13, 1989-2009. DOI: 10.1021/acs.jctc.7b00118
   for GFN0-xTB:
   * P. Pracht, E. Caldeweyher, S. Ehlert, S. Grimme, ChemRxiv, 2019, preprint.
     DOI: 10.26434/chemrxiv.8326202.v1
   for GFN-FF:
   * S. Spicher and S. Grimme, Angew. Chem. Int. Ed., 2020, 59, 15665-15673.
     DOI: 10.1002/anie.202004239
   
   for ALPB and GBSA implicit solvation:
   * S. Ehlert, M. Stahn, S. Spicher, S. Grimme, J. Chem. Theory Comput.,
     2021, 17, 4250-4261. DOI: 10.1021/acs.jctc.1c00471
   
   for ddCOSMO and CPCM-X implicit solvation:
   * M. Stahn, S. Ehlert, S. Grimme, J. Phys. Chem. A,
     2023, XX, XXXX-XXXX. DOI: 10.1021/acs.jpca.3c04382
   
   for DFT-D4:
   * E. Caldeweyher, C. Bannwarth and S. Grimme, J. Chem. Phys., 2017,
     147, 034112. DOI: 10.1063/1.4993215
   * E. Caldeweyher, S. Ehlert, A. Hansen, H. Neugebauer, S. Spicher,
     C. Bannwarth and S. Grimme, J. Chem. Phys., 2019, 150, 154122.
     DOI: 10.1063/1.5090222
   * E. Caldeweyher, J.-M. Mewes, S. Ehlert and S. Grimme, Phys. Chem. Chem. Phys.
     2020, 22, 8499-8512. DOI: 10.1039/D0CP00502A
   
   for sTDA-xTB:
   * S. Grimme and C. Bannwarth, J. Chem. Phys., 2016, 145, 054103.
     DOI: 10.1063/1.4959605
   
   in the mass-spec context:
   * V. Asgeirsson, C. Bauer and S. Grimme, Chem. Sci., 2017, 8, 4879.
     DOI: 10.1039/c7sc00601b
   * J. Koopman and S. Grimme, ACS Omega 2019, 4, 12, 15120-15133.
     DOI: 10.1021/acsomega.9b02011
   
   for metadynamics refer to:
   * S. Grimme, J. Chem. Theory Comput., 2019, 155, 2847-2862
     DOI: 10.1021/acs.jctc.9b00143
   
   for SPH calculations refer to:
   * S. Spicher and S. Grimme, J. Chem. Theory Comput., 2021, 17, 1701-1714
     DOI: 10.1021/acs.jctc.0c01306
   
   for ONIOM refer to:
   * C. Plett, A. Katbashev, S. Ehlert, S. Grimme, M. Bursch,
     Phys. Chem. Chem. Phys., 2023, 25, 17860-17868. DOI: 10.1039/D3CP02178E
   
   for DIPRO refer to:
   * J. Kohn, N. Gildemeister, S. Grimme, D. Fazzi, A. Hansen,
     J. Chem. Phys., 2023, just accepted.
   
   for PTB refer to:
   * S. Grimme, M. Mueller, A. Hansen, J. Chem. Phys., 2023, 158, 124111.
     DOI: 10.1063/5.0137838
   
   with help from (in alphabetical order)
   P. Atkinson, C. Bannwarth, F. Bohle, G. Brandenburg, E. Caldeweyher
   M. Checinski, S. Dohm, S. Ehlert, S. Ehrlich, I. Gerasimov, C. Hölzer
   A. Katbashev, J. Kohn, J. Koopman, C. Lavigne, S. Lehtola, F. März, M. Müller,
   F. Musil, H. Neugebauer, J. Pisarek, C. Plett, P. Pracht, F. Pultar,
   J. Seibert, P. Shushkov, S. Spicher, M. Stahn, M. Steiner, T. Strunk,
   J. Stückrath, T. Rose, and J. Unsleber
   
 * started run on 2025/04/03 at 17:02:52.326     
   ID    Z sym.   atoms
    1    6 C      1-10
    2    8 O      11
    3    1 H      12-33

           -------------------------------------------------
          |                Calculation Setup                |
           -------------------------------------------------

          program call               : /srv/scratch/z5358697/.xtb/bin/xtb gas.coord --gfn2 --sp --chrg 0 --norestart --parallel 1
          hostname                   : k140
          coordinate file            : gas.coord
          omp threads                :                     1


           -------------------------------------------------
          |                 G F N 2 - x T B                 |
           -------------------------------------------------

        Reference                      10.1021/acs.jctc.8b01176
      * Hamiltonian:
        H0-scaling (s, p, d)           1.850000    2.230000    2.230000
        zeta-weighting                 0.500000
      * Dispersion:
        s8                             2.700000
        a1                             0.520000
        a2                             5.000000
        s9                             5.000000
      * Repulsion:
        kExp                           1.500000    1.000000
        rExp                           1.000000
      * Coulomb:
        alpha                          2.000000
        third order                    shell-resolved
        anisotropic                    true
        a3                             3.000000
        a5                             4.000000
        cn-shift                       1.200000
        cn-exp                         4.000000
        max-rad                        5.000000


          ...................................................
          :                      SETUP                      :
          :.................................................:
          :  # basis functions                  66          :
          :  # atomic orbitals                  66          :
          :  # shells                           44          :
          :  # electrons                        68          :
          :  max. iterations                   250          :
          :  Hamiltonian                  GFN2-xTB          :
          :  restarted?                      false          :
          :  GBSA solvation                  false          :
          :  PC potential                    false          :
          :  electronic temp.          300.0000000     K    :
          :  accuracy                    1.0000000          :
          :  -> integral cutoff          0.2500000E+02      :
          :  -> integral neglect         0.1000000E-07      :
          :  -> SCF convergence          0.1000000E-05 Eh   :
          :  -> wf. convergence          0.1000000E-03 e    :
          :  Broyden damping             0.4000000          :
          :  net charge                          0          :
          :  unpaired electrons                  0          :
          ...................................................

 iter      E             dE          RMSdq      gap      omega  full diag
   1    -37.1182197 -0.371182E+02  0.286E+00   12.23       0.0  T
   2    -37.1975014 -0.792818E-01  0.155E+00   11.82       1.0  T
   3    -37.1987036 -0.120218E-02  0.730E-01   11.92       1.0  T
   4    -37.1989832 -0.279551E-03  0.983E-02   11.96       1.0  T
   5    -37.1990179 -0.347429E-04  0.559E-02   11.97       1.0  T
   6    -37.1990202 -0.231085E-05  0.674E-03   11.97       2.6  T
   7    -37.1990204 -0.164065E-06  0.325E-03   11.97       5.4  T
   8    -37.1990204 -0.191404E-07  0.806E-04   11.97      21.6  T
   9    -37.1990204 -0.845858E-09  0.313E-04   11.97      55.6  T

   *** convergence criteria satisfied after 9 iterations ***

         #    Occupation            Energy/Eh            Energy/eV
      -------------------------------------------------------------
         1        2.0000           -0.6835362             -18.6000
       ...           ...                  ...                  ...
        28        2.0000           -0.4346500             -11.8274
        29        2.0000           -0.4310111             -11.7284
        30        2.0000           -0.4263876             -11.6026
        31        2.0000           -0.4203735             -11.4389
        32        2.0000           -0.4157366             -11.3128
        33        2.0000           -0.4141976             -11.2709
        34        2.0000           -0.4034718             -10.9790 (HOMO)
        35                          0.0364630               0.9922 (LUMO)
        36                          0.0708556               1.9281
        37                          0.0789653               2.1488
        38                          0.0912793               2.4838
        39                          0.0944858               2.5711
       ...                                ...                  ...
        66                          0.3211540               8.7390
      -------------------------------------------------------------
                  HL-Gap            0.4399349 Eh           11.9712 eV
             Fermi-level           -0.1835044 Eh           -4.9934 eV

 SCC (total)                   0 d,  0 h,  0 min,  0.029 sec
 SCC setup                      ...        0 min,  0.000 sec (  0.674%)
 Dispersion                     ...        0 min,  0.000 sec (  0.664%)
 classical contributions        ...        0 min,  0.000 sec (  0.123%)
 integral evaluation            ...        0 min,  0.002 sec (  8.518%)
 iterations                     ...        0 min,  0.016 sec ( 54.025%)
 molecular gradient             ...        0 min,  0.010 sec ( 35.379%)
 printout                       ...        0 min,  0.000 sec (  0.578%)

         :::::::::::::::::::::::::::::::::::::::::::::::::::::
         ::                     SUMMARY                     ::
         :::::::::::::::::::::::::::::::::::::::::::::::::::::
         :: total energy             -36.705099844193 Eh    ::
         :: gradient norm              0.005437096638 Eh/a0 ::
         :: HOMO-LUMO gap             11.971237655197 eV    ::
         ::.................................................::
         :: SCC energy               -37.198857472953 Eh    ::
         :: -> isotropic ES            0.029538890400 Eh    ::
         :: -> anisotropic ES          0.009602677526 Eh    ::
         :: -> anisotropic XC          0.016752379255 Eh    ::
         :: -> dispersion             -0.022495671889 Eh    ::
         :: repulsion energy           0.493757628761 Eh    ::
         :: add. restraining           0.000000000000 Eh    ::
         :: total charge              -0.000000000000 e     ::
         :::::::::::::::::::::::::::::::::::::::::::::::::::::

           -------------------------------------------------
          |                Property Printout                |
           -------------------------------------------------

    * Orbital Energies and Occupations

         #    Occupation            Energy/Eh            Energy/eV
      -------------------------------------------------------------
         1        2.0000           -0.6835362             -18.6000
       ...           ...                  ...                  ...
        22        2.0000           -0.4701150             -12.7925
        23        2.0000           -0.4661294             -12.6840
        24        2.0000           -0.4573887             -12.4462
        25        2.0000           -0.4488394             -12.2135
        26        2.0000           -0.4466727             -12.1546
        27        2.0000           -0.4365800             -11.8799
        28        2.0000           -0.4346500             -11.8274
        29        2.0000           -0.4310111             -11.7284
        30        2.0000           -0.4263876             -11.6026
        31        2.0000           -0.4203735             -11.4389
        32        2.0000           -0.4157366             -11.3128
        33        2.0000           -0.4141976             -11.2709
        34        2.0000           -0.4034718             -10.9790 (HOMO)
        35                          0.0364630               0.9922 (LUMO)
        36                          0.0708556               1.9281
        37                          0.0789653               2.1488
        38                          0.0912793               2.4838
        39                          0.0944858               2.5711
        40                          0.0993832               2.7044
        41                          0.1173286               3.1927
        42                          0.1218718               3.3163
        43                          0.1252779               3.4090
        44                          0.1360239               3.7014
        45                          0.1387149               3.7746
       ...                                ...                  ...
        66                          0.3211540               8.7390
      -------------------------------------------------------------
                  HL-Gap            0.4399349 Eh           11.9712 eV
             Fermi-level           -0.1835044 Eh           -4.9934 eV

     #   Z          covCN         q      C6AA      α(0)
     1   6 C        3.751    -0.100    22.476     6.761
     2   6 C        3.799    -0.053    21.523     6.605
     3   6 C        3.801    -0.058    21.617     6.620
     4   6 C        3.801    -0.058    21.618     6.620
     5   6 C        3.801    -0.059    21.628     6.621
     6   6 C        3.801    -0.059    21.628     6.621
     7   6 C        3.801    -0.060    21.653     6.625
     8   6 C        3.802    -0.061    21.673     6.628
     9   6 C        3.800    -0.071    21.866     6.658
    10   6 C        3.674     0.079    19.479     6.325
    11   8 O        1.654    -0.445    21.735     6.293
    12   1 H        0.925     0.033     2.550     2.497
    13   1 H        0.925     0.034     2.532     2.488
    14   1 H        0.925     0.030     2.585     2.514
    15   1 H        0.924     0.031     2.576     2.510
    16   1 H        0.924     0.026     2.638     2.540
    17   1 H        0.924     0.027     2.636     2.539
    18   1 H        0.924     0.029     2.606     2.525
    19   1 H        0.925     0.035     2.510     2.478
    20   1 H        0.924     0.027     2.629     2.536
    21   1 H        0.925     0.034     2.531     2.488
    22   1 H        0.924     0.028     2.609     2.526
    23   1 H        0.924     0.029     2.598     2.520
    24   1 H        0.924     0.029     2.604     2.524
    25   1 H        0.924     0.033     2.542     2.493
    26   1 H        0.924     0.028     2.620     2.531
    27   1 H        0.924     0.032     2.553     2.499
    28   1 H        0.924     0.038     2.473     2.459
    29   1 H        0.924     0.029     2.596     2.519
    30   1 H        0.924     0.043     2.403     2.424
    31   1 H        0.924     0.017     2.781     2.608
    32   1 H        0.924     0.047     2.352     2.398
    33   1 H        0.805     0.283     0.773     1.381

 Mol. C6AA /au·bohr⁶  :       7294.290496
 Mol. C8AA /au·bohr⁸  :     151913.373911
 Mol. α(0) /au        :        126.376913


Wiberg/Mayer (AO) data.
largest (>0.10) Wiberg bond orders for each atom

 ---------------------------------------------------------------------------
     #   Z sym  total        # sym  WBO       # sym  WBO       # sym  WBO
 ---------------------------------------------------------------------------
     1   6 C    3.997 --     2 C    1.020    12 H    0.988    14 H    0.988
                            13 H    0.986
     2   6 C    3.998 --     1 C    1.020     3 C    1.008    16 H    0.979
                            15 H    0.977
     3   6 C    3.998 --     2 C    1.008     4 C    1.007    17 H    0.978
                            18 H    0.977
     4   6 C    3.998 --     5 C    1.009     3 C    1.007    20 H    0.977
                            19 H    0.973
     5   6 C    3.997 --     4 C    1.009     6 C    1.007    22 H    0.976
                            21 H    0.973
     6   6 C    3.997 --     5 C    1.007     7 C    1.006    24 H    0.978
                            23 H    0.977
     7   6 C    3.998 --     8 C    1.009     6 C    1.006    25 H    0.975
                            26 H    0.975
     8   6 C    3.997 --     7 C    1.009     9 C    1.006    27 H    0.977
                            28 H    0.974
     9   6 C    3.997 --     8 C    1.006    10 C    0.999    29 H    0.977
                            30 H    0.977
    10   6 C    3.955 --     9 C    0.999    11 O    0.996    32 H    0.973
                            31 H    0.970
    11   8 O    1.957 --    10 C    0.996    33 H    0.905
    12   1 H    0.999 --     1 C    0.988
    13   1 H    0.999 --     1 C    0.986
    14   1 H    0.999 --     1 C    0.988
    15   1 H    0.999 --     2 C    0.977
    16   1 H    0.999 --     2 C    0.979
    17   1 H    0.999 --     3 C    0.978
    18   1 H    0.999 --     3 C    0.977
    19   1 H    0.999 --     4 C    0.973
    20   1 H    0.999 --     4 C    0.977
    21   1 H    0.999 --     5 C    0.973
    22   1 H    0.999 --     5 C    0.976
    23   1 H    0.999 --     6 C    0.977
    24   1 H    0.999 --     6 C    0.978
    25   1 H    0.999 --     7 C    0.975
    26   1 H    0.999 --     7 C    0.975
    27   1 H    0.999 --     8 C    0.977
    28   1 H    0.999 --     8 C    0.974
    29   1 H    0.999 --     9 C    0.977
    30   1 H    0.998 --     9 C    0.977
    31   1 H    1.000 --    10 C    0.970
    32   1 H    0.998 --    10 C    0.973
    33   1 H    0.920 --    11 O    0.905
 ---------------------------------------------------------------------------

Topologies differ in total number of bonds
Writing topology from bond orders to xtbtopo.mol

molecular dipole:
                 x           y           z       tot (Debye)
 q only:        0.550      -0.037      -0.277
   full:        0.672      -0.092      -0.444       2.059
molecular quadrupole (traceless):
                xx          xy          yy          xz          yz          zz
 q only:       -9.001      -0.254       5.416       4.427       1.802       3.585
  q+dip:      -12.855      -1.218       6.934       6.189       3.110       5.921
   full:      -12.259      -0.562       7.084       6.364       2.927       5.176


           -------------------------------------------------
          | TOTAL ENERGY              -36.705099844193 Eh   |
          | GRADIENT NORM               0.005437096638 Eh/α |
          | HOMO-LUMO GAP              11.971237655197 eV   |
           -------------------------------------------------

------------------------------------------------------------------------
 * finished run on 2025/04/03 at 17:02:52.395     
------------------------------------------------------------------------
 total:
 * wall-time:     0 d,  0 h,  0 min,  0.069 sec
 *  cpu-time:     0 d,  0 h,  0 min,  0.033 sec
 * ratio c/w:     0.479 speedup
 SCF:
 * wall-time:     0 d,  0 h,  0 min,  0.029 sec
 *  cpu-time:     0 d,  0 h,  0 min,  0.023 sec
 * ratio c/w:     0.787 speedup

