      -----------------------------------------------------------      
     |                   =====================                   |     
     |                           x T B                           |     
     |                   =====================                   |     
     |                         S. Grimme                         |     
     |          Mulliken Center for Theoretical Chemistry        |     
     |                    University of Bonn                     |     
      -----------------------------------------------------------      

   * xtb version 6.7.1 (edcfbbe) compiled by 'albert@albert-system' on 2024-07-22

   xtb is free software: you can redistribute it and/or modify it under
   the terms of the GNU Lesser General Public License as published by
   the Free Software Foundation, either version 3 of the License, or
   (at your option) any later version.
   
   xtb is distributed in the hope that it will be useful,
   but WITHOUT ANY WARRANTY; without even the implied warranty of
   MERCHANTABILITY or FITNESS FOR A PARTICULAR PURPOSE.  See the
   GNU Lesser General Public License for more details.
   
   Cite this work as:
   * C. Bannwarth, E. Caldeweyher, S. Ehlert, A. Hansen, P. Pracht,
     J. Seibert, S. Spicher, S. Grimme, WIREs Comput. Mol. Sci., 2020, 11,
     e01493. DOI: 10.1002/wcms.1493
   
   for GFN2-xTB:
   * C. Bannwarth, S. Ehlert and S. Grimme., J. Chem. Theory Comput., 2019,
     15, 1652-1671. DOI: 10.1021/acs.jctc.8b01176
   for GFN1-xTB:
   * S. Grimme, C. Bannwarth, P. Shushkov, J. Chem. Theory Comput., 2017,
     13, 1989-2009. DOI: 10.1021/acs.jctc.7b00118
   for GFN0-xTB:
   * P. Pracht, E. Caldeweyher, S. Ehlert, S. Grimme, ChemRxiv, 2019, preprint.
     DOI: 10.26434/chemrxiv.8326202.v1
   for GFN-FF:
   * S. Spicher and S. Grimme, Angew. Chem. Int. Ed., 2020, 59, 15665-15673.
     DOI: 10.1002/anie.202004239
   
   for ALPB and GBSA implicit solvation:
   * S. Ehlert, M. Stahn, S. Spicher, S. Grimme, J. Chem. Theory Comput.,
     2021, 17, 4250-4261. DOI: 10.1021/acs.jctc.1c00471
   
   for ddCOSMO and CPCM-X implicit solvation:
   * M. Stahn, S. Ehlert, S. Grimme, J. Phys. Chem. A,
     2023, XX, XXXX-XXXX. DOI: 10.1021/acs.jpca.3c04382
   
   for DFT-D4:
   * E. Caldeweyher, C. Bannwarth and S. Grimme, J. Chem. Phys., 2017,
     147, 034112. DOI: 10.1063/1.4993215
   * E. Caldeweyher, S. Ehlert, A. Hansen, H. Neugebauer, S. Spicher,
     C. Bannwarth and S. Grimme, J. Chem. Phys., 2019, 150, 154122.
     DOI: 10.1063/1.5090222
   * E. Caldeweyher, J.-M. Mewes, S. Ehlert and S. Grimme, Phys. Chem. Chem. Phys.
     2020, 22, 8499-8512. DOI: 10.1039/D0CP00502A
   
   for sTDA-xTB:
   * S. Grimme and C. Bannwarth, J. Chem. Phys., 2016, 145, 054103.
     DOI: 10.1063/1.4959605
   
   in the mass-spec context:
   * V. Asgeirsson, C. Bauer and S. Grimme, Chem. Sci., 2017, 8, 4879.
     DOI: 10.1039/c7sc00601b
   * J. Koopman and S. Grimme, ACS Omega 2019, 4, 12, 15120-15133.
     DOI: 10.1021/acsomega.9b02011
   
   for metadynamics refer to:
   * S. Grimme, J. Chem. Theory Comput., 2019, 155, 2847-2862
     DOI: 10.1021/acs.jctc.9b00143
   
   for SPH calculations refer to:
   * S. Spicher and S. Grimme, J. Chem. Theory Comput., 2021, 17, 1701-1714
     DOI: 10.1021/acs.jctc.0c01306
   
   for ONIOM refer to:
   * C. Plett, A. Katbashev, S. Ehlert, S. Grimme, M. Bursch,
     Phys. Chem. Chem. Phys., 2023, 25, 17860-17868. DOI: 10.1039/D3CP02178E
   
   for DIPRO refer to:
   * J. Kohn, N. Gildemeister, S. Grimme, D. Fazzi, A. Hansen,
     J. Chem. Phys., 2023, just accepted.
   
   for PTB refer to:
   * S. Grimme, M. Mueller, A. Hansen, J. Chem. Phys., 2023, 158, 124111.
     DOI: 10.1063/5.0137838
   
   with help from (in alphabetical order)
   P. Atkinson, C. Bannwarth, F. Bohle, G. Brandenburg, E. Caldeweyher
   M. Checinski, S. Dohm, S. Ehlert, S. Ehrlich, I. Gerasimov, C. Hölzer
   A. Katbashev, J. Kohn, J. Koopman, C. Lavigne, S. Lehtola, F. März, M. Müller,
   F. Musil, H. Neugebauer, J. Pisarek, C. Plett, P. Pracht, F. Pultar,
   J. Seibert, P. Shushkov, S. Spicher, M. Stahn, M. Steiner, T. Strunk,
   J. Stückrath, T. Rose, and J. Unsleber
   
 * started run on 2025/04/03 at 17:02:52.470     
   ID    Z sym.   atoms
    1    6 C      1-10
    2    8 O      11
    3    1 H      12-33

           -------------------------------------------------
          |                Calculation Setup                |
           -------------------------------------------------

          program call               : /srv/scratch/z5358697/.xtb/bin/xtb solv.coord --gfn2 --sp --chrg 0 --norestart --parallel 1 --alpb water reference -I xtb_sp-xcontrol-inp
          hostname                   : k140
          coordinate file            : solv.coord
          omp threads                :                     1


           -------------------------------------------------
          |                 G F N 2 - x T B                 |
           -------------------------------------------------

        Reference                      10.1021/acs.jctc.8b01176
      * Hamiltonian:
        H0-scaling (s, p, d)           1.850000    2.230000    2.230000
        zeta-weighting                 0.500000
      * Dispersion:
        s8                             2.700000
        a1                             0.520000
        a2                             5.000000
        s9                             5.000000
      * Repulsion:
        kExp                           1.500000    1.000000
        rExp                           1.000000
      * Coulomb:
        alpha                          2.000000
        third order                    shell-resolved
        anisotropic                    true
        a3                             3.000000
        a5                             4.000000
        cn-shift                       1.200000
        cn-exp                         4.000000
        max-rad                        5.000000

      * Solvation model:               ALPB
        Solvent                        water
        Parameter file                 internal GFN2-xTB/ALPB
        Dielectric constant                8.0200E+01
        Reference state                gsolv=reference [X=1]
        Free energy shift                  2.8945E-03 Eh       1.8164E+00 kcal/mol
        Temperature                        2.9815E+02 K
        Density                            1.0000E+00 kg/L
        Solvent mass                       1.8000E+01 g/mol
        Interaction kernel             P16
        Born radius scaling (c1)           1.4744E+00
        Born radii integrator          GBOBC
        Born offset                        0.0000E+00 a0       0.0000E+00 AA
        H-bond correction              true
        Ion screening                  false
        Surface tension                    1.0000E-05 Eh       1.5569E+01 dyn/cm
        Grid points                               974 per atom

          ...................................................
          :                      SETUP                      :
          :.................................................:
          :  # basis functions                  66          :
          :  # atomic orbitals                  66          :
          :  # shells                           44          :
          :  # electrons                        68          :
          :  max. iterations                   250          :
          :  Hamiltonian                  GFN2-xTB          :
          :  restarted?                      false          :
          :  GBSA solvation                   true          :
          :  PC potential                    false          :
          :  electronic temp.          300.0000000     K    :
          :  accuracy                    1.0000000          :
          :  -> integral cutoff          0.2500000E+02      :
          :  -> integral neglect         0.1000000E-07      :
          :  -> SCF convergence          0.1000000E-05 Eh   :
          :  -> wf. convergence          0.1000000E-03 e    :
          :  Broyden damping             0.4000000          :
          :  net charge                          0          :
          :  unpaired electrons                  0          :
          ...................................................

 iter      E             dE          RMSdq      gap      omega  full diag
   1    -37.1434380 -0.371434E+02  0.288E+00   12.14       0.0  T
   2    -37.2027686 -0.593306E-01  0.155E+00   11.99       1.0  T
   3    -37.2043894 -0.162080E-02  0.625E-01   11.97       1.0  T
   4    -37.2046661 -0.276729E-03  0.974E-02   11.98       1.0  T
   5    -37.2046916 -0.254592E-04  0.559E-02   11.98       1.0  T
   6    -37.2046949 -0.334405E-05  0.793E-03   11.99       2.2  T
   7    -37.2046951 -0.234025E-06  0.416E-03   11.99       4.2  T
   8    -37.2046952 -0.573424E-07  0.157E-03   11.99      11.1  T
   9    -37.2046952 -0.814332E-08  0.501E-04   11.99      34.7  T
  10    -37.2046952 -0.148884E-08  0.148E-04   11.99     117.4  T

   *** convergence criteria satisfied after 10 iterations ***

         #    Occupation            Energy/Eh            Energy/eV
      -------------------------------------------------------------
         1        2.0000           -0.6873548             -18.7039
       ...           ...                  ...                  ...
        28        2.0000           -0.4312649             -11.7353
        29        2.0000           -0.4274526             -11.6316
        30        2.0000           -0.4227273             -11.5030
        31        2.0000           -0.4173709             -11.3572
        32        2.0000           -0.4120998             -11.2138
        33        2.0000           -0.4108184             -11.1789
        34        2.0000           -0.4028122             -10.9611 (HOMO)
        35                          0.0376641               1.0249 (LUMO)
        36                          0.0742716               2.0210
        37                          0.0823251               2.2402
        38                          0.0947985               2.5796
        39                          0.0991616               2.6983
       ...                                ...                  ...
        66                          0.3250663               8.8455
      -------------------------------------------------------------
                  HL-Gap            0.4404764 Eh           11.9860 eV
             Fermi-level           -0.1825741 Eh           -4.9681 eV

 SCC (total)                   0 d,  0 h,  0 min,  0.033 sec
 SCC setup                      ...        0 min,  0.002 sec (  6.070%)
 Dispersion                     ...        0 min,  0.000 sec (  0.698%)
 classical contributions        ...        0 min,  0.000 sec (  0.136%)
 integral evaluation            ...        0 min,  0.003 sec (  8.993%)
 iterations                     ...        0 min,  0.019 sec ( 58.785%)
 molecular gradient             ...        0 min,  0.008 sec ( 24.840%)
 printout                       ...        0 min,  0.000 sec (  0.441%)

         :::::::::::::::::::::::::::::::::::::::::::::::::::::
         ::                     SUMMARY                     ::
         :::::::::::::::::::::::::::::::::::::::::::::::::::::
         :: total energy             -36.710774631095 Eh    ::
         :: total w/o Gsasa/hb       -36.707992102786 Eh    ::
         :: gradient norm              0.000163561443 Eh/a0 ::
         :: HOMO-LUMO gap             11.985972033715 eV    ::
         ::.................................................::
         :: SCC energy               -37.204532259856 Eh    ::
         :: -> isotropic ES            0.038851175793 Eh    ::
         :: -> anisotropic ES          0.008622151341 Eh    ::
         :: -> anisotropic XC          0.016991495974 Eh    ::
         :: -> dispersion             -0.022421135774 Eh    ::
         :: -> Gsolv                  -0.007582753128 Eh    ::
         ::    -> Gelec               -0.004800224819 Eh    ::
         ::    -> Gsasa                0.000317005782 Eh    ::
         ::    -> Ghb                 -0.005994083252 Eh    ::
         ::    -> Gshift               0.002894549160 Eh    ::
         :: repulsion energy           0.493757628761 Eh    ::
         :: add. restraining           0.000000000000 Eh    ::
         :: total charge              -0.000000000000 e     ::
         :::::::::::::::::::::::::::::::::::::::::::::::::::::

           -------------------------------------------------
          |                Property Printout                |
           -------------------------------------------------

    * Orbital Energies and Occupations

         #    Occupation            Energy/Eh            Energy/eV
      -------------------------------------------------------------
         1        2.0000           -0.6873548             -18.7039
       ...           ...                  ...                  ...
        22        2.0000           -0.4666755             -12.6989
        23        2.0000           -0.4626369             -12.5890
        24        2.0000           -0.4542797             -12.3616
        25        2.0000           -0.4454091             -12.1202
        26        2.0000           -0.4433435             -12.0640
        27        2.0000           -0.4334442             -11.7946
        28        2.0000           -0.4312649             -11.7353
        29        2.0000           -0.4274526             -11.6316
        30        2.0000           -0.4227273             -11.5030
        31        2.0000           -0.4173709             -11.3572
        32        2.0000           -0.4120998             -11.2138
        33        2.0000           -0.4108184             -11.1789
        34        2.0000           -0.4028122             -10.9611 (HOMO)
        35                          0.0376641               1.0249 (LUMO)
        36                          0.0742716               2.0210
        37                          0.0823251               2.2402
        38                          0.0947985               2.5796
        39                          0.0991616               2.6983
        40                          0.1031764               2.8076
        41                          0.1211189               3.2958
        42                          0.1252606               3.4085
        43                          0.1287381               3.5031
        44                          0.1394477               3.7946
        45                          0.1423984               3.8749
       ...                                ...                  ...
        66                          0.3250663               8.8455
      -------------------------------------------------------------
                  HL-Gap            0.4404764 Eh           11.9860 eV
             Fermi-level           -0.1825741 Eh           -4.9681 eV

     #   Z          covCN         q      C6AA      α(0)
     1   6 C        3.751    -0.108    22.617     6.782
     2   6 C        3.799    -0.057    21.607     6.618
     3   6 C        3.801    -0.062    21.695     6.632
     4   6 C        3.801    -0.062    21.683     6.630
     5   6 C        3.801    -0.062    21.684     6.630
     6   6 C        3.801    -0.063    21.709     6.634
     7   6 C        3.801    -0.064    21.722     6.636
     8   6 C        3.802    -0.063    21.718     6.635
     9   6 C        3.800    -0.077    21.963     6.673
    10   6 C        3.674     0.080    19.475     6.324
    11   8 O        1.654    -0.523    23.396     6.530
    12   1 H        0.925     0.035     2.510     2.477
    13   1 H        0.925     0.037     2.493     2.469
    14   1 H        0.925     0.033     2.538     2.492
    15   1 H        0.924     0.032     2.554     2.499
    16   1 H        0.924     0.028     2.619     2.531
    17   1 H        0.924     0.028     2.622     2.532
    18   1 H        0.924     0.031     2.577     2.511
    19   1 H        0.925     0.038     2.477     2.461
    20   1 H        0.924     0.029     2.601     2.522
    21   1 H        0.925     0.035     2.517     2.481
    22   1 H        0.924     0.029     2.596     2.519
    23   1 H        0.924     0.032     2.565     2.505
    24   1 H        0.924     0.031     2.578     2.511
    25   1 H        0.924     0.037     2.485     2.465
    26   1 H        0.924     0.029     2.597     2.520
    27   1 H        0.924     0.033     2.543     2.494
    28   1 H        0.924     0.041     2.430     2.438
    29   1 H        0.924     0.040     2.445     2.445
    30   1 H        0.924     0.045     2.381     2.413
    31   1 H        0.924     0.021     2.717     2.578
    32   1 H        0.924     0.042     2.428     2.437
    33   1 H        0.805     0.354     0.579     1.196

 Mol. C6AA /au·bohr⁶  :       7282.091420
 Mol. C8AA /au·bohr⁸  :     151971.349439
 Mol. α(0) /au        :        126.217045


Wiberg/Mayer (AO) data.
largest (>0.10) Wiberg bond orders for each atom

 ---------------------------------------------------------------------------
     #   Z sym  total        # sym  WBO       # sym  WBO       # sym  WBO
 ---------------------------------------------------------------------------
     1   6 C    3.997 --     2 C    1.020    12 H    0.988    14 H    0.987
                            13 H    0.985
     2   6 C    3.998 --     1 C    1.020     3 C    1.008    16 H    0.979
                            15 H    0.977
     3   6 C    3.997 --     2 C    1.008     4 C    1.007    17 H    0.977
                            18 H    0.977
     4   6 C    3.997 --     5 C    1.009     3 C    1.007    20 H    0.977
                            19 H    0.973
     5   6 C    3.997 --     4 C    1.009     6 C    1.007    22 H    0.976
                            21 H    0.973
     6   6 C    3.997 --     5 C    1.007     7 C    1.006    24 H    0.977
                            23 H    0.977
     7   6 C    3.997 --     8 C    1.009     6 C    1.006    26 H    0.975
                            25 H    0.975
     8   6 C    3.996 --     7 C    1.009     9 C    1.006    27 H    0.977
                            28 H    0.974
     9   6 C    3.996 --     8 C    1.006    10 C    0.999    30 H    0.976
                            29 H    0.976
    10   6 C    3.951 --     9 C    0.999    11 O    0.991    32 H    0.974
                            31 H    0.970
    11   8 O    1.907 --    10 C    0.991    33 H    0.861
    12   1 H    0.999 --     1 C    0.988
    13   1 H    0.999 --     1 C    0.985
    14   1 H    0.999 --     1 C    0.987
    15   1 H    0.999 --     2 C    0.977
    16   1 H    0.999 --     2 C    0.979
    17   1 H    0.999 --     3 C    0.977
    18   1 H    0.999 --     3 C    0.977
    19   1 H    0.999 --     4 C    0.973
    20   1 H    0.999 --     4 C    0.977
    21   1 H    0.999 --     5 C    0.973
    22   1 H    0.999 --     5 C    0.976
    23   1 H    0.999 --     6 C    0.977
    24   1 H    0.999 --     6 C    0.977
    25   1 H    0.999 --     7 C    0.975
    26   1 H    0.999 --     7 C    0.975
    27   1 H    0.999 --     8 C    0.977
    28   1 H    0.998 --     8 C    0.974
    29   1 H    0.998 --     9 C    0.976
    30   1 H    0.998 --     9 C    0.976
    31   1 H    1.000 --    10 C    0.970
    32   1 H    0.998 --    10 C    0.974
    33   1 H    0.875 --    11 O    0.861
 ---------------------------------------------------------------------------

Topologies differ in total number of bonds
Writing topology from bond orders to xtbtopo.mol

molecular dipole:
                 x           y           z       tot (Debye)
 q only:        0.621      -0.158      -0.394
   full:        0.714      -0.170      -0.517       2.281
molecular quadrupole (traceless):
                xx          xy          yy          xz          yz          zz
 q only:      -10.587       0.752       6.635       5.848       2.180       3.953
  q+dip:      -13.841      -0.556       7.702       7.072       3.385       6.139
   full:      -13.237       0.114       7.855       7.252       3.192       5.381


           -------------------------------------------------
          | TOTAL ENERGY              -36.710774631095 Eh   |
          | GRADIENT NORM               0.000163561443 Eh/α |
          | HOMO-LUMO GAP              11.985972033715 eV   |
           -------------------------------------------------

------------------------------------------------------------------------
 * finished run on 2025/04/03 at 17:02:52.544     
------------------------------------------------------------------------
 total:
 * wall-time:     0 d,  0 h,  0 min,  0.073 sec
 *  cpu-time:     0 d,  0 h,  0 min,  0.034 sec
 * ratio c/w:     0.459 speedup
 SCF:
 * wall-time:     0 d,  0 h,  0 min,  0.033 sec
 *  cpu-time:     0 d,  0 h,  0 min,  0.024 sec
 * ratio c/w:     0.714 speedup

