40
CONF168
C -4.4578377086 -2.3644553364 0.6535984910
C -4.7482984806 -0.9504718048 0.1953174680
O -3.6290310346 -0.3711370677 -0.5005831845
P -2.2622971257 -0.0342651539 0.2379193811
S -2.4866716268 0.7066058016 2.0435689283
O -1.5592447729 0.9147498190 -0.8266097330
C -2.0874383143 2.2437931835 -1.0612212348
C -0.9584026808 3.1414258174 -1.5219009792
S -1.0784978792 -1.7592834392 0.0180543944
C 0.3692797738 -1.1408883309 0.9895307976
H -0.0274751863 -0.4569169871 1.7529293230
C 1.0571281828 -2.3356727506 1.6235297677
Cl 2.4205524166 -1.7467727907 2.6167652466
N 1.2313696576 -0.3787702131 0.1442351095
C 1.9490805301 -0.8954979531 -0.9381318462
O 1.9596269913 -2.0600929393 -1.2590831352
C 2.6297284045 0.2606015851 -1.5456683855
C 3.4895554837 0.3284760547 -2.6228326955
C 3.9878451745 1.5819068864 -2.9718236066
C 3.6337923943 2.7188460603 -2.2617050146
C 2.7659661122 2.6506363285 -1.1739766652
C 2.2696568016 1.4097790905 -0.8291164319
C 1.3484564482 1.0073884872 0.2462045849
O 0.7740519731 1.6758104999 1.0755185366
H -5.3607421279 -2.8019044166 1.0671835798
H -4.1099991898 -2.9685889733 -0.1804269280
H -3.6861359314 -2.3517433219 1.4221468607
H -4.9904354745 -0.3110508059 1.0501025203
H -5.5557634502 -0.9183718754 -0.5370678707
H -2.8680209237 2.1526481766 -1.8196500232
H -2.5283971667 2.6128277118 -0.1287507945
H -0.4719108055 2.7117294610 -2.3932939316
H -1.3631326584 4.1156319615 -1.7759424126
H -0.2284744783 3.2537260868 -0.7248402906
H 0.3695588404 -2.8652350259 2.2791692911
H 1.4609356044 -3.0020855137 0.8624555592
H 3.7598248883 -0.5625419441 -3.1662623933
H 4.6621228511 1.6665522557 -3.8090381588
H 4.0360943342 3.6755132557 -2.5542068741
H 2.4899159655 3.5307212162 -0.6156402791
40
CONF166
C -4.4826378900 -2.3183011234 0.6561186087
C -4.7505219176 -0.8984414698 0.2024103008
O -3.6214087283 -0.3342058610 -0.4901912167
P -2.2500288692 -0.0242360957 0.2510052591
S -2.4627324769 0.7035568029 2.0633698625
O -1.5330304242 0.9252399268 -0.8045984539
C -2.0523712179 2.2586715795 -1.0355023769
C -0.9090617443 3.1648312699 -1.4409364056
S -1.0920164373 -1.7642329938 0.0136394683
C 0.3710956212 -1.1705620520 0.9770627687
H -0.0115549107 -0.5010455881 1.7601542918
C 1.0636693683 -2.3810206702 1.5754573573
Cl 2.4440227499 -1.8184336440 2.5606052759
N 1.2241745215 -0.3943101658 0.1352891249
C 1.9125977818 -0.8890651535 -0.9759964486
O 1.9037524272 -2.0449496633 -1.3271355193
C 2.5923677085 0.2758839177 -1.5673530332
C 3.4260766972 0.3648863764 -2.6633963691
C 3.9303656043 1.6221199719 -2.9893227454
C 3.6080064928 2.7422060037 -2.2384669932
C 2.7666017569 2.6526885273 -1.1317208457
C 2.2636806593 1.4082496312 -0.8101664735
C 1.3620206071 0.9865759224 0.2743856035
O 0.8159176833 1.6380763284 1.1356554931
H -3.7108916661 -2.3201295413 1.4248059372
H -5.3924007626 -2.7426984370 1.0682644316
H -4.1442751168 -2.9251973499 -0.1797748271
H -4.9834069050 -0.2583560980 1.0592471178
H -5.5565367648 -0.8509678298 -0.5307306669
H -2.8053838600 2.1794150678 -1.8225046232
H -2.5264023656 2.6126900299 -0.1135092499
H -0.3938450704 2.7525872845 -2.3042834385
H -1.3056814341 4.1439811310 -1.6887330387
H -0.2057102068 3.2614320858 -0.6182251241
H 0.3838671220 -2.9222886075 2.2296583007
H 1.4535118776 -3.0322948803 0.7942356188
H 3.6720739201 -0.5131383224 -3.2385848434
H 4.5840649595 1.7232064291 -3.8409173988
H 4.0141930162 3.7023044164 -2.5138592762
H 2.5148145681 3.5193859638 -0.5418947884
40
CONF459
C -5.6779742746 -0.5223244603 0.6796147421
C -4.5626976724 -1.3583186546 0.0827741297
O -3.5561840502 -0.5067590019 -0.5079549398
P -2.1978081366 -0.1662466567 0.2433725543
S -2.3864352354 0.3423646618 2.1308712835
O -1.5707962691 0.9229493452 -0.7245005479
C -2.1403401806 2.2565253674 -0.7753266207
C -1.0340857049 3.2497914865 -1.0616780092
S -0.9827384002 -1.8357344844 -0.1671949522
C 0.4657982527 -1.3050327693 0.8566722168
H 0.0641432127 -0.7131032182 1.6913526682
C 1.1771901038 -2.5488092704 1.3550313819
Cl 2.5386253443 -2.0457080474 2.3957256234
N 1.3038348080 -0.4427291076 0.0878741689
C 2.0263662763 -0.8299417453 -1.0446924618
O 2.0770493797 -1.9587538626 -1.4720352667
C 2.6523542641 0.4030576074 -1.5512454794
C 3.4912308444 0.6033641880 -2.6285022891
C 3.9290418017 1.9035478160 -2.8715057373
C 3.5374629268 2.9570114417 -2.0595725846
C 2.6915953479 2.7550841913 -0.9711462215
C 2.2552054167 1.4678202372 -0.7311946183
C 1.3663327618 0.9328641954 0.3124641167
O 0.7754411123 1.4995513906 1.2034789571
H -6.1020886768 0.1317491777 -0.0767880607
H -6.4516643400 -1.1801197663 1.0619229490
H -5.2927376136 0.0842570090 1.4964468800
H -4.9214359460 -1.9788793305 -0.7399133213
H -4.0992401077 -1.9906301096 0.8442180742
H -2.8952928856 2.2512890145 -1.5640865959
H -2.6191640647 2.4680347572 0.1866191414
H -0.5142702271 2.9767537939 -1.9759913902
H -1.4673548927 4.2385319531 -1.1718808025
H -0.3258044390 3.2587831136 -0.2374366995
H 0.5027949628 -3.1553659509 1.9555102417
H 1.5853655027 -3.1244512293 0.5253167032
H 3.7901717412 -0.2234561907 -3.2524427805
H 4.5845410864 2.0913402795 -3.7068594924
H 3.8920985959 3.9528289786 -2.2722147906
H 2.3857625464 3.5697086751 -0.3346082887
40
CONF457
C -5.6768587069 -0.4398029809 0.6886471972
C -4.5767416126 -1.3024653253 0.1016925738
O -3.5519517143 -0.4745449211 -0.4913731094
P -2.1860387015 -0.1621842486 0.2581712591
S -2.3616127492 0.3301354471 2.1511693108
O -1.5453073209 0.9275872149 -0.7007381849
C -2.1082777787 2.2643381587 -0.7481393276
C -0.9917361728 3.2586073932 -0.9871118440
S -0.9962701473 -1.8440833319 -0.1745414942
C 0.4680822658 -1.3357985565 0.8375944843
H 0.0809400988 -0.7620097714 1.6915023613
C 1.1866002085 -2.5909148841 1.2960119396
Cl 2.5627371560 -2.1126411416 2.3291220517
N 1.2951042995 -0.4576525542 0.0745998994
C 1.9861509717 -0.8183519883 -1.0859066179
O 2.0150265513 -1.9349102204 -1.5463215712
C 2.6128839755 0.4227337959 -1.5712730590
C 3.4265878467 0.6468775584 -2.6630652439
C 3.8739533954 1.9488979541 -2.8770728322
C 3.5163385369 2.9809349035 -2.0230236824
C 2.6955215515 2.7549950480 -0.9202446217
C 2.2491107776 1.4660826879 -0.7093487193
C 1.3791341688 0.9096529934 0.3391278747
O 0.8166640385 1.4557324411 1.2608024475
H -6.4657799117 -1.0788895979 1.0715500923
H -5.2822730193 0.1633647985 1.5035783054
H -6.0839115269 0.2184045197 -0.0735300766
H -4.9450170270 -1.9219194804 -0.7175739234
H -4.1284445646 -1.9378123563 0.8696274639
H -2.8394548053 2.2727386470 -1.5588790171
H -2.6147772746 2.4636202127 0.2021233347
H -0.4477112947 2.9995956595 -1.8914138294
H -1.4190752719 4.2504695835 -1.0923479657
H -0.3060243851 3.2516871962 -0.1438777298
H 0.5209059437 -3.2123278504 1.8909630048
H 1.5827829976 -3.1460866328 0.4467409336
H 3.6995123261 -0.1634975546 -3.3196516105
H 4.5102381889 2.1551218779 -3.7228709657
H 3.8781700771 3.9786439327 -2.2135043647
H 2.4158876824 3.5527155844 -0.2510966407
40
CONF458
C -5.6468506564 -0.6376928824 0.8121008932
C -4.5949352003 -1.2436163864 -0.0964034826
O -3.5982749608 -0.2570560832 -0.4437750942
P -2.1930851595 -0.1875271495 0.2957173283
S -2.2694747237 -0.2803410899 2.2559284318
O -1.5782765460 1.1349182491 -0.3278689174
C -2.0968228952 2.4311507152 0.0668792051
C -0.9706870859 3.4420425374 0.0179324201
S -1.0584606799 -1.6705463289 -0.6766436590
C 0.4532930221 -1.5143951373 0.3809130764
H 0.1110353763 -1.2060127733 1.3790115745
C 1.1420920785 -2.8653094434 0.4269607799
Cl 2.5694274108 -2.7393237799 1.4929280292
N 1.2857593733 -0.4710758441 -0.1244486760
C 1.4037830560 0.7644507415 0.5129674387
O 0.8664240639 1.0377011876 1.5621633989
C 2.2705747617 1.5794021393 -0.3529695148
C 2.7434269619 2.8670606700 -0.2000018959
C 3.5551424358 3.3801960967 -1.2093028007
C 3.8784236474 2.6249391364 -2.3262020069
C 3.4037372734 1.3241061795 -2.4802382275
C 2.5988452986 0.8157385158 -1.4812187151
C 1.9498309986 -0.5001661758 -1.3544983502
O 1.9443785389 -1.4395205546 -2.1140882002
H -5.1960360094 -0.3349903953 1.7547771723
H -6.0946265188 0.2317298027 0.3394101186
H -6.4164749794 -1.3768371615 1.0092921617
H -5.0208362148 -1.5572803991 -1.0508072493
H -4.1074577051 -2.0951250706 0.3849869493
H -2.8974198514 2.6813283334 -0.6321260356
H -2.5081601408 2.3488691756 1.0784982489
H -1.3706791111 4.4271129841 0.2349385181
H -0.2175826704 3.1896809424 0.7596318948
H -0.5138819036 3.4444097175 -0.9680179484
H 0.4755861896 -3.6155348539 0.8467249940
H 1.4886800172 -3.1611698796 -0.5623700226
H 2.4911867613 3.4482489916 0.6723432602
H 3.9374483136 4.3841730204 -1.1171150753
H 4.5090475559 3.0497404624 -3.0908051690
H 3.6497233124 0.7273391651 -3.3437753165
40
CONF460
C -5.9538276853 -0.4510474613 -0.1454787184
C -4.6137994756 -1.1028429572 0.1310708419
O -3.5761436468 -0.1836194488 -0.2709867095
P -2.1413154864 -0.1800929090 0.4091417150
S -2.1833083564 -0.3093975280 2.3685876764
O -1.5016785433 1.1352377221 -0.2060218873
C -2.0027619597 2.4352005633 0.2011544398
C -0.8525412432 3.4193669871 0.2238399609
S -1.0864639296 -1.6751522847 -0.6284476692
C 0.4712359163 -1.5622808327 0.3659433576
H 0.1761437999 -1.2944350438 1.3901765601
C 1.1578677530 -2.9145559656 0.3242322141
Cl 2.6272626142 -2.8370781739 1.3365491720
N 1.2826299228 -0.5004075737 -0.1349723594
C 1.4586096555 0.6982371327 0.5571293938
O 0.9975898356 0.9197683682 1.6537261754
C 2.2734270476 1.5509581954 -0.3230444110
C 2.7691432122 2.8255246211 -0.1363075783
C 3.5098990516 3.3878543840 -1.1735613408
C 3.7430560913 2.6923769902 -2.3501715122
C 3.2471016139 1.4039582263 -2.5377094102
C 2.5126534429 0.8467948391 -1.5107561569
C 1.8622646694 -0.4703085550 -1.4069262869
O 1.7977592768 -1.3706672436 -2.2097417775
H -6.0641344515 0.4497101244 0.4518190638
H -6.0282665367 -0.1894837817 -1.1969592834
H -6.7458110624 -1.1474888697 0.1092458398
H -4.4874114786 -2.0201540294 -0.4483841978
H -4.4887221327 -1.3262957394 1.1958759730
H -2.7675079678 2.7216857255 -0.5233883676
H -2.4570658788 2.3392057090 1.1929592845
H -0.3645288613 3.4465653282 -0.7466916633
H -1.2363917179 4.4053878827 0.4645648601
H -0.1290043319 3.1227157728 0.9787398564
H 0.5068517389 -3.6824821766 0.7362943806
H 1.4633641191 -3.1658295328 -0.6906828361
H 2.5861847837 3.3600562064 0.7819065465
H 3.9071423733 4.3833802873 -1.0563569994
H 4.3190400102 3.1548390711 -3.1357613628
H 3.4239627372 0.8532960059 -3.4475287805
40
CONF500
C -5.8747528524 -1.4974364340 -1.1354319003
C -4.4132852967 -1.7292061870 -0.8103842715
O -3.8883228875 -0.5081840792 -0.2441418512
P -2.5407005542 -0.5015653082 0.5922649425
S -2.4217734338 -1.7834334778 2.0631362566
O -2.4509734095 0.9839727254 1.0947240584
C -2.5805377982 2.1332605931 0.2169636256
C -1.9129556524 3.3082183065 0.9003115037
S -1.0515904687 -0.7276793069 -0.9211533444
C 0.3799442437 -0.8303440243 0.2521280446
H 0.0274224285 -0.4231050045 1.2096843366
C 0.7815727382 -2.2847959685 0.3952969608
Cl 2.1571341129 -2.3905554740 1.5262801809
N 1.4337663348 0.0154739468 -0.2010246594
C 1.6817134116 1.2601772293 0.3814383077
O 1.0371917089 1.7135251214 1.2999261242
C 2.8142569988 1.8302151350 -0.3621795909
C 3.4901726099 3.0222670312 -0.1972186235
C 4.5398909043 3.2935624786 -1.0722370618
C 4.8915692381 2.4000211540 -2.0723810057
C 4.2083893686 1.1971154807 -2.2402117504
C 3.1694574079 0.9266880571 -1.3733997158
C 2.2683589856 -0.2359604098 -1.2951910251
O 2.2019274972 -1.2149148988 -1.9991071826
H -5.9732798670 -0.6758456536 -1.8386831090
H -6.2882229957 -2.3990423024 -1.5750040876
H -6.4244774997 -1.2554443473 -0.2302201398
H -3.8333355529 -1.9618375135 -1.7070662803
H -4.2858136823 -2.5344045561 -0.0798053813
H -2.1037022157 1.8963401685 -0.7389848649
H -3.6457303688 2.3067468391 0.0558025095
H -1.9572848792 4.1746903395 0.2487126912
H -2.4177001013 3.5313958116 1.8356383140
H -0.8740322295 3.0707170499 1.1190644655
H -0.0401187429 -2.8597512119 0.8225204514
H 1.1010115987 -2.7003076563 -0.5597370956
H 3.2096095343 3.7109599360 0.5833535757
H 5.0870084518 4.2168745089 -0.9678344127
H 5.7085775923 2.6384652553 -2.7344998542
H 4.4735819866 0.4961562079 -3.0151164875
40
CONF698
C -2.1900492018 1.8283665008 2.6874137724
C -2.3778939910 1.7778127403 1.1852949261
O -2.4002631670 0.3934713721 0.7925456154
P -2.6010736739 -0.0108427012 -0.7376164106
S -4.0673964924 0.9112397681 -1.6483574409
O -2.6928531414 -1.5904250488 -0.6377257163
C -3.9707830647 -2.2585463452 -0.5376046106
C -4.6376093442 -1.9917090907 0.7945635326
S -0.6891424137 0.2041784725 -1.6080519232
C 0.2804423092 -0.7917769361 -0.3658339654
H -0.3374059681 -0.8669705524 0.5359803222
C 0.5607738322 -2.1548872001 -0.9662255643
Cl 1.4576405234 -3.1366938423 0.2256708091
N 1.4608740059 -0.0762250684 -0.0096707205
C 2.5284718321 0.1922386106 -0.8706260387
O 2.5919236912 -0.1805182276 -2.0184647232
C 3.4788348667 0.9920102125 -0.0791521969
C 4.7111356997 1.5124314611 -0.4175271485
C 5.3912725513 2.2435363157 0.5543838464
C 4.8499280902 2.4413475305 1.8154006989
C 3.6059439421 1.9158814165 2.1584240929
C 2.9319956493 1.1913758074 1.1962306043
C 1.6243408359 0.5200092928 1.2434596465
O 0.8084399891 0.4523238013 2.1327932348
H -3.0040010391 1.3074553824 3.1825496144
H -1.2494618833 1.3528771939 2.9545381349
H -2.1753234531 2.8639721023 3.0101734487
H -1.5539331493 2.2772376238 0.6646038344
H -3.3199700593 2.2389136876 0.8717419892
H -4.6040653334 -1.9171017465 -1.3620995889
H -3.7260502893 -3.3134745730 -0.6667733248
H -4.8907482488 -0.9351920196 0.8725111810
H -5.5478054501 -2.5788081090 0.8658493021
H -3.9702611590 -2.2555853366 1.6107227623
H -0.3726776993 -2.6690646580 -1.1862530853
H 1.1782383308 -2.0668793079 -1.8595959908
H 5.1230650939 1.3535439448 -1.4010570512
H 6.3563317979 2.6628417024 0.3184897339
H 5.4000244253 3.0128220764 2.5458578907
H 3.1774641663 2.0649441506 3.1363942512
40
CONF496
C -0.4787740448 3.5466519695 -0.2435068058
C -1.3095432082 2.4219418339 0.3381786378
O -0.9301495383 1.1801285441 -0.3051248684
P -2.0380925150 0.1054917902 -0.6866644866
S -3.5726062338 0.7823164285 -1.6954177870
O -2.3833315577 -0.5151200660 0.7420444935
C -3.5644125594 -1.3132697854 0.9655293691
C -4.6626816015 -0.4685331639 1.5804856999
S -0.8692105335 -1.3339287911 -1.6740323127
C 0.2873601009 -1.8036508530 -0.2879669228
H -0.3287011474 -2.0301498457 0.5888882896
C 1.0582714661 -3.0215055717 -0.7620631360
Cl 2.1174390582 -3.5778633633 0.5650801206
N 1.1261689892 -0.7081289320 0.0635892289
C 0.9920098149 -0.0322787194 1.2799168535
O 0.2368207174 -0.3694717003 2.1615088672
C 1.9351113691 1.0947693713 1.2132548385
C 2.2284044312 2.0779649823 2.1366776342
C 3.1681060454 3.0414114720 1.7761671927
C 3.7876165115 3.0128143938 0.5358120993
C 3.4931010809 2.0195949288 -0.3961053362
C 2.5611857061 1.0660016593 -0.0400524733
C 2.0310377214 -0.0821989777 -0.7952565163
O 2.2784814083 -0.4531523822 -1.9189070245
H -0.7380688426 4.4727070679 0.2590135218
H 0.5799032890 3.3449468701 -0.1052308417
H -0.6821896454 3.6466622108 -1.3064559861
H -2.3775549795 2.5917940748 0.1667076522
H -1.1306271322 2.2921258750 1.4080622691
H -3.8926835938 -1.7462439421 0.0163971854
H -3.2445255351 -2.1055650669 1.6447964802
H -5.5123783481 -1.1022303727 1.8127378894
H -4.3037368719 0.0028042947 2.4909628528
H -4.9759813121 0.3025882715 0.8800264995
H 0.3770809126 -3.8319102879 -1.0116041393
H 1.6910542157 -2.7727555710 -1.6130569646
H 1.7418058660 2.0929042426 3.0986321450
H 3.4153152741 3.8238605839 2.4756118765
H 4.5101242174 3.7728540819 0.2848200175
H 3.9679309323 1.9889253627 -1.3635607880
40
CONF497
C -5.8603218125 -1.4785916823 -1.1898888933
C -4.4090171734 -1.7228327552 -0.8304951128
O -3.8900251354 -0.5083110695 -0.2450488479
P -2.5431893922 -0.5094389948 0.5925423743
S -2.4233712820 -1.8078096936 2.0488644244
O -2.4562311603 0.9702137464 1.1124641302
C -2.5957995609 2.1288035279 0.2484439504
C -1.9278472811 3.2986866696 0.9400289906
S -1.0529834489 -0.7158792583 -0.9226768983
C 0.3789115548 -0.8246128122 0.2496576246
H 0.0272771688 -0.4198222563 1.2085560651
C 0.7787812300 -2.2800142741 0.3880344322
Cl 2.1549408494 -2.3907914234 1.5177347278
N 1.4338931514 0.0209842572 -0.2013119769
C 1.6817572243 1.2650270277 0.3826859482
O 1.0353613011 1.7183293912 1.2998593768
C 2.8173401887 1.8340073773 -0.3570952132
C 3.4948951460 3.0246795867 -0.1889298488
C 4.5483931913 3.2944751910 -1.0598813844
C 4.9022234862 2.4007949575 -2.0591484900
C 4.2171958309 1.1994331304 -2.2304221815
C 3.1744375772 0.9305793384 -1.3677238595
C 2.2710136936 -0.2304936813 -1.2935487162
O 2.2048828153 -1.2082446131 -1.9991637854
H -6.2699805826 -2.3754056345 -1.6426252236
H -6.4298217222 -1.2353776920 -0.2973525673
H -5.9353694384 -0.6538378636 -1.8923533415
H -3.8091942952 -1.9554371418 -1.7140781464
H -4.3045784378 -2.5323715718 -0.1011164906
H -2.1247697281 1.9042898762 -0.7133264540
H -3.6627603518 2.3000149171 0.0967227033
H -1.9817784635 4.1725986920 0.2991598558
H -2.4257849846 3.5083917621 1.8820936713
H -0.8859930272 3.0636853456 1.1471789119
H -0.0432166202 -2.8555108800 0.8139934324
H 1.0972052356 -2.6928835301 -0.5684798761
H 3.2127772131 3.7134104383 0.5910532756
H 5.0970733320 4.2165406758 -0.9527213996
H 5.7224165260 2.6378690584 -2.7178194827
H 4.4839567795 0.4983814070 -3.0047140569
40
CONF98
C -4.6086716046 -1.7146250485 0.8802693409
C -4.6385325327 -0.2024589480 0.8063041780
O -3.5100251277 0.3292273260 0.0848755272
P -2.0226416510 0.1805075346 0.6217306094
S -1.7825928909 0.3845628674 2.5497998749
O -1.2626055217 1.3028119783 -0.2005495325
C -1.4846981556 1.5404643151 -1.6173526430
C -0.9133688431 2.9030107726 -1.9496516480
S -1.3706813839 -1.6607085879 -0.2351882450
C 0.3106951374 -1.6261183110 0.5246404016
H 0.1815220698 -1.4109206543 1.5937846981
C 0.9421772446 -2.9883245948 0.2999772273
Cl 2.5456448940 -3.0148687365 1.0910256176
N 1.0827520843 -0.5554451111 -0.0278664232
C 1.5699551670 0.5064558277 0.7410474783
O 1.4496659139 0.5855913906 1.9407789065
C 2.2306340768 1.4129849772 -0.2122389725
C 2.8653202123 2.6213589941 -0.0095462714
C 3.3959289624 3.2653830293 -1.1257393476
C 3.2927479862 2.7117333920 -2.3930455960
C 2.6533758795 1.4909589579 -2.5980984480
C 2.1262221940 0.8539620835 -1.4928656806
C 1.3882302480 -0.4158183823 -1.3819454371
O 1.0655973512 -1.2039184565 -2.2406870475
H -3.7794133370 -2.0377986889 1.5076822925
H -5.5374958499 -2.0703660345 1.3143052216
H -4.4847820678 -2.1409825878 -0.1120655300
H -4.6396209965 0.2321721389 1.8102789139
H -5.4984483871 0.1589856743 0.2408029968
H -0.9880087822 0.7435148977 -2.1785129194
H -2.5574721595 1.4994957576 -1.8105737134
H -1.4192828901 3.6687215294 -1.3687430209
H 0.1480879641 2.9355981482 -1.7195509140
H -1.0579987322 3.0974573924 -3.0073455144
H 0.3325794584 -3.7691336291 0.7494614511
H 1.0903993212 -3.1759683534 -0.7628826140
H 2.9378240661 3.0432963328 0.9799823468
H 3.8946563000 4.2128231657 -0.9979706272
H 3.7130009833 3.2351581121 -3.2367871121
H 2.5658918295 1.0526646271 -3.5790833520
40
CONF499
C -5.8452494845 -1.4153806981 -1.2745707180
C -4.4075589607 -1.6871582175 -0.8818796711
O -3.8888250409 -0.4919277460 -0.2577086791
P -2.5459464362 -0.5216127744 0.5856532247
S -2.4393978337 -1.8568901791 2.0092960256
O -2.4535980216 0.9435382588 1.1442757616
C -2.5867803045 2.1256022663 0.3115574854
C -1.9204416308 3.2747440066 1.0385644961
S -1.0505573120 -0.6967230260 -0.9282288421
C 0.3783035853 -0.8227198085 0.2462274474
H 0.0267600172 -0.4263096759 1.2086097156
C 0.7737833620 -2.2806098594 0.3702339216
Cl 2.1471479221 -2.4068854699 1.5017107939
N 1.4362885774 0.0239763653 -0.1958526771
C 1.6902829756 1.2603318532 0.4016545407
O 1.0501606954 1.7039358424 1.3278812506
C 2.8232705301 1.8354572251 -0.3374592197
C 3.5029438891 3.0236700758 -0.1606053858
C 4.5516318153 3.3017978276 -1.0347544337
C 4.8991195787 2.4183679917 -2.0453006312
C 4.2121084601 1.2194223433 -2.2252351347
C 3.1738366626 0.9425522841 -1.3596689062
C 2.2685142537 -0.2174687288 -1.2940531411
O 2.1975147937 -1.1875453636 -2.0097547167
H -6.4347557544 -1.1803229500 -0.3929273414
H -5.8900445780 -0.5769364144 -1.9632829318
H -6.2552245677 -2.2977107412 -1.7546568289
H -3.7875655868 -1.9103623919 -1.7539672943
H -4.3330157928 -2.5125220407 -0.1667789556
H -2.1111654931 1.9267363328 -0.6535525772
H -3.6526474035 2.3029343792 0.1591829555
H -1.9741137733 4.1672715197 0.4238684940
H -2.4200961768 3.4560555864 1.9856215246
H -0.8786352366 3.0346381363 1.2400461554
H -0.0506009061 -2.8585957957 0.7882236481
H 1.0932232820 -2.6841692148 -0.5899088237
H 3.2257170895 3.7046121667 0.6279177792
H 5.1014192779 4.2224561657 -0.9213556283
H 5.7156479961 2.6617657321 -2.7062165873
H 4.4737666129 0.5262946562 -3.0083548762
40
CONF492
C -0.5563438903 3.5374896926 0.1777673875
C -1.3847549740 2.3260492142 0.5512977542
O -0.9321873415 1.1921519808 -0.2291014439
P -1.9855437665 0.1401348623 -0.7898020311
S -3.5188088593 0.8917906215 -1.7456565433
O -2.3474645636 -0.6833045159 0.5276715390
C -3.5477611543 -1.4754327948 0.6396882325
C -4.6071990051 -0.7111194947 1.4086538234
S -0.7304574245 -1.1042274175 -1.9245489245
C 0.3858103439 -1.7510526700 -0.5764467962
H -0.2559200638 -2.1629159223 0.2097803825
C 1.2518505377 -2.8222534846 -1.2128626039
Cl 2.2796984356 -3.5516989063 0.0534282103
N 1.1377866258 -0.6936363676 0.0094888682
C 2.0413263546 0.1227834641 -0.6728481351
O 2.3640888245 -0.0277437969 -1.8280341949
C 2.4628335931 1.1440854553 0.3013447248
C 3.3469574976 2.1958626190 0.1715608304
C 3.5324192941 3.0225641664 1.2779474857
C 2.8549301425 2.7958828563 2.4665441757
C 1.9639885726 1.7328861095 2.5986520994
C 1.7784523072 0.9149315211 1.5024126500
C 0.9065314325 -0.2551971369 1.3166007977
O 0.1352614015 -0.7852798122 2.0815432355
H -0.8787139212 4.3829497949 0.7766021162
H 0.4973770305 3.3462472239 0.3606114110
H -0.6942878050 3.7705962469 -0.8747335215
H -2.4457552360 2.4942002027 0.3385180506
H -1.2646379051 2.0577284015 1.6034763762
H -3.9052652046 -1.7334508899 -0.3610522001
H -3.2428644173 -2.3785664129 1.1712614311
H -5.4744296376 -1.3477280997 1.5504620804
H -4.2184147937 -0.4085361278 2.3768571679
H -4.9044587208 0.1744472171 0.8509434247
H 0.6341660019 -3.6089903426 -1.6401987572
H 1.9073436072 -2.3921345327 -1.9690383473
H 3.8669383905 2.3646295197 -0.7576954824
H 4.2144613780 3.8545371370 1.2051623343
H 3.0175524429 3.4543219710 3.3047211178
H 1.4330435856 1.5491615285 3.5188628584
40
CONF90
C -4.3501145065 -1.2429994056 1.9230607355
C -4.4078088081 0.0938994271 1.2130817987
O -3.4640846164 0.1721309613 0.1290621694
P -1.8949550881 0.1949167209 0.3687715476
S -1.3075741206 1.2594382143 1.9141795928
O -1.3494778029 0.7008140056 -1.0362963617
C -1.2058115731 2.1035279317 -1.3404738422
C -2.5416007794 2.8111705629 -1.4228089125
S -1.3749252685 -1.8411531282 0.2543661377
C 0.4027076491 -1.7211878642 0.7687289606
H 0.4280053689 -1.4560023412 1.8326255183
C 1.0183923228 -3.0874277102 0.5169124849
Cl 2.7213906684 -3.0617729140 1.0617295052
N 1.0685246635 -0.6720324451 0.0635661009
C 1.1460806475 -0.5680177859 -1.3266546466
O 0.6866195349 -1.3752703052 -2.0996687829
C 1.8844455392 0.6802542104 -1.5863767859
C 2.2169617403 1.2938662744 -2.7768782439
C 2.9166568621 2.4965280746 -2.7086493701
C 3.2684773820 3.0552779605 -1.4892859922
C 2.9384449259 2.4333340420 -0.2871119589
C 2.2431688810 1.2432164132 -0.3545585754
C 1.7529900205 0.3595871914 0.7165321460
O 1.8929903554 0.4277826122 1.9142943192
H -5.1558983253 -1.3007596801 2.6478331356
H -4.4460751700 -2.0552868983 1.2071135217
H -3.3985987814 -1.3461585806 2.4432135719
H -4.1978916220 0.9095633608 1.9125192936
H -5.3726448618 0.2540638684 0.7303500791
H -0.5725055867 2.5604931783 -0.5717626021
H -0.6848816425 2.1084589154 -2.2993035637
H -3.0044449975 2.8456984389 -0.4377261867
H -2.3868062922 3.8256597762 -1.7765835126
H -3.2024355977 2.2835157257 -2.1052262825
H 0.4935921809 -3.8524647568 1.0848046812
H 1.0115428996 -3.3219314924 -0.5468630573
H 1.9400717367 0.8491659903 -3.7193481849
H 3.1894724830 3.0002199996 -3.6221795859
H 3.8095822938 3.9876845449 -1.4677412155
H 3.2075707560 2.8573944457 0.6669465582
40
CONF526
C -4.9929763724 -0.7939162345 2.0611560956
C -3.5202911515 -0.9582368959 2.3707429329
O -2.7461566668 -1.2184987766 1.1797305291
P -2.5517605249 -0.1184682826 0.0534069264
S -2.3722604362 1.7288681302 0.7023148997
O -3.7805323664 -0.3837801738 -0.9143415478
C -4.1860450614 0.5617386997 -1.9188771519
C -3.1569043161 0.6841772503 -3.0238605341
S -0.9027401947 -0.9835237040 -0.9445816088
C 0.2969173229 -0.7753960560 0.4466890324
H -0.1679473759 -0.1108117486 1.1874595733
C 0.5814983948 -2.1492448360 1.0256113512
Cl 1.6713058429 -1.9748307544 2.4307999601
N 1.4726559221 -0.1116848533 -0.0162522638
C 2.2887521036 -0.5841483905 -1.0452309794
O 2.0955894115 -1.6173932223 -1.6416235054
C 3.3517282184 0.4238276177 -1.1959580268
C 4.4317276467 0.4675215095 -2.0538155273
C 5.2849215603 1.5651841328 -1.9613590949
C 5.0577562967 2.5767262456 -1.0408658304
C 3.9678548825 2.5333865846 -0.1737369569
C 3.1218267786 1.4471178297 -0.2651861841
C 1.9087038466 1.1115308970 0.4990761094
O 1.3558952688 1.7013115795 1.3978658011
H -5.5496493046 -0.7174557981 2.9899552741
H -5.1489423200 0.1133274394 1.4791161309
H -5.3530059668 -1.6453716510 1.4899367767
H -3.3333210050 -1.8292502418 3.0002061300
H -3.1239133069 -0.0581769733 2.8521126026
H -5.1315258614 0.1632834388 -2.2889178141
H -4.3497914261 1.5312654735 -1.4371179094
H -3.5450910095 1.3211156935 -3.8121716284
H -2.2418382703 1.1258223934 -2.6298086784
H -2.9212925879 -0.2958878779 -3.4309356139
H -0.3396980346 -2.6139675841 1.3723279850
H 1.0793082499 -2.7785672939 0.2883847994
H 4.5998733276 -0.3245278266 -2.7655532184
H 6.1374796804 1.6268203980 -2.6187075441
H 5.7355201885 3.4140469034 -0.9925033329
H 3.7820968564 3.3147695158 0.5455730057
40
CONF491
C -0.5554034660 3.5341282926 0.1953552469
C -1.3905949594 2.3254763062 0.5630192600
O -0.9382423910 1.1912366052 -0.2167528495
P -1.9887724333 0.1430484807 -0.7889285540
S -3.5198088067 0.9009340991 -1.7435458428
O -2.3543932356 -0.6921233694 0.5200054758
C -3.5492034924 -1.4945265346 0.6168775128
C -4.6189143848 -0.7463728335 1.3874441672
S -0.7272485668 -1.0913124544 -1.9282198146
C 0.3839091748 -1.7433074326 -0.5783131634
H -0.2615070676 -2.1518049693 0.2066294324
C 1.2460473361 -2.8188700397 -1.2124809550
Cl 2.2668859299 -3.5532258728 0.0566813497
N 1.1396783235 -0.6893837636 0.0090742680
C 2.0511909601 0.1203544961 -0.6706480876
O 2.3780848907 -0.0340336173 -1.8241794274
C 2.4742556817 1.1410672438 0.3034938573
C 3.3661131497 2.1865971805 0.1761391995
C 3.5510257388 3.0146521185 1.2815808729
C 2.8652588927 2.7955437390 2.4668481851
C 1.9667107832 1.7386809586 2.5966254665
C 1.7820774949 0.9190891586 1.5014391226
C 0.9044749929 -0.2465436498 1.3140378782
O 0.1269107121 -0.7706430903 2.0767179368
H 0.4965868105 3.3384425580 0.3834614112
H -0.6868330269 3.7691228684 -0.8575660214
H -0.8774162498 4.3801470693 0.7935795662
H -2.4498506091 2.4978568078 0.3451116090
H -1.2766432246 2.0549506065 1.6153281931
H -3.8989014643 -1.7451751240 -0.3884896846
H -3.2406563597 -2.4007905853 1.1410172319
H -4.9221538298 0.1409767030 0.8358518055
H -5.4806542100 -1.3922071271 1.5208383135
H -4.2365670329 -0.4481146368 2.3595327996
H 0.6255237603 -3.6025908775 -1.6412258201
H 1.9057207060 -2.3922377429 -1.9669847458
H 3.8925540334 2.3494845703 -0.7505123675
H 4.2391951535 3.8417231440 1.2106906550
H 3.0273345479 3.4551606143 3.3042096828
H 1.4293427090 1.5608431071 3.5142479194
40
CONF518
C -4.9467023295 -0.6366432672 2.1328891661
C -3.4728001763 -0.8385916470 2.4133943357
O -2.7359229615 -1.1526635353 1.2120727674
P -2.5243500991 -0.0845329657 0.0586229642
S -2.2689679638 1.7701388889 0.6591036593
O -3.7801683725 -0.3278468930 -0.8798413987
C -4.1687071542 0.6050485823 -1.9025087560
C -3.1522150806 0.6650965490 -3.0242096905
S -0.9275808160 -1.0302166341 -0.9514222671
C 0.2976366248 -0.8827817002 0.4251247465
H -0.1636655887 -0.2785796130 1.2172298749
C 0.6200930020 -2.2850493322 0.9081934361
Cl 1.7409407939 -2.1796279251 2.2959114561
N 1.4497712998 -0.1648864039 -0.0157874253
C 2.2516470283 -0.5471013357 -1.0922922005
O 2.0666410920 -1.5410588298 -1.7543437473
C 3.2903134947 0.4919796565 -1.1946383435
C 4.3493230271 0.6185446431 -2.0702136190
C 5.1826077464 1.7249182314 -1.9189877414
C 4.9566660922 2.6644508779 -0.9248470093
C 3.8880248697 2.5373558376 -0.0397182799
C 3.0616226306 1.4424481187 -0.1893357710
C 1.8740099515 1.0275984572 0.5759556131
O 1.3320198313 1.5386445104 1.5280592689
H -5.4790407186 -0.5192196209 3.0716096814
H -5.0887031835 0.2595779973 1.5305768278
H -5.3454536598 -1.4910098665 1.5926333521
H -3.2973365246 -1.6988639649 3.0607129121
H -3.0380235125 0.0605825995 2.8624194751
H -5.1320503443 0.2290896037 -2.2492221321
H -4.2932717489 1.5912727350 -1.4435532989
H -3.5295559340 1.2960018632 -3.8225409612
H -2.2169205651 1.0840548954 -2.6535577968
H -2.9559919222 -0.3319735638 -3.4103564784
H -0.2844017629 -2.7874888791 1.2458931487
H 1.1104979366 -2.8569520574 0.1209774578
H 4.5164395911 -0.1178849383 -2.8396262557
H 6.0183135065 1.8508426927 -2.5887545714
H 5.6188146779 3.5105075145 -0.8321489456
H 3.7035336478 3.2622726518 0.7367727387
40
CONF585
C -2.9710065451 -3.0243133775 2.2178945015
C -3.9492172347 -1.9733119548 1.7284523762
O -3.7428476474 -1.6597990633 0.3383540583
P -2.8014345476 -0.4817802673 -0.1381578098
S -3.0072270178 1.2179715676 0.8270240612
O -3.2862065584 -0.5033893878 -1.6433158132
C -3.1388966047 0.6134257665 -2.5357531305
C -1.7123055515 0.7744146123 -3.0239181279
S -0.8374043736 -1.3204314085 -0.1340730395
C 0.0843983001 0.0536818583 0.7085022213
H -0.4881485071 0.9741991263 0.5280353559
C 0.1659974176 -0.2430845211 2.1939794432
Cl 1.0888286803 1.0622258490 2.9908026174
N 1.3589169566 0.2177837718 0.0922797237
C 2.4473718676 -0.6486299021 0.2272891997
O 2.4441711263 -1.6583040156 0.8900152209
C 3.5168115611 -0.0632303974 -0.6002297104
C 4.8140706113 -0.4817273124 -0.8141928770
C 5.6070674891 0.2854123408 -1.6652200343
C 5.1108812670 1.4267560254 -2.2764030908
C 3.8009698852 1.8499258098 -2.0617207391
C 3.0158568086 1.0913547041 -1.2173779919
C 1.6188492247 1.2648898032 -0.7936366392
O 0.7989637229 2.0979073361 -1.1069735888
H -1.9515649951 -2.6466230799 2.1984673146
H -3.2280902158 -3.3008628812 3.2355010847
H -3.0259218742 -3.9035286337 1.5821654830
H -3.8759484904 -1.0507486061 2.3151342660
H -4.9748692803 -2.3446879364 1.7706122218
H -3.8152933941 0.3767429576 -3.3585723135
H -3.4796350158 1.5210366481 -2.0269295343
H -1.3269601360 -0.1797692225 -3.3751111775
H -1.6916586123 1.4911611211 -3.8387423964
H -1.0710744528 1.1469209882 -2.2257012989
H -0.8316981788 -0.2460161928 2.6312529115
H 0.6881173069 -1.1803285973 2.3820398146
H 5.1903656918 -1.3711588366 -0.3351161343
H 6.6254572774 -0.0165133442 -1.8510324835
H 5.7486963832 1.9992041295 -2.9308445369
H 3.4056322565 2.7356049340 -2.5324343305
40
CONF540
C -5.1782695045 -1.0906039863 1.7976114359
C -3.7355243639 -1.2548042676 2.2256917240
O -2.8485922134 -1.3951669522 1.0945977276
P -2.5972464252 -0.2090422573 0.0716290035
S -2.5138161011 1.5830932483 0.8772410576
O -3.7421313819 -0.4235257987 -1.0056936089
C -4.0998019089 0.5928862827 -1.9585900566
C -2.9802999191 0.8673105163 -2.9417219322
S -0.8599242660 -0.9615141329 -0.8637532277
C 0.3067928058 -0.5730091222 0.5178483772
H -0.1610983126 0.2132101636 1.1275883243
C 0.5400793138 -1.8426690798 1.3158322080
Cl 1.5875570652 -1.4666085188 2.7132457953
N 1.5122244477 -0.0223135008 -0.0124506148
C 2.3607335015 -0.6908745366 -0.8968447562
O 2.1764631145 -1.8179135472 -1.2925709224
C 3.4439065700 0.2604990199 -1.1961738023
C 4.5586840573 0.1270752701 -1.9985019539
C 5.4225177401 1.2165384490 -2.0885978727
C 5.1717188939 2.3917924096 -1.3971753499
C 4.0467912269 2.5272251339 -0.5861009711
C 3.1902869382 1.4489307789 -0.4968625283
C 1.9410950363 1.2784709880 0.2640764513
O 1.3564197930 2.0421091227 0.9962141708
H -5.8180181189 -1.1095834742 2.6744187578
H -5.3063571288 -0.1373421211 1.2867397450
H -5.4624944083 -1.8932875781 1.1224554675
H -3.5844054451 -2.1750493425 2.7916230700
H -3.4076982866 -0.3937521044 2.8170676275
H -4.9829394824 0.1881332037 -2.4543664101
H -4.3609702164 1.5044236280 -1.4114276196
H -3.3310954854 1.5507613199 -3.7083106530
H -2.1354234192 1.3208073179 -2.4237907559
H -2.6480596299 -0.0587923974 -3.4043111261
H -0.4013078695 -2.2315070432 1.6999801420
H 1.0466271057 -2.5903220182 0.7060722725
H 4.7445695386 -0.7913019152 -2.5316031090
H 6.3019551961 1.1420581906 -2.7081046622
H 5.8583413822 3.2184109787 -1.4868731642
H 3.8427238594 3.4368488238 -0.0444641538
40
CONF601
C -3.1423404126 -3.6766284931 -0.2885715916
C -3.9159014117 -2.6390644786 0.5027551587
O -3.8779804531 -1.3491591351 -0.1358105805
P -2.8043446502 -0.2486191710 0.2359659980
S -2.5101779291 0.0352071936 2.1586067117
O -3.5140977322 0.9208585479 -0.5577118724
C -3.2832417781 2.3131137008 -0.2873643104
C -1.9098119825 2.7685555290 -0.7404750214
S -1.0733803673 -0.7680666521 -0.9048748181
C 0.2289120661 -0.6350690526 0.4092556408
H -0.1979045654 -0.0201957157 1.2149250944
C 0.5631854542 -2.0264626984 0.9145032146
Cl 1.8443591577 -1.8961451895 2.1531649343
N 1.3593126534 0.0645838133 -0.1061621618
C 1.6358350718 1.3860940201 0.2474807918
O 0.9498992013 2.0377880294 1.0019699133
C 2.8553213291 1.7492326307 -0.4891811553
C 3.5842825025 2.9209909413 -0.4994105986
C 4.7116907238 2.9707698852 -1.3163988697
C 5.0865345292 1.8837775097 -2.0911713081
C 4.3498966259 0.7010028067 -2.0819921318
C 3.2336721372 0.6501237929 -1.2724942489
C 2.2622072379 -0.4350384266 -1.0487359050
O 2.1963300326 -1.5332708833 -1.5470916260
H -3.5147154152 -3.7150515611 -1.3082780795
H -2.0827905237 -3.4342617075 -0.3167159675
H -3.2732036408 -4.6478589202 0.1779240976
H -3.5315875352 -2.5415624259 1.5243055030
H -4.9775866917 -2.8901244977 0.5422506816
H -4.0737306177 2.8174099637 -0.8454584701
H -3.4147567795 2.4917573400 0.7846599804
H -1.8600974974 3.8521312953 -0.7016655187
H -1.1392007048 2.3673534844 -0.0829212012
H -1.7208936192 2.4361431382 -1.7585221445
H -0.3066918403 -2.4719349351 1.3947687629
H 0.9414415681 -2.6575276714 0.1112623954
H 3.2838016376 3.7607045402 0.1062978268
H 5.3015619206 3.8729853737 -1.3454209065
H 5.9640579953 1.9530632168 -2.7140235085
H 4.6327510268 -0.1489834039 -2.6817378642
40
CONF587
C -2.9563886702 -3.0039156899 2.2508354927
C -3.9298943721 -1.9478288825 1.7628686579
O -3.7422260692 -1.6568340119 0.3651332871
P -2.8063881296 -0.4861714463 -0.1401315387
S -3.0079571617 1.2300811992 0.7967821751
O -3.3024521937 -0.5356078615 -1.6407024044
C -3.1550351681 0.5637915011 -2.5549109426
C -1.7245573034 0.7296145075 -3.0296657094
S -0.8405464631 -1.3209045069 -0.1376863267
C 0.0793821279 0.0607170713 0.6942884520
H -0.4915357643 0.9798444142 0.5018836377
C 0.1545158218 -0.2207960463 2.1830833367
Cl 1.0766127060 1.0910912894 2.9701286642
N 1.3569661558 0.2176470389 0.0827029053
C 2.4456819419 -0.6452931370 0.2364648400
O 2.4372709129 -1.6497274673 0.9070646149
C 3.5227145464 -0.0643514030 -0.5841910455
C 4.8237825885 -0.4804618379 -0.7786797017
C 5.6251708847 0.2826508403 -1.6254664267
C 5.1330499817 1.4174056213 -2.2519145010
C 3.8190614214 1.8378022289 -2.0573221176
C 3.0258114818 1.0837006831 -1.2166482799
C 1.6237807493 1.2576527821 -0.8095250653
O 0.8056849504 2.0864575361 -1.1380835812
H -3.0361287086 -3.8928335139 1.6315371636
H -1.9324960011 -2.6410194217 2.2045171668
H -3.1966766846 -3.2595683304 3.2779263761
H -3.8361096219 -1.0180133376 2.3350395641
H -4.9591004745 -2.3058691176 1.8277467408
H -3.8192449100 0.3026818153 -3.3803435072
H -3.5109785423 1.4781831189 -2.0691139452
H -1.3254697542 -0.2273003814 -3.3573827557
H -1.7014804191 1.4302926970 -3.8583276890
H -1.0963399917 1.1243520959 -2.2316501164
H -0.8448339080 -0.2175336140 2.6165102237
H 0.6743514972 -1.1568494228 2.3829948800
H 5.1969836872 -1.3645651233 -0.2874723668
H 6.6468994124 -0.0172279389 -1.7956453400
H 5.7772031418 1.9868270915 -2.9027537824
H 3.4270352515 2.7185073754 -2.5399631699
40
CONF527
C -5.0327371297 -0.8742758865 2.0023074417
C -3.5660756118 -1.0404785473 2.3382864457
O -2.7651204288 -1.2646605297 1.1577577390
P -2.5634137219 -0.1392283139 0.0580803820
S -2.4137678873 1.6949701841 0.7511436798
O -3.7725372999 -0.3969964003 -0.9362189545
C -4.1706035511 0.5648849651 -1.9283293281
C -3.1133435082 0.7409476867 -2.9990103816
S -0.8900064918 -0.9666208716 -0.9305680059
C 0.2997005945 -0.7240738559 0.4641340685
H -0.1655935045 -0.0299041184 1.1773833936
C 0.5679807352 -2.0796676225 1.0916525072
Cl 1.6414333841 -1.8655713258 2.5039777085
N 1.4848942904 -0.0882163679 -0.0134916478
C 2.3017607668 -0.6059301596 -1.0199236363
O 2.1028590339 -1.6596146712 -1.5775053940
C 3.3728232211 0.3874321791 -1.2049164801
C 4.4572290636 0.3890302331 -2.0583007713
C 5.3179489198 1.4834168621 -2.0053854599
C 5.0936065823 2.5324701420 -1.1271543449
C 3.9990907995 2.5317118369 -0.2647271709
C 3.1455298337 1.4487217157 -0.3170752936
C 1.9254552305 1.1529576530 0.4527858225
O 1.3703096466 1.7843992421 1.3212715573
H -5.6091389997 -0.8254901206 2.9208714220
H -5.1809024582 0.0478180513 1.4419795335
H -5.3765836455 -1.7113491614 1.4007221583
H -3.3882907309 -1.9276101580 2.9475669826
H -3.1844964080 -0.1521967300 2.8522128800
H -5.0950571802 0.1542157661 -2.3362510913
H -4.3715941093 1.5173649117 -1.4271592712
H -2.2220233928 1.1958095716 -2.5672577577
H -2.8405257810 -0.2223141223 -3.4228398815
H -3.4948523894 1.3876578188 -3.7826282538
H -0.3602029146 -2.5274537408 1.4420650670
H 1.0706995691 -2.7361509315 0.3819700824
H 4.6227845522 -0.4321192300 -2.7368905306
H 6.1740141099 1.5128432909 -2.6604041613
H 5.7771774801 3.3662548293 -1.1089088411
H 3.8156087904 3.3426959215 0.4216490908
40
CONF116
C -4.6141183750 -1.9618006726 0.6421418929
C -4.7066224184 -0.4847912234 0.3199524700
O -3.5212626272 -0.0076084106 -0.3427629432
P -2.1179999906 0.0686560516 0.3985987424
S -2.2352119654 0.6682704429 2.2653961135
O -1.2975332175 0.9976396122 -0.5988288634
C -1.5059228256 2.4312958719 -0.5986016001
C -1.0499492371 2.9684387158 -1.9388051991
S -1.1823760065 -1.7724994619 -0.0030246745
C 0.3881540528 -1.3806289184 0.8970657914
H 0.1065544138 -0.8274186341 1.8036267216
C 1.0732551731 -2.6904222779 1.2378956367
Cl 2.5536502006 -2.3324125665 2.1721049276
N 1.1955577072 -0.5100568756 0.1036898606
C 1.7562499226 -0.8444699188 -1.1326083995
O 1.6932757416 -1.9389753435 -1.6395369667
C 2.3856307729 0.3923298878 -1.6266245218
C 3.0950186782 0.6369983176 -2.7848773497
C 3.5673989800 1.9316568801 -2.9901526373
C 3.3345168977 2.9377313648 -2.0645893711
C 2.6189890947 2.6913897020 -0.8947168515
C 2.1496022708 1.4091054028 -0.6919897077
C 1.3621379202 0.8401937902 0.4125939718
O 0.9162137492 1.3691867135 1.4058730431
H -5.5654740834 -2.3057204551 1.0349068042
H -4.3627993557 -2.5285580869 -0.2507389497
H -3.8404433380 -2.1275422905 1.3909365794
H -4.8497057898 0.0999486207 1.2342651733
H -5.5066346422 -0.2726802592 -0.3903248823
H -2.5666842562 2.6330897056 -0.4276133273
H -0.9271007673 2.8476371787 0.2318296300
H -0.0005102911 2.7359343494 -2.0983629469
H -1.6354512488 2.5183648917 -2.7353638957
H -1.1864365048 4.0447527638 -1.9530561083
H 0.4258576626 -3.3064237035 1.8580239277
H 1.3684485924 -3.2223474884 0.3343972902
H 3.2702036039 -0.1519982648 -3.4982951801
H 4.1235749941 2.1535310138 -3.8868678952
H 3.7111460467 3.9305749232 -2.2517208908
H 2.4309927299 3.4670026569 -0.1696229830
40
CONF89
C -4.4641736024 -1.4378938985 1.4400720732
C -4.4964883050 -0.0820959896 0.7651084421
O -3.4625677525 0.0533377510 -0.2268620166
P -1.9222206979 0.1169270417 0.1519027761
S -1.5092065351 1.1568873152 1.7691292707
O -1.2730542186 0.6790291278 -1.1855128754
C -1.1510158073 2.0934269424 -1.4418886713
C -2.4978243857 2.7626704948 -1.6156829399
S -1.3307675746 -1.8993563228 0.0306220906
C 0.3814153260 -1.7560344151 0.7299919631
H 0.2901162654 -1.5556418818 1.8043429208
C 1.0690452636 -3.0850429529 0.4650008554
Cl 2.7054298122 -3.0407588982 1.1844449289
N 1.0753738941 -0.6456181136 0.1588754696
C 1.6548111097 0.3620448526 0.9393920889
O 1.6750628841 0.3558849340 2.1469251217
C 2.2160639333 1.3263978379 -0.0213077577
C 2.8540592352 2.5320154285 0.1879042742
C 3.2780317350 3.2394168024 -0.9349064464
C 3.0721363486 2.7476877807 -2.2150131108
C 2.4309718060 1.5291384629 -2.4261077540
C 2.0052182749 0.8306852664 -1.3146993105
C 1.2935023808 -0.4550564692 -1.2067237215
O 0.9507325797 -1.2292789842 -2.0690978933
H -4.4702841849 -2.2302952375 0.6959746306
H -3.5616077077 -1.5313704139 2.0426928219
H -5.3308041919 -1.5393256348 2.0854650413
H -4.3735032124 0.7174326847 1.5028314828
H -5.4186487281 0.0671760636 0.2021501656
H -0.5972627258 2.5481464688 -0.6128231973
H -0.5545915499 2.1399242847 -2.3544606470
H -3.0397562887 2.7566214929 -0.6711613313
H -2.3474400351 3.7905969189 -1.9303961292
H -3.0841447394 2.2344114346 -2.3627217653
H 0.5173111662 -3.8988765107 0.9303118921
H 1.1792567240 -3.2542871933 -0.6054500609
H 3.0089872457 2.9033106123 1.1882039458
H 3.7770430777 4.1860589870 -0.8025611469
H 3.4146763926 3.3171653185 -3.0641407036
H 2.2681453430 1.1360725053 -3.4169019801
40
CONF279
C -5.8085711304 -0.0524737050 0.5223574221
C -4.4591729018 -0.6728208111 0.8213242503
O -3.4437448482 0.1772248693 0.2427862192
P -1.9322938251 0.0656063719 0.7104782823
S -1.6249112998 0.1656360138 2.6376140501
O -1.2463401824 1.2496030478 -0.0796689280
C -1.5254743311 1.5548165124 -1.4749534494
C -0.9958593604 2.9459198789 -1.7522916340
S -1.2997648106 -1.7429631568 -0.2287951154
C 0.4094057938 -1.7147976437 0.4674275547
H 0.3176240811 -1.5565849785 1.5502944066
C 1.0572196132 -3.0501131831 0.1481326803
Cl 2.6902095807 -3.0822168954 0.8750652989
N 1.1355163248 -0.6011187586 -0.0607616996
C 1.6398421929 0.4290977678 0.7402766134
O 1.5789136534 0.4412296974 1.9468623088
C 2.2336917784 1.3995245943 -0.1938929349
C 2.8513389688 2.6106376144 0.0424689188
C 3.3121484016 3.3250506854 -1.0618663801
C 3.1587702576 2.8363380639 -2.3506400726
C 2.5369276347 1.6127243716 -2.5898223276
C 2.0786939630 0.9061201170 -1.4961832435
C 1.3741172837 -0.3846859918 -1.4185757525
O 1.0280498362 -1.1348544985 -2.3016959734
H -5.9533655719 0.0260658407 -0.5510491749
H -6.5874271404 -0.6785111395 0.9448349903
H -5.8687831099 0.9393232405 0.9614467529
H -4.3634802580 -1.6646249953 0.3724000938
H -4.2777575082 -0.7452891927 1.8984785931
H -1.0317234739 0.7998853905 -2.0934826653
H -2.6032149829 1.4988416767 -1.6310148196
H 0.0720374700 2.9912860796 -1.5568848240
H -1.1817688990 3.1928464108 -2.7924361201
H -1.4977402135 3.6674599151 -1.1142154146
H 0.4808061527 -3.8655767958 0.5796306036
H 1.1670577961 -3.1799554550 -0.9279826769
H 2.9632139248 2.9817336792 1.0485521721
H 3.7956829365 4.2764140912 -0.9076221025
H 3.5252285094 3.4134794789 -3.1843608310
H 2.4107572959 1.2244588452 -3.5875326924
40
CONF181
C -0.5520146008 3.4824443005 0.9479264335
C -1.3448289783 2.2141200758 1.1873199208
O -1.0024268892 1.2508742886 0.1625245462
P -2.1201687741 0.3013086251 -0.4592024082
S -3.7470050759 1.2032581361 -1.0700903830
O -2.3619300613 -0.7280720074 0.7362134310
C -3.5512415293 -1.5330695760 0.8082078528
C -3.5540448920 -2.6291424526 -0.2383886758
S -0.9673909414 -0.6892346364 -1.9092549251
C 0.2555581128 -1.5416492046 -0.7901143165
H -0.3164444214 -2.0411608646 -0.0008490303
C 1.0117418638 -2.5355813460 -1.6515971029
Cl 2.1283982109 -3.4620189171 -0.6074925518
N 1.1031446305 -0.5923057929 -0.1503810567
C 1.9573574439 0.2929657774 -0.8094841876
O 2.1513065185 0.2978941067 -2.0026920251
C 2.5140594015 1.1607726555 0.2428318325
C 3.4156288645 2.2025103802 0.1621089766
C 3.7461581453 2.8622224090 1.3441739359
C 3.1910760790 2.4848758140 2.5576718671
C 2.2820753052 1.4321988459 2.6398855323
C 1.9526946355 0.7798423031 1.4688976479
C 1.0248345408 -0.3345741151 1.2208900008
O 0.3179248308 -0.9481430508 1.9860137651
H -0.8135157401 3.9059111398 -0.0182121248
H -0.7879621412 4.1984791844 1.7282319849
H 0.5135445442 3.2706354789 0.9624429596
H -2.4216694523 2.4079517204 1.1384573978
H -1.1040303249 1.7564398552 2.1499193872
H -3.5348370905 -1.9366569512 1.8213686220
H -4.4180926100 -0.8771595491 0.6783378440
H -2.6811166628 -3.2673826474 -0.1276497770
H -4.4507586758 -3.2297616787 -0.1244463941
H -3.5489133906 -2.1876875036 -1.2349103763
H 0.3251379720 -3.2386559146 -2.1176956271
H 1.6071803166 -2.0214884170 -2.4048987589
H 3.8402155817 2.4890302815 -0.7865639941
H 4.4455357233 3.6822643566 1.3117186982
H 3.4647477547 3.0159304376 3.4552387498
H 1.8450600288 1.1326167677 3.5788715572
40
CONF182
C -0.5755114303 3.4633087010 1.0002350049
C -1.3679755744 2.1901967680 1.2138628141
O -1.0178357925 1.2449460783 0.1749729083
P -2.1294595278 0.2994418557 -0.4631599655
S -3.7520884683 1.2046263336 -1.0806818704
O -2.3806003479 -0.7400270358 0.7213591474
C -3.5692723967 -1.5473353513 0.7758303482
C -3.5587450568 -2.6371214689 -0.2773207991
S -0.9616333718 -0.6779077966 -1.9102929282
C 0.2538085019 -1.5305295600 -0.7838841071
H -0.3228246359 -2.0210946461 0.0076553480
C 1.0060172184 -2.5349713023 -1.6366947958
Cl 2.1152456843 -3.4600077163 -0.5836808702
N 1.1062389141 -0.5823069425 -0.1486967648
C 1.9699878341 0.2907510382 -0.8116066600
O 2.1661694068 0.2865808137 -2.0044630697
C 2.5336193267 1.1591080620 0.2365780578
C 3.4479979399 2.1892446194 0.1516612569
C 3.7852190592 2.8508546554 1.3307214001
C 3.2238459985 2.4867699659 2.5453729883
C 2.3016553913 1.4459679119 2.6318219246
C 1.9659249442 0.7914449473 1.4638042039
C 1.0270827806 -0.3148719311 1.2206062160
O 0.3122514939 -0.9163972867 1.9880096722
H -0.8330947253 3.9033020512 0.0404262898
H -0.8156306891 4.1653804894 1.7918852162
H 0.4902106518 3.2522084386 1.0158794085
H -2.4448213296 2.3831051000 1.1617920497
H -1.1322519214 1.7164069112 2.1699298101
H -3.5631731076 -1.9569948820 1.7866681457
H -4.4358746793 -0.8921435544 0.6405858713
H -4.4538021145 -3.2421585966 -0.1744812517
H -3.5470533759 -2.1897411432 -1.2710793968
H -2.6840946227 -3.2723280026 -0.1629745736
H 0.3163424121 -3.2374594036 -2.0991142468
H 1.6057598605 -2.0296905078 -2.3925788819
H 3.8776199278 2.4652356326 -0.7978652197
H 4.4953886090 3.6614381143 1.2951120840
H 3.5032420533 3.0187811028 3.4406093430
H 1.8596106959 1.1569554382 3.5717496460
40
CONF180
C -0.5404480546 3.4903987323 0.9220155522
C -1.3342731091 2.2254496308 1.1753694073
O -0.9963868745 1.2523533605 0.1583838136
P -2.1171394855 0.3013687723 -0.4554671177
S -3.7466101287 1.2019921156 -1.0612739763
O -2.3532080236 -0.7247230000 0.7439403219
C -3.5421120731 -1.5295487272 0.8239435784
C -3.5524091901 -2.6256270162 -0.2225775269
S -0.9715801844 -0.6936338792 -1.9082190189
C 0.2558274701 -1.5458077643 -0.7936405172
H -0.3131672698 -2.0501650551 -0.0052899855
C 1.0138674399 -2.5339758546 -1.6601735724
Cl 2.1364051826 -3.4596811878 -0.6219031222
N 1.1012369589 -0.5959963877 -0.1518061372
C 1.9500830964 0.2957759127 -0.8092453101
O 2.1414296981 0.3061136089 -2.0028238705
C 2.5049142334 1.1620710941 0.2452629027
C 3.4009100142 2.2088060797 0.1666795081
C 3.7300993494 2.8660017009 1.3505241549
C 3.1793229291 2.4813017288 2.5636874247
C 2.2760856083 1.4235230885 2.6437452489
C 1.9479002583 0.7737720007 1.4709941323
C 1.0247719320 -0.3440642087 1.2206034798
O 0.3224834238 -0.9639005460 1.9849151954
H -0.8032687953 3.9044742503 -0.0478213808
H -0.7741693484 4.2144785916 1.6955289143
H 0.5248800113 3.2775403549 0.9366487011
H -2.4109767376 2.4203648570 1.1280431672
H -1.0910666094 1.7763428262 2.1413602431
H -3.5188399174 -1.9331246157 1.8369752176
H -4.4096686416 -0.8734561045 0.6999389725
H -3.5532850429 -2.1841209027 -1.2190962081
H -2.6793222563 -3.2645885737 -0.1174753460
H -4.4488675267 -3.2255177905 -0.1029551014
H 0.3287934366 -3.2380266083 -2.1270725224
H 1.6055535431 -2.0150402192 -2.4131232868
H 3.8220734314 2.5011423391 -0.7817466683
H 4.4249536618 3.6899456988 1.3197568642
H 3.4518676453 3.0105545673 3.4626562684
H 1.8424480277 1.1180903167 3.5824227074
40
CONF36
C -4.4615797516 -2.2105705437 0.3605506383
C -4.6477090400 -0.7856866216 -0.1188490206
O -3.4511010426 -0.2569851617 -0.7178823408
P -2.1349835597 0.0163076576 0.1272202068
S -2.4420139336 0.7308741537 1.9296741458
O -1.2907564384 0.9256819826 -0.8689480582
C -1.4054471148 2.3641524534 -0.8677415368
C -2.7914534863 2.8284717860 -1.2599723842
S -1.0471226016 -1.7821996028 -0.0517509729
C 0.3972781671 -1.2520423423 0.9756884965
H -0.0008247578 -0.6266776934 1.7868245851
C 1.0716715779 -2.4974057135 1.5189647515
Cl 2.4276860598 -1.9992661483 2.5703847073
N 1.2699565243 -0.4301229763 0.1985763863
C 2.0005295690 -0.8599138267 -0.9132825312
O 2.0355416708 -1.9996460929 -1.3116536574
C 2.6578167637 0.3478977270 -1.4421018390
C 3.5161834839 0.5063634502 -2.5109310818
C 3.9810685174 1.7922517873 -2.7788853938
C 3.5951214053 2.8733370039 -2.0009892901
C 2.7282273168 2.7141946430 -0.9219728069
C 2.2681330275 1.4404410403 -0.6560613050
C 1.3576286387 0.9482767014 0.3889945074
O 0.7677979153 1.5505986456 1.2581148731
H -4.0719772350 -2.8319613680 -0.4418206451
H -3.7581956922 -2.2319388240 1.1919919276
H -5.4153783538 -2.6055856136 0.6951693057
H -4.9328217623 -0.1357128075 0.7145839023
H -5.3895656215 -0.7199682289 -0.9156297291
H -1.1366600747 2.7268167233 0.1302914163
H -0.6513277685 2.6827325775 -1.5898038704
H -3.0838852315 2.3775931058 -2.2047795166
H -3.5094540850 2.5407170743 -0.4929810871
H -2.7926782288 3.9097162740 -1.3558822476
H 0.3734801761 -3.0732513738 2.1222842080
H 1.4802490183 -3.1033068274 0.7113250540
H 3.8098362242 -0.3407284310 -3.1096537368
H 4.6534920109 1.9472765692 -3.6074895405
H 3.9714180418 3.8568340818 -2.2331248579
H 2.4228258590 3.5480663553 -0.3103965819
40
CONF188
C -0.4852390229 3.5550605288 0.7400587200
C -1.2812711807 2.3100000849 1.0724345774
O -0.9674800891 1.2838041417 0.1010881831
P -2.1010344743 0.3003880018 -0.4339662091
S -3.7670083035 1.1610036195 -0.9969157703
O -2.2704169405 -0.6866476704 0.8086944017
C -3.4438322829 -1.5005368367 0.9745480127
C -3.4822264262 -2.6441026849 -0.0191097372
S -1.0122379627 -0.7278272741 -1.9063551347
C 0.2581505046 -1.5683912598 -0.8302417600
H -0.2825787209 -2.1152953503 -0.0505674874
C 1.0355549702 -2.5041593738 -1.7371333723
Cl 2.2033517877 -3.4228023023 -0.7435766166
N 1.0810184338 -0.6114405424 -0.1707057879
C 1.8921028021 0.3269798679 -0.8106263609
O 2.0629380392 0.3835497545 -2.0059827679
C 2.4383774715 1.1739715664 0.2638706506
C 3.3015779270 2.2494158122 0.2071828053
C 3.6274161328 2.8786104525 1.4071554038
C 3.1048695962 2.4396887152 2.6143899162
C 2.2358831834 1.3522835154 2.6723332840
C 1.9118518440 0.7296778915 1.4839180709
C 1.0222269334 -0.4096978563 1.2110510874
O 0.3574872202 -1.0804329788 1.9655882028
H -0.7043921682 4.3210845471 1.4765449970
H 0.5790762588 3.3373096368 0.7511167783
H -0.7598997149 3.9177151436 -0.2469376872
H -2.3576991712 2.5089752221 1.0340870912
H -1.0228961222 1.9112553030 2.0564101632
H -3.3729572158 -1.8569456958 2.0029901973
H -4.3244288535 -0.8607063468 0.8572797712
H -3.5250197248 -2.2499172867 -1.0343449725
H -2.5996010195 -3.2703383821 0.0830765180
H -4.3672784178 -3.2453845210 0.1624762674
H 0.3669113882 -3.2160386347 -2.2158772114
H 1.5985696365 -1.9431431691 -2.4818629606
H 3.6999849339 2.5847385527 -0.7368704527
H 4.2966061972 3.7239746838 1.3937394231
H 3.3732974420 2.9487846681 3.5261487116
H 1.8250650384 1.0034663934 3.6062068548
40
CONF520
C -0.3791727336 3.5628830427 -0.4945596343
C -1.2554491284 2.4918942832 0.1205718642
O -0.9076434804 1.2131924086 -0.4650368610
P -2.0375157357 0.1290033721 -0.7429362586
S -3.6262674009 0.7719574931 -1.6885723115
O -2.3293226793 -0.4117464764 0.7273530484
C -3.5308859271 -1.1185898589 1.0908962235
C -3.8865387863 -0.7344421854 2.5133502661
S -0.9183057661 -1.3631665605 -1.7070033797
C 0.2456824965 -1.8255235350 -0.3216179559
H -0.3657564045 -2.0707142164 0.5532585927
C 1.0346038379 -3.0267436688 -0.8090163537
Cl 2.1026070431 -3.5813241147 0.5115816444
N 1.0682269092 -0.7218118145 0.0408691353
C 0.9353128420 -0.0674007526 1.2693181324
O 0.1946964914 -0.4298293355 2.1527478609
C 1.8614316924 1.0742640705 1.2120887023
C 2.1443599891 2.0500384286 2.1464591324
C 3.0684483380 3.0314664334 1.7942415604
C 3.6835877083 3.0269086252 0.5513694236
C 3.3992109351 2.0413252858 -0.3918542478
C 2.4818859108 1.0704837980 -0.0442700446
C 1.9618580335 -0.0731656542 -0.8130883701
O 2.2086732552 -0.4254060266 -1.9428269072
H 0.6694866167 3.3412819757 -0.3173979896
H -0.5520416443 3.6130429525 -1.5662710673
H -0.6260830520 4.5200368255 -0.0471127948
H -2.3148987921 2.6876780748 -0.0764465447
H -1.0977222596 2.4052320408 1.1982032785
H -4.3248982556 -0.8450404575 0.3877791622
H -3.3274896550 -2.1889723797 1.0081396045
H -3.0389120510 -0.9258011595 3.1661541995
H -4.1396200738 0.3207500925 2.5657303977
H -4.7368454526 -1.3238544151 2.8399623086
H 0.3655172023 -3.8444199015 -1.0674684889
H 1.6629220835 -2.7592500792 -1.6575831616
H 1.6617940176 2.0456788431 3.1105876125
H 3.3069595475 3.8089746776 2.5021430041
H 4.3938051550 3.8005044543 0.3068380241
H 3.8697657992 2.0300230553 -1.3618170589
40
CONF35
C -4.4855748296 -2.1709463438 -0.1730811931
C -4.6669897234 -0.6683908106 -0.1071904532
O -3.4954861133 0.0372407646 -0.5544690045
P -2.1272376527 -0.0058288612 0.2500582200
S -2.3147748153 0.0315846096 2.2038582132
O -1.3208089762 1.1924884178 -0.4174131602
C -1.3946279532 2.5389642115 0.0963905835
C -2.7897521414 3.1163339072 -0.0066742320
S -1.0957873461 -1.6320654248 -0.6118017904
C 0.4108261880 -1.5097832216 0.4553178070
H 0.0702551821 -1.1964037605 1.4520332305
C 1.0686502245 -2.8756611382 0.5018131373
Cl 2.4853942637 -2.7898049025 1.5869663444
N 1.2718136282 -0.4824657116 -0.0388905044
C 1.3983938204 0.7502102740 0.6001486050
O 0.8620042114 1.0266320422 1.6499662844
C 2.2719684399 1.5612280977 -0.2613065455
C 2.7442842345 2.8488023847 -0.1067186920
C 3.5659311479 3.3578558100 -1.1101319495
C 3.8973728254 2.5988323265 -2.2222790480
C 3.4196953793 1.2993466293 -2.3790311081
C 2.6050989491 0.7947607353 -1.3859888035
C 1.9446853026 -0.5165379963 -1.2640679672
O 1.9371322343 -1.4546212020 -2.0248597212
H -5.4283091130 -2.6580526542 0.0543632840
H -4.1524452886 -2.4685067528 -1.1641662244
H -3.7395140966 -2.4858366567 0.5554076220
H -4.8888163223 -0.3543210674 0.9177554831
H -5.4520301706 -0.3252213869 -0.7820846921
H -1.0500884438 2.5263081494 1.1360527865
H -0.6812882494 3.0886347975 -0.5204819967
H -2.7670205646 4.1609547782 0.2875622336
H -3.1559533394 3.0318622800 -1.0265707242
H -3.4637880505 2.5766864218 0.6575004848
H 0.3798727150 -3.6134161290 0.9072935485
H 1.4211564730 -3.1728282580 -0.4849545909
H 2.4817032328 3.4302485194 0.7625516446
H 3.9499000309 4.3612015868 -1.0173898911
H 4.5363450766 3.0203555616 -2.9817404774
H 3.6708203121 0.7011637225 -3.2400567305
40
CONF34
C -4.4677891236 -2.2016584560 0.3208755732
C -4.6421941925 -0.7653122205 -0.1277591233
O -3.4419447260 -0.2351772840 -0.7181500019
P -2.1264714873 0.0227941727 0.1326092434
S -2.4342359516 0.7214654166 1.9410770883
O -1.2758382011 0.9371821309 -0.8539519306
C -1.3814649486 2.3762231870 -0.8378555702
C -2.7640136922 2.8539072787 -1.2260358790
S -1.0485866153 -1.7803367864 -0.0598845066
C 0.3993126851 -1.2660756713 0.9711820434
H 0.0047730527 -0.6477579645 1.7893948131
C 1.0703530125 -2.5191684568 1.5004701355
Cl 2.4282490493 -2.0365440808 2.5566514687
N 1.2723530393 -0.4389593359 0.2000872765
C 1.9950056384 -0.8588225804 -0.9207392998
O 2.0290559284 -1.9954090455 -1.3280467529
C 2.6448764404 0.3544414361 -1.4461980063
C 3.4912435491 0.5234360157 -2.5229618130
C 3.9471342044 1.8131252236 -2.7880271714
C 3.5644899285 2.8876602053 -1.9994850083
C 2.7105689076 2.7177322488 -0.9118297553
C 2.2592552388 1.4402160470 -0.6488976644
C 1.3600116515 0.9379418085 0.4010177268
O 0.7782218612 1.5320506244 1.2811709644
H -4.0814691488 -2.8080003334 -0.4944774348
H -3.7660389862 -2.2469230203 1.1526625166
H -5.4252153145 -2.5967641297 0.6448789649
H -4.9198775548 -0.1303621764 0.7196794350
H -5.3850177897 -0.6763113631 -0.9213670452
H -1.1112788638 2.7268541816 0.1641009905
H -0.6246922313 2.6974557537 -1.5559886270
H -2.7586235089 3.9363785903 -1.3067873291
H -3.0575461182 2.4179774611 -2.1774388883
H -3.4849047430 2.5598319723 -0.4641871484
H 0.3706881037 -3.0994996039 2.0977988160
H 1.4768227786 -3.1174371368 0.6861217546
H 3.7821100482 -0.3185067853 -3.1302407227
H 4.6095654544 1.9764374274 -3.6230582362
H 3.9328681782 3.8744737896 -2.2302235878
H 2.4076131589 3.5463902525 -0.2920047421
40
CONF305
C -1.6951430481 2.7051319673 1.3100100801
C -0.9811128814 2.6836869856 -0.0245688257
O -0.7040812180 1.3348790857 -0.4619829746
P -1.8708807157 0.3515415695 -0.9077283286
S -3.3583677385 1.1746637085 -1.8771623363
O -2.2665678721 -0.3344056407 0.4733360306
C -3.4212499799 -1.1890086035 0.5869634843
C -3.7230743920 -1.3559805609 2.0623812472
S -0.7947942331 -1.1250698941 -1.9571419735
C 0.2887498833 -1.7781166040 -0.5811749204
H -0.3681190125 -2.1616267869 0.2066449540
C 1.1302623299 -2.8820407764 -1.1946095852
Cl 2.1247777038 -3.6238987061 0.0909840536
N 1.0657698347 -0.7338326889 -0.0048146601
C 1.9657042395 0.0701622312 -0.7051145813
O 2.2684660458 -0.0898460202 -1.8649804780
C 2.4096344136 1.0950172001 0.2546092104
C 3.2935408566 2.1432948539 0.0998078111
C 3.4982634771 2.9808017310 1.1943183857
C 2.8390709257 2.7673442293 2.3954020229
C 1.9492155125 1.7069579097 2.5527977018
C 1.7445190903 0.8779415933 1.4684359789
C 0.8643745145 -0.2905202309 1.3065217071
O 0.1098516677 -0.8165753485 2.0893396682
H -1.7475253456 3.7262403077 1.6737934407
H -2.7055287726 2.3166966302 1.1934923584
H -1.1642883982 2.0875311898 2.0306428871
H 0.0067035043 3.1442722247 0.0326048649
H -1.5803474569 3.1786974364 -0.7949415596
H -4.2531295249 -0.7225759436 0.0486441297
H -3.1902350560 -2.1487327758 0.1153365569
H -4.0166239855 -0.4048174085 2.4964389699
H -4.5297847147 -2.0711674777 2.1837179003
H -2.8362264610 -1.7153527240 2.5779983006
H 0.4949841145 -3.6564230427 -1.6188583251
H 1.8046922275 -2.4801137258 -1.9495791566
H 3.7993875067 2.3007388680 -0.8393308751
H 4.1811816883 3.8102419308 1.1022120183
H 3.0159380662 3.4342531091 3.2240007120
H 1.4340132303 1.5341710953 3.4841048660
40
CONF583
C -3.6411455041 -3.3279021913 1.2383306833
C -3.5490726537 -2.8501431075 -0.1982635531
O -3.8046800030 -1.4396828813 -0.3169862899
P -2.7878000641 -0.3044969794 0.1074576333
S -2.5576715935 0.0758990927 2.0238557220
O -3.5076607907 0.8423808778 -0.7103704614
C -3.3855810510 2.2341906727 -0.3796064806
C -2.0636193797 2.8125265820 -0.8456282924
S -1.0107337112 -0.8183181656 -0.9621192814
C 0.2415658317 -0.6193744297 0.3913687542
H -0.2224346684 0.0278561396 1.1503933466
C 0.5611052623 -1.9844794928 0.9705463244
Cl 1.7726148468 -1.7874911406 2.2684512273
N 1.3856595053 0.0658472732 -0.1117107470
C 1.6001553785 1.4221045351 0.1419677389
O 0.8458349337 2.1111603090 0.7903092951
C 2.8567472844 1.7623602197 -0.5410080445
C 3.5558116397 2.9508647469 -0.6000412384
C 4.7369277895 2.9670391412 -1.3387717896
C 5.1924844696 1.8317134091 -1.9914392633
C 4.4855183861 0.6323545227 -1.9341887570
C 3.3160985165 0.6149263646 -1.2020414200
C 2.3586144379 -0.4776005631 -0.9554635351
O 2.3524668561 -1.6109128200 -1.3731195004
H -4.6184119333 -3.0905907118 1.6503838421
H -3.4883549120 -4.4018659019 1.2713062300
H -2.8861156570 -2.8407354724 1.8525835791
H -4.3250537617 -3.3064605985 -0.8155732972
H -2.5661164317 -3.0701667302 -0.6263948351
H -4.2275172956 2.6997103062 -0.8943055127
H -3.5008771271 2.3550696111 0.7028480201
H -1.2443537768 2.4341066100 -0.2350027379
H -1.8856787607 2.5487539989 -1.8852981787
H -2.0902047825 3.8931649941 -0.7485508643
H -0.3296473669 -2.4198973821 1.4205809523
H 0.9859162599 -2.6451483369 0.2161033380
H 3.1928577304 3.8282439190 -0.0893944118
H 5.3056157980 3.8809816662 -1.4026225998
H 6.1108211394 1.8755843028 -2.5549428339
H 4.8307323114 -0.2553740107 -2.4391220343
40
CONF387
C -5.6040477644 0.1463684365 0.7478370559
C -4.6200994511 -0.8952065075 0.2518341540
O -3.4791426575 -0.2490551488 -0.3537902863
P -2.0783957384 -0.1362294143 0.3864698230
S -2.1922447988 0.2274895640 2.3123213725
O -1.3380229174 0.9415919758 -0.5138304417
C -1.6150085313 2.3527867705 -0.3270148880
C -1.1643485331 3.0824907654 -1.5743582096
S -1.0665657820 -1.8868678454 -0.2003488419
C 0.4886296955 -1.5262524005 0.7419080976
H 0.1839573601 -1.0701191573 1.6940521700
C 1.2202508643 -2.8359232516 0.9652110132
Cl 2.6830056200 -2.5113829869 1.9369376418
N 1.2628047585 -0.5571030610 0.0353450035
C 1.8552933257 -0.7610773833 -1.2148870945
O 1.8519467297 -1.8110993156 -1.8118451494
C 2.4305166062 0.5406408685 -1.5945779947
C 3.1453252737 0.9125644033 -2.7150638053
C 3.5566334035 2.2407051014 -2.8058008744
C 3.2597447862 3.1556548581 -1.8068977645
C 2.5390670661 2.7807853484 -0.6749321760
C 2.1303250780 1.4651666334 -0.5855252097
C 1.3557930564 0.7707047891 0.4542363514
O 0.8679965145 1.1949580924 1.4775052077
H -5.8954789372 0.8045691624 -0.0657440758
H -6.4841246022 -0.3519057602 1.1409245672
H -5.1490735838 0.7383531575 1.5394909415
H -5.0496185821 -1.5128734237 -0.5381899569
H -4.2816769584 -1.5301794058 1.0745539816
H -2.6868700872 2.4795334454 -0.1544906326
H -1.0696476045 2.6801572707 0.5637511395
H -1.7078781653 2.7087504728 -2.4374700986
H -1.3614505275 4.1426853495 -1.4537075830
H -0.1004777426 2.9292954301 -1.7347006025
H 0.5936257380 -3.5286708478 1.5226049910
H 1.5372030095 -3.2722308068 0.0188615838
H 3.3702868432 0.1934669383 -3.4860972573
H 4.1154160995 2.5611940052 -3.6705103592
H 3.5899354466 4.1773397908 -1.9057628033
H 2.3023252874 3.4846584580 0.1069037501
40
CONF584
C -3.6103004180 -3.3086827647 1.2901645443
C -3.5348235141 -2.8515599459 -0.1542048873
O -3.8001997267 -1.4446303525 -0.2914506030
P -2.7870608098 -0.2970234277 0.1076931689
S -2.5513792370 0.1162825090 2.0166333842
O -3.5168811825 0.8314913470 -0.7267847554
C -3.3877951156 2.2299421155 -0.4273485588
C -2.0571301159 2.7884743794 -0.8927580328
S -1.0121211137 -0.8174345076 -0.9627417271
C 0.2408995976 -0.6273961105 0.3911597013
H -0.2226027729 0.0165983895 1.1534883900
C 0.5583096243 -1.9961678803 0.9627012047
Cl 1.7660024824 -1.8082173630 2.2654913925
N 1.3855216643 0.0596218842 -0.1083513127
C 1.5962871956 1.4165784679 0.1458452097
O 0.8399949220 2.1035720690 0.7940050363
C 2.8517722424 1.7606511096 -0.5373393752
C 3.5465576784 2.9516016851 -0.5975701321
C 4.7260820516 2.9720701288 -1.3387576082
C 5.1842508200 1.8384815096 -1.9926196991
C 4.4817171196 0.6365877654 -1.9339537212
C 3.3139259389 0.6149015910 -1.1993443168
C 2.3597929873 -0.4804901575 -0.9527391445
O 2.3570168357 -1.6136120030 -1.3710242122
H -3.4510342774 -4.3811891778 1.3371863652
H -2.8524212912 -2.8083057524 1.8902325005
H -4.5848613556 -3.0709621476 1.7083323394
H -4.3137671158 -3.3216869964 -0.7572332475
H -2.5545722956 -3.0718549097 -0.5885716442
H -4.2214092645 2.6887668116 -0.9612510745
H -3.5128371759 2.3764732029 0.6507506447
H -1.8697879973 2.4986872878 -1.9238702208
H -2.0773284225 3.8712763927 -0.8218523198
H -1.2472272883 2.4192034411 -0.2641159787
H -0.3339450245 -2.4342571247 1.4071376938
H 0.9850000073 -2.6523145104 0.2053921203
H 3.1816242306 3.8276329834 -0.0859933300
H 5.2910845754 3.8881923702 -1.4041391759
H 6.1008051645 1.8858113601 -2.5587416075
H 4.8290465888 -0.2498003056 -2.4398254676
40
CONF258
C -3.9206507549 -2.4971172308 -1.6522675492
C -4.7118055227 -1.5877211591 -0.7355614623
O -3.9661908528 -0.4149873399 -0.3553889984
P -2.6385880580 -0.4878445588 0.5127494655
S -2.6204109104 -1.7777938425 1.9808680910
O -2.4968944789 0.9906589953 1.0395017121
C -2.6028933630 2.1538830022 0.1793771138
C -1.9832408580 3.3242490679 0.9140430786
S -1.0882182806 -0.7028797163 -0.9386965618
C 0.2922466254 -0.7472611380 0.2955109126
H -0.0939869786 -0.2943003247 1.2189086130
C 0.6894356484 -2.1929580772 0.5218688801
Cl 2.0282054992 -2.2438464206 1.7005006384
N 1.3669257280 0.0743054765 -0.1565417696
C 1.6352432847 1.3225298622 0.4076379521
O 0.9912779952 1.8058094242 1.3111585884
C 2.7903787494 1.8536989062 -0.3306894934
C 3.4878236612 3.0352323654 -0.1807839163
C 4.5568620876 3.2658351377 -1.0440538421
C 4.9065242793 2.3433058834 -2.0182339980
C 4.2015651733 1.1510431819 -2.1710101260
C 3.1432640604 0.9211876679 -1.3160365071
C 2.2174798117 -0.2210726923 -1.2267403105
O 2.1451780587 -1.2172171016 -1.9055378348
H -3.0846004133 -2.9356194011 -1.1095466197
H -4.5644156539 -3.2944364111 -2.0093854966
H -3.5325415125 -1.9377403553 -2.4998617704
H -5.0046523896 -2.1188285385 0.1749208441
H -5.5946331804 -1.1817389316 -1.2312965094
H -2.0798159816 1.9419463403 -0.7581199400
H -3.6616212201 2.3182243354 -0.0290292167
H -2.5274584574 3.5168632747 1.8339406857
H -0.9488872933 3.1006636944 1.1664792769
H -2.0191236507 4.2045798328 0.2807354187
H -0.1445037820 -2.7499275503 0.9492497594
H 1.0395113009 -2.6518444269 -0.4021233909
H 3.2089849123 3.7466091959 0.5798233471
H 5.1210768211 4.1800074265 -0.9507687050
H 5.7390355182 2.5504074942 -2.6715418955
H 4.4648363108 0.4276084054 -2.9256543014
40
CONF695
C -4.9863792385 -3.3585954656 0.5275491506
C -4.6746113364 -1.8853600219 0.6892339444
O -3.4105702797 -1.6265698863 0.0339783034
P -2.6226491150 -0.2801712960 0.2988481668
S -2.2740929199 0.1377491612 2.1892453413
O -3.5585337099 0.7788552930 -0.4370086409
C -3.4472400034 2.1943410537 -0.2126829726
C -2.1494186730 2.7586322272 -0.7546425679
S -0.9868950481 -0.6439622129 -0.9802173632
C 0.3584998366 -0.6848141800 0.3026215575
H -0.0252702712 -0.1106999082 1.1599012349
C 0.6209778441 -2.1246813378 0.6929514199
Cl 1.8800632808 -2.1565500443 1.9573571215
N 1.5037257515 0.0074400462 -0.1853390280
C 1.6928499937 1.3642902853 0.0963095743
O 0.9274663252 2.0220724148 0.7632382649
C 2.9362749991 1.7456638447 -0.5873416271
C 3.6152047768 2.9469806525 -0.6191288888
C 4.7863246102 3.0049866128 -1.3715207498
C 5.2517751892 1.8975035402 -2.0638764292
C 4.5653464225 0.6852521069 -2.0337637062
C 3.4059265162 0.6263073871 -1.2879699489
C 2.4679155644 -0.4889229397 -1.0678077163
O 2.4745520856 -1.6037963610 -1.5321850712
H -5.9484845815 -3.5710685331 0.9822158399
H -5.0203045584 -3.6144911118 -0.5273327529
H -4.2210593356 -3.9595817241 1.0100606302
H -4.5826865022 -1.6045728263 1.7440789537
H -5.4358588730 -1.2596390228 0.2173823787
H -4.3129155273 2.6086498187 -0.7313462827
H -3.5290395441 2.3830836213 0.8624964259
H -2.1814569158 3.8424513207 -0.7074626076
H -1.3057010916 2.4127555037 -0.1566831274
H -2.0044327587 2.4460503654 -1.7860340392
H -0.2806518539 -2.5661315313 1.1158554686
H 0.9842844295 -2.7067534662 -0.1527205243
H 3.2447977609 3.8024059651 -0.0775842092
H 5.3389603277 3.9298905696 -1.4152124986
H 6.1611823398 1.9737528748 -2.6383078508
H 4.9178755762 -0.1809570525 -2.5700410844
40
CONF582
C -3.6103932289 -3.2835094781 1.3210189991
C -3.5527415441 -2.8430767119 -0.1292509285
O -3.8076869550 -1.4355683989 -0.2790714103
P -2.7857343670 -0.2915899316 0.1082929357
S -2.5481533007 0.1408647694 2.0127192786
O -3.5062097795 0.8334026434 -0.7392736843
C -3.3710230857 2.2338014532 -0.4524600487
C -2.0317353175 2.7791556922 -0.9087156121
S -1.0146093133 -0.8365078311 -0.9567093410
C 0.2416433069 -0.6409038941 0.3928375375
H -0.2225312372 -0.0001346570 1.1575989069
C 0.5691974906 -2.0087744524 0.9611718784
Cl 1.7787565969 -1.8151450492 2.2617216449
N 1.3815861001 0.0522566319 -0.1093966510
C 1.5943495931 1.4068690269 0.1548708383
O 0.8422683663 2.0889357928 0.8130520004
C 2.8459146071 1.7562008337 -0.5329557155
C 3.5412675358 2.9471276266 -0.5865498219
C 4.7168262383 2.9731662685 -1.3338397149
C 5.1705499219 1.8450213709 -2.0000880174
C 4.4674136697 0.6431884321 -1.9481326519
C 3.3036121582 0.6159484600 -1.2073805613
C 2.3506528462 -0.4811453441 -0.9639230145
O 2.3448491897 -1.6109403106 -1.3911320195
H -4.5753654029 -3.0298833919 1.7518414549
H -3.4625988052 -4.3571782079 1.3776880772
H -2.8374682149 -2.7851703455 1.9032992875
H -4.3447639271 -3.3128416080 -0.7152275470
H -2.5810752025 -3.0768946973 -0.5754841296
H -4.1958243039 2.6925851415 -0.9998675251
H -3.5064663291 2.3919491571 0.6227070461
H -1.8348524758 2.4779797058 -1.9347863941
H -2.0453670067 3.8627024583 -0.8484514867
H -1.2316917593 2.4105349711 -0.2672222193
H -0.3188359694 -2.4542793146 1.4064451827
H 0.9985784809 -2.6603614173 0.2014324453
H 3.1798232014 3.8188857193 -0.0653039423
H 5.2823922284 3.8893013294 -1.3939475352
H 6.0842523852 1.8965809710 -2.5704360180
H 4.8112258935 -0.2390290293 -2.4635965255
40
CONF539
C -5.4800904589 -1.5370569242 1.2104743772
C -4.1256589216 -1.7374748706 1.8569252737
O -3.0559348862 -1.7348690600 0.8878603190
P -2.6356746514 -0.4312691280 0.0911379922
S -2.6942086777 1.2392503361 1.1273092561
O -3.5969183469 -0.4789354083 -1.1734257273
C -3.7898518006 0.6582715393 -2.0328851896
C -2.5181386569 1.0583728312 -2.7533887470
S -0.7685894896 -1.0963923465 -0.6369111638
C 0.2974108004 -0.2184272019 0.6019749829
H -0.2108673709 0.7300783816 0.8315029709
C 0.4239563840 -1.0862723183 1.8380088955
Cl 1.4179593369 -0.2302223548 3.0475542905
N 1.5471825497 0.1131732167 0.0037067863
C 2.5772828022 -0.7836479087 -0.2900851128
O 2.5469878265 -1.9684497115 -0.0547982358
C 3.6315815758 0.0259334926 -0.9251345350
C 4.8816526315 -0.3343450431 -1.3851105874
C 5.6733321841 0.6635663204 -1.9497478004
C 5.2216515764 1.9708288239 -2.0467578685
C 3.9590913105 2.3353402785 -1.5838511407
C 3.1747042616 1.3473858557 -1.0238931568
C 1.8200838212 1.4065158737 -0.4541521578
O 1.0426157593 2.3281312955 -0.3675489838
H -5.5503528204 -0.5313271825 0.7989099485
H -5.6222507665 -2.2561521345 0.4082372851
H -6.2572531976 -1.6676857741 1.9570868780
H -4.0442061707 -2.7169852692 2.3299205131
H -3.9288634049 -0.9493023564 2.5911674181
H -4.5610409584 0.3296481821 -2.7307704041
H -4.1626761320 1.4903108568 -1.4270234039
H -1.7888759728 1.4462153875 -2.0413980015
H -2.0870143909 0.2010175093 -3.2645427770
H -2.7440166888 1.8351905179 -3.4769353314
H -0.5568936422 -1.2574595012 2.2806374390
H 0.9172638460 -2.0296565139 1.6068078897
H 5.2232609041 -1.3537298816 -1.3052459040
H 6.6551852478 0.4120074554 -2.3178164139
H 5.8572510504 2.7212995196 -2.4890095685
H 3.5986045133 3.3488821931 -1.6550377033
40
CONF525
C -0.5814982594 3.5292583051 0.2995209155
C -1.4169379849 2.3014113614 0.5962460601
O -0.9532193219 1.2107014174 -0.2365959375
P -1.9957738160 0.1788594714 -0.8524764996
S -3.5201399924 0.9640776813 -1.7958955875
O -2.3929177900 -0.6884398075 0.4242267682
C -3.6242977694 -1.4277478941 0.5381257891
C -4.2396291624 -1.1302301490 1.8912728268
S -0.7062486269 -1.0218794401 -1.9949017654
C 0.3628717586 -1.7078772799 -0.6273382664
H -0.3067570917 -2.1105215724 0.1401191608
C 1.2183815335 -2.7940121933 -1.2524297706
Cl 2.1971625439 -3.5585442853 0.0318560373
N 1.1257249725 -0.6737946767 -0.0144076797
C 2.0630985744 0.1267865688 -0.6693746997
O 2.4088506921 -0.0224765612 -1.8180782624
C 2.4853842614 1.1307098630 0.3223134402
C 3.3967974265 2.1620935296 0.2212465074
C 3.5773721562 2.9748099069 1.3386738529
C 2.8685569528 2.7544590927 2.5100598568
C 1.9494787138 1.7123643363 2.6130380980
C 1.7688051698 0.9082179804 1.5057320291
C 0.8733475027 -0.2389749643 1.2900673098
O 0.0706272471 -0.7542320555 2.0323394409
H 0.4692724401 3.3256336399 0.4859822642
H -0.7045385820 3.8187141602 -0.7407329097
H -0.9101656600 4.3422659201 0.9385104982
H -2.4744857460 2.4821715985 0.3764163681
H -1.3130866607 1.9774292439 1.6345325291
H -4.2924366517 -1.1294773701 -0.2766654154
H -3.3757576238 -2.4865266177 0.4389880358
H -5.1210284007 -1.7485990410 2.0254519580
H -3.5211003830 -1.3467101216 2.6772055650
H -4.5245107121 -0.0831217787 1.9514161290
H 0.5930749690 -3.5621374406 -1.7018784767
H 1.9021352517 -2.3732243730 -1.9885310575
H 3.9413606709 2.3257284576 -0.6947287133
H 4.2807119131 3.7905566504 1.2882994882
H 3.0283779391 3.4017377929 3.3574213608
H 1.3938018009 1.5343787143 3.5196353249
40
CONF513
C -5.9028631142 -0.1859626164 0.1091395765
C -4.6087523700 -0.8907034017 0.4650407321
O -3.5280257132 -0.2236420521 -0.2199975905
P -2.0749510423 -0.0861578111 0.4048831183
S -2.0662805903 0.3553423498 2.3185637403
O -1.4056905633 0.9585606420 -0.5881182176
C -1.9018578624 2.3220030319 -0.6451891756
C -0.8970695324 3.2829020772 -0.0439745324
S -1.1105245641 -1.8634710455 -0.1769821615
C 0.4844959791 -1.5320523537 0.6992002614
H 0.2330732580 -1.0918369639 1.6739204668
C 1.2132607511 -2.8541401122 0.8560988751
Cl 2.7272387851 -2.5663559426 1.7595099171
N 1.2394029089 -0.5587389889 -0.0233318635
C 1.7041431704 -0.7224826326 -1.3304243406
O 1.5684781694 -1.7304257320 -1.9829020242
C 2.3497318595 0.5540938890 -1.6809481873
C 2.9876272744 0.9473988769 -2.8398501224
C 3.5133402886 2.2369634112 -2.8804579993
C 3.4033775653 3.0926974614 -1.7948780450
C 2.7600780098 2.6959947638 -0.6244416581
C 2.2339289963 1.4202906215 -0.5859088164
C 1.4997346510 0.7176161027 0.4791071423
O 1.1599996418 1.0952731460 1.5762182265
H -6.0344990225 -0.1756439554 -0.9689275221
H -6.7319803094 -0.7140693557 0.5682901362
H -5.8869313577 0.8376771451 0.4734881984
H -4.6149066482 -1.9307951052 0.1322138559
H -4.4172727422 -0.8538951001 1.5427145592
H -2.0632636260 2.5198527221 -1.7060611239
H -2.8561474700 2.3730095532 -0.1144822921
H -1.3145497290 4.2846963788 -0.0532069801
H -0.6740109087 2.9992171953 0.9831724070
H 0.0264967754 3.2710601789 -0.6161478591
H 0.6092256745 -3.5557136976 1.4271685149
H 1.4770198742 -3.2693711225 -0.1158152388
H 3.0703238493 0.2729271084 -3.6768397842
H 4.0161155889 2.5731743679 -3.7731780919
H 3.8220519595 4.0845987749 -1.8547599527
H 2.6705583831 3.3535695987 0.2256200733
40
CONF268
C -1.7282068061 2.7305721898 1.3004334711
C -0.9971023568 2.6530523503 -0.0225600536
O -0.7121510188 1.2859069502 -0.3898343937
P -1.8705680837 0.2870627438 -0.8234550306
S -3.3238611919 1.0950597239 -1.8556278886
O -2.2516992075 -0.3708064496 0.5777567929
C -3.2755794058 -1.3791632502 0.6898569272
C -4.6226137346 -0.7577636398 1.0032912486
S -0.7974132994 -1.2130606830 -1.8437773454
C 0.3325770083 -1.8114165605 -0.4824639082
H -0.2976692524 -2.1845451529 0.3317177852
C 1.1757377684 -2.9182439930 -1.0883300739
Cl 2.2164596251 -3.6081570498 0.1898316102
N 1.1072681736 -0.7400735177 0.0458511834
C 1.9858311373 0.0519056242 -0.6941167845
O 2.2654153162 -0.1362341071 -1.8555784056
C 2.4413988020 1.1049442977 0.2290813970
C 3.3183987710 2.1516977644 0.0306475718
C 3.5416020249 3.0170812239 1.0996015769
C 2.9060449426 2.8326391007 2.3181357879
C 2.0223773671 1.7744432871 2.5192929902
C 1.8003341826 0.9171299755 1.4607030196
C 0.9246894393 -0.2599858121 1.3467689450
O 0.1856060903 -0.7680546253 2.1562317274
H -1.8033662695 3.7674894007 1.6116249735
H -2.7295710911 2.3173540187 1.1902880419
H -1.1964002649 2.1589277710 2.0574368943
H -0.0119663912 3.1203400670 0.0250140560
H -1.5891051962 3.1089643643 -0.8223104208
H -3.3184293644 -1.9537412775 -0.2413321231
H -2.9365809645 -2.0210791326 1.5060911902
H -5.3577077684 -1.5462961769 1.1282482192
H -4.5613145681 -0.1753422567 1.9182518838
H -4.9355695536 -0.1070260580 0.1897150840
H 0.5420463447 -3.7141414859 -1.4733469648
H 1.8232935931 -2.5271099326 -1.8719972538
H 3.8059744147 2.2865765058 -0.9215881185
H 4.2206822784 3.8452399241 0.9737183219
H 3.0971443945 3.5204327918 3.1262658406
H 1.5252280415 1.6237597094 3.4641550750
40
CONF277
C -5.1833273905 0.0996014610 1.3096148745
C -4.4430228059 -0.8338631110 0.3711318876
O -3.4144646690 -0.1299266272 -0.3568294728
P -1.9171912639 -0.0196439861 0.1570607496
S -1.6269520425 0.7874047177 1.9264980834
O -1.2286779079 0.7585757550 -1.0434030365
C -1.1366125303 2.1986216466 -1.0528378081
C -2.4978650901 2.8468886186 -1.1826871460
S -1.2165309175 -1.9864439808 -0.1285210202
C 0.4534780097 -1.7904527847 0.6476323236
H 0.3079702793 -1.5966402050 1.7176633548
C 1.2007762703 -3.0917999694 0.4081742816
Cl 2.8029988276 -2.9887813112 1.1943990757
N 1.1301034004 -0.6539690990 0.1055300462
C 1.6614925101 0.3638607207 0.9052873604
O 1.6510937923 0.3533910842 2.1130229776
C 2.2134187165 1.3532236712 -0.0357907913
C 2.8182401857 2.5715842433 0.1970414879
C 3.2400986238 3.3031854851 -0.9110286523
C 3.0633606142 2.8230465014 -2.1998608140
C 2.4553155338 1.5918158879 -2.4349889945
C 2.0329216764 0.8689105870 -1.3380249211
C 1.3548442072 -0.4361873108 -1.2554768251
O 1.0370758632 -1.2049101053 -2.1319264815
H -5.9779232066 -0.4489422722 1.8048829334
H -4.5041602680 0.4953995190 2.0615499591
H -5.6122297662 0.9280730875 0.7529343106
H -5.1034873895 -1.2236216428 -0.4055150442
H -3.9919460416 -1.6668440211 0.9173397618
H -0.6411541069 2.5203055464 -0.1298324544
H -0.4973254831 2.4139372512 -1.9104371058
H -2.3765839485 3.9205913353 -1.2855782089
H -3.0187356450 2.4520003916 -2.0506767656
H -3.0882666873 2.6385354606 -0.2914205714
H 0.6617874936 -3.9281351650 0.8479007326
H 1.3607227156 -3.2521325596 -0.6574535769
H 2.9512300812 2.9340411335 1.2037222341
H 3.7141772502 4.2597980117 -0.7602098475
H 3.4029979824 3.4115148116 -3.0371557333
H 2.3140638877 1.2079628629 -3.4326253926
40
CONF204
C -0.3150391490 3.5868512760 -1.1209526452
C -1.0398861316 2.6727427526 -0.1553032505
O -0.8486212137 1.3013737824 -0.5774486155
P -2.0444900253 0.2520487046 -0.5020319443
S -3.7674180328 0.8836128862 -1.1840616693
O -2.0523389743 -0.0894101166 1.0585489025
C -3.1963835805 -0.6766435367 1.7012052671
C -3.3466318421 -2.1447196968 1.3574503935
S -1.1753500802 -1.3751015556 -1.5024422367
C 0.1684347625 -1.8476756446 -0.2953081205
H -0.3188283813 -2.1811826742 0.6267143454
C 0.9458545448 -2.9721954574 -0.9550733093
Cl 2.1887673650 -3.5559115391 0.1895446953
N 0.9801662153 -0.7289204255 0.0442944802
C 1.0270975948 -0.2057714319 1.3393834650
O 0.4576287716 -0.6935000277 2.2872033877
C 1.8907402156 0.9826822784 1.2547474891
C 2.2802266463 1.8819269070 2.2268323633
C 3.1083634304 2.9328455709 1.8387132705
C 3.5302273496 3.0683822797 0.5248155279
C 3.1381955209 2.1601721177 -0.4564833028
C 2.3137152763 1.1217785275 -0.0734209543
C 1.7166272990 0.0323886147 -0.8649686585
O 1.8010833107 -0.2047483666 -2.0470771806
H -0.4253175687 4.6132685983 -0.7869514195
H 0.7397929021 3.3296911781 -1.1603924762
H -0.7386756621 3.4855015491 -2.1165322473
H -2.1138004635 2.8876420114 -0.1403821407
H -0.6404511679 2.7549876236 0.8584478352
H -3.0052717481 -0.5279391825 2.7647343162
H -4.0858759616 -0.1164865734 1.3949880739
H -3.4903419285 -2.2613068105 0.2834366975
H -2.4638238486 -2.7000025496 1.6641483117
H -4.2132268327 -2.5448989779 1.8738948497
H 0.2865472366 -3.8045842375 -1.1909957735
H 1.4555517625 -2.6179788790 -1.8500650595
H 1.9487327895 1.7672212826 3.2464601078
H 3.4264168586 3.6527416835 2.5757777954
H 4.1718122530 3.8917728111 0.2545398893
H 3.4602806312 2.2564434815 -1.4812688902
40
CONF187
C -1.3299829623 3.0764675914 0.8644786839
C -0.9709050167 2.7590033853 -0.5712304140
O -0.7257947627 1.3475177915 -0.7552248171
P -1.9121999330 0.2918529949 -0.7671170551
S -3.6221066379 0.9380234176 -1.4653072543
O -1.9399257183 -0.1707831838 0.7585266469
C -2.9858650894 -1.0325084765 1.2511901946
C -2.8518426412 -1.1008284296 2.7585081600
S -1.0738241812 -1.3264926493 -1.8223637084
C 0.2796975075 -1.8847556236 -0.6540516022
H -0.1977239169 -2.4276857405 0.1687014290
C 1.1794236937 -2.7938009369 -1.4721010013
Cl 2.4443423904 -3.4618490909 -0.4011466172
N 0.9687845721 -0.7792569193 -0.0829072291
C 1.6608462235 0.1948153205 -0.8051037022
O 1.8128479030 0.1804135564 -2.0045700562
C 2.1253921808 1.1703745377 0.1961095400
C 2.8369598000 2.3423129335 0.0417401323
C 3.1089180531 3.0875621357 1.1870974644
C 2.6820175572 2.6655384639 2.4370492090
C 1.9662321608 1.4805397937 2.5939065703
C 1.6940498667 0.7434555561 1.4587978654
C 0.9531604740 -0.5158424915 1.2899864862
O 0.4291430916 -1.2326069109 2.1091564463
H -0.5654977712 2.6973174367 1.5382770578
H -1.4172432879 4.1517257280 0.9826569347
H -2.2829795278 2.6129908404 1.1147633112
H -0.0331899381 3.2278115905 -0.8732999655
H -1.7750797970 3.0609656832 -1.2494578269
H -3.9497845443 -0.6157875107 0.9412493049
H -2.8677468849 -2.0200627473 0.7951452791
H -1.8484243551 -1.4284746831 3.0196111475
H -3.0266339270 -0.1224675223 3.1960372733
H -3.5776734154 -1.8057674822 3.1496942531
H 0.6101189518 -3.6251524483 -1.8822059944
H 1.6740341888 -2.2359453848 -2.2661810269
H 3.1646956946 2.6611972028 -0.9348964470
H 3.6606193651 4.0096411064 1.0969992883
H 2.9055437616 3.2649585019 3.3050437437
H 1.6285478587 1.1451735154 3.5614403252
40
CONF392
C -5.8461938182 0.0080876569 0.0876845249
C -4.5953301939 -0.7593947015 0.4672040269
O -3.4629148693 -0.1081128402 -0.1457270128
P -2.0242109291 -0.0837375572 0.5245165938
S -2.0530286027 0.2295334264 2.4627962738
O -1.2818169298 0.9944643589 -0.3737965348
C -1.4978544215 2.4089256382 -0.1374679670
C -1.1370937702 3.1521101769 -1.4059569134
S -1.1132056241 -1.8523794124 -0.1602047027
C 0.5028290647 -1.5740009979 0.7047017689
H 0.2659905348 -1.1565577668 1.6930061110
C 1.2114474505 -2.9097238796 0.8227824409
Cl 2.7344368179 -2.6665717870 1.7236664653
N 1.2589532146 -0.5908407133 -0.0018156510
C 1.7562406176 -0.7436503630 -1.2999627702
O 1.6845742353 -1.7619778224 -1.9454041360
C 2.3347043759 0.5633400028 -1.6558954895
C 2.9717835871 0.9785729087 -2.8076074662
C 3.4061360805 2.3013772637 -2.8629696414
C 3.2073153211 3.1691665983 -1.7997181330
C 2.5649953710 2.7505744021 -0.6362992099
C 2.1328979098 1.4405812161 -0.5821660576
C 1.4179407368 0.7107040954 0.4756209683
O 1.0166927500 1.0919607554 1.5521470136
H -5.9373220046 0.0563601709 -0.9935134985
H -6.7120450749 -0.4992147462 0.5001212701
H -5.8024446627 1.0186608820 0.4846695519
H -4.6268346983 -1.7853116476 0.0938059229
H -4.4470771204 -0.7716571024 1.5523386554
H -2.5453720180 2.5641195742 0.1329797951
H -0.8663805909 2.7007335819 0.7073963123
H -1.7720151508 2.8192746314 -2.2219432999
H -1.2818284863 4.2154127349 -1.2453267925
H -0.0993011630 2.9648638319 -1.6679641868
H 0.5996152481 -3.6145421135 1.3814802515
H 1.4635338287 -3.3058923386 -0.1600277963
H 3.1209025887 0.2964108674 -3.6289437530
H 3.9050890475 2.6551664334 -3.7509818360
H 3.5528168667 4.1879612093 -1.8724629278
H 2.4038133744 3.4177622408 0.1953065365
40
CONF281
C -1.7795789299 2.6660634942 1.3579793712
C -1.0184880201 2.6278169433 0.0502140950
O -0.7230849303 1.2722917277 -0.3509964613
P -1.8687574615 0.2856023747 -0.8420022181
S -3.2825778794 1.1156955708 -1.9107120164
O -2.3047381421 -0.3983071592 0.5303189358
C -3.3598184248 -1.3793614748 0.5833517074
C -4.6928738191 -0.7283984159 0.8966016535
S -0.7573320095 -1.1971605886 -1.8473691883
C 0.3334358909 -1.7990382380 -0.4565873036
H -0.3205002110 -2.1388995555 0.3534877619
C 1.1582204575 -2.9387585851 -1.0250840958
Cl 2.1567224337 -3.6302196173 0.2854607790
N 1.1251913967 -0.7361454786 0.0638983223
C 2.0357545942 0.0188176867 -0.6759437760
O 2.3397468455 -0.2068424689 -1.8245307356
C 2.4878132886 1.0898415203 0.2282371914
C 3.3861919810 2.1166334804 0.0212664998
C 3.5968424170 3.0099237797 1.0695790920
C 2.9289889155 2.8713293338 2.2768702757
C 2.0239818156 1.8331221247 2.4869220950
C 1.8140060495 0.9485049087 1.4485201193
C 0.9194969050 -0.2153388687 1.3457042848
O 0.1505076467 -0.6856090271 2.1501031351
H -2.7817173223 2.2666329865 1.2113217106
H -1.2702861663 2.0627017832 2.1058730054
H -1.8523775109 3.6920450870 1.7039693241
H -0.0352014692 3.0939672430 0.1343815242
H -1.5920238881 3.1066713780 -0.7496059934
H -3.4018197430 -1.9150522673 -0.3706287582
H -3.0575510219 -2.0637025258 1.3790700943
H -4.9708532355 -0.0390320577 0.1023757970
H -5.4538693343 -1.4976379070 0.9794540963
H -4.6303481134 -0.1822602831 1.8335888223
H 0.5111635536 -3.7254982111 -1.4066347885
H 1.8301493565 -2.5799557567 -1.8036812123
H 3.8985851337 2.2160463848 -0.9222172367
H 4.2912668533 3.8240378759 0.9361536971
H 3.1107829438 3.5801580708 3.0688102350
H 1.5013448480 1.7185383292 3.4229890426
40
CONF484
C -5.6658150346 -1.3474515727 0.7756777585
C -4.4198619232 -1.8497678291 1.4745422936
O -3.2588231574 -1.8047592274 0.6184752962
P -2.6145032407 -0.4429441617 0.1317265984
S -2.5903554253 1.0043769616 1.4621339178
O -3.4477658273 -0.1295692443 -1.1866086327
C -3.4309214643 1.1602807180 -1.8204257451
C -2.0776253848 1.4930219588 -2.4164177641
S -0.7705752537 -1.2227303519 -0.5489659128
C 0.3435889172 -0.3991431349 0.6897028979
H -0.1871112148 0.5077258459 1.0174968512
C 0.5695398927 -1.3415461522 1.8536765529
Cl 1.5977922467 -0.5264532116 3.0632446862
N 1.5385905013 0.0281869509 0.0420567753
C 2.6454737490 -0.7631062966 -0.2773269423
O 2.7552779580 -1.9385802696 -0.0215913915
C 3.5802952591 0.1372090042 -0.9757569852
C 4.8447448295 -0.0994740008 -1.4747580883
C 5.4981087422 0.9583154767 -2.1038695622
C 4.8992166408 2.2028345129 -2.2261044520
C 3.6220812294 2.4425875425 -1.7236479562
C 2.9756336040 1.3956276054 -1.0983033044
C 1.6461854285 1.3227728005 -0.4764347560
O 0.7667038469 2.1496268405 -0.3995202410
H -5.8031994249 -1.8701505699 -0.1671514887
H -6.5279347695 -1.5166142066 1.4133233412
H -5.5767152686 -0.2804260682 0.5773214133
H -4.5029502997 -2.9042084984 1.7410082686
H -4.2125253314 -1.2531838084 2.3687910085
H -4.1990804298 1.0813061590 -2.5909871641
H -3.7185804093 1.9147978837 -1.0811504396
H -2.1609451629 2.3949684242 -3.0143929183
H -1.3459989608 1.6696593431 -1.6272480821
H -1.7305237835 0.6749999375 -3.0432375839
H -0.3798836046 -1.5753504184 2.3341902352
H 1.0830118515 -2.2484573899 1.5377322431
H 5.3009891175 -1.0712257448 -1.3759502222
H 6.4876421073 0.8033295654 -2.5033759299
H 5.4295665853 3.0015668440 -2.7195508786
H 3.1475851299 3.4063658672 -1.8141867287
40
CONF650
C -3.5330752247 1.9844597919 2.1519258136
C -2.2239747862 1.6028869970 1.4901327349
O -2.3058327090 0.2695378641 0.9526019854
P -2.5773134475 0.0069868924 -0.5971086370
S -4.0333625577 1.0277240779 -1.4130732814
O -2.7103476752 -1.5729334604 -0.6187994220
C -4.0024459637 -2.2147027052 -0.5332535908
C -4.6274134378 -2.0303447721 0.8328138307
S -0.6914461625 0.2367588315 -1.5233872928
C 0.3248781033 -0.7876834836 -0.3433138574
H -0.2517499497 -0.8576857263 0.5857907300
C 0.5492862802 -2.1525335522 -0.9610168262
Cl 1.4868223350 -3.1541333912 0.1817812503
N 1.5307541842 -0.0909668610 -0.0375210961
C 2.6109134401 0.0903509750 -0.9066778987
O 2.6739329411 -0.3543817137 -2.0282979338
C 3.5800651024 0.9117595792 -0.1611074357
C 4.8338192491 1.3627772470 -0.5195229323
C 5.5289613310 2.1383475036 0.4062405872
C 4.9808958535 2.4464988780 1.6419836093
C 3.7147716447 1.9920036883 2.0046692688
C 3.0261373959 1.2229813297 1.0883829115
C 1.6950532706 0.6038351333 1.1637922772
O 0.8589058488 0.6435065877 2.0370391434
H -4.3287776362 2.0178302779 1.4104537113
H -3.7893980525 1.2575288166 2.9172396898
H -3.4313760677 2.9644295660 2.6064448780
H -1.3999067584 1.5680181152 2.2069455034
H -1.9768907289 2.3020102032 0.6846163048
H -4.6470200648 -1.7972720109 -1.3128250641
H -3.7899359660 -3.2629170489 -0.7467580886
H -4.8533541462 -0.9770941053 0.9929206297
H -5.5485455611 -2.6018814556 0.8880968658
H -3.9444495224 -2.3661126622 1.6087320821
H -0.4044697804 -2.6477492602 -1.1325363187
H 1.1222818793 -2.0757384257 -1.8843696724
H 5.2506746851 1.1183509475 -1.4832315545
H 6.5110788934 2.5052424757 0.1540126716
H 5.5429893841 3.0499158719 2.3367376877
H 3.2808482714 2.2270860453 2.9631455745
40
CONF641
C -3.1599077457 1.8219209569 2.9379003202
C -1.9928443973 1.4372381486 2.0512209214
O -2.2249747486 0.1418794269 1.4608292544
P -2.7211274080 0.0179410338 -0.0420152892
S -4.2459127784 1.1197695913 -0.5774918975
O -2.9428653430 -1.5527494987 -0.0267945855
C -3.8990946480 -2.1691348438 -0.9110664923
C -3.4322848049 -2.1564173354 -2.3535520436
S -0.9585309706 0.3240505998 -1.2037591555
C 0.2071917098 -0.7489195408 -0.2285683062
H -0.2289508267 -0.8648020577 0.7701676488
C 0.3456610102 -2.0872509640 -0.9266297124
Cl 1.5031812709 -3.0977893201 -0.0125284946
N 1.4476174945 -0.0613007788 -0.0701572457
C 1.8156305371 0.5387975882 1.1351537706
O 1.1356404825 0.5115111688 2.1359561619
C 3.1238400621 1.1625912827 0.8875295965
C 3.9615092017 1.8628358733 1.7318807412
C 5.1567529170 2.3429536551 1.2007645385
C 5.4922237843 2.1261840880 -0.1269275219
C 4.6466685846 1.4196753005 -0.9799385824
C 3.4632155961 0.9430705329 -0.4547036734
C 2.3769115352 0.1755346412 -1.0877652519
O 2.2520271333 -0.1943393298 -2.2308242503
H -3.3208676305 1.0563061945 3.6912215025
H -2.9444393299 2.7679104285 3.4237785787
H -4.0632661320 1.9244307603 2.3400548409
H -1.0667528632 1.3306906906 2.6219191665
H -1.8471843534 2.1775944875 1.2568630635
H -4.0017772791 -3.1841473923 -0.5249842516
H -4.8511617139 -1.6378047494 -0.8171747408
H -3.3115069856 -1.1277905607 -2.6926950313
H -2.4835632475 -2.6752472326 -2.4621342020
H -4.1776848392 -2.6447697987 -2.9731711831
H -0.6092844719 -2.6086335877 -0.9297330955
H 0.7358347277 -1.9653736569 -1.9364770330
H 3.6923896365 2.0269847114 2.7628519668
H 5.8316657685 2.8938889489 1.8361456152
H 6.4242338946 2.5109619706 -0.5091053160
H 4.8980131334 1.2462844384 -2.0138379408
40
CONF197
C -5.8510056581 -0.6612442129 -0.5523089698
C -4.4935888840 -1.1717559281 -0.1124052631
O -3.5178419450 -0.1514217564 -0.4074444095
P -2.1091111510 -0.1156114623 0.3217247105
S -2.1863600549 -0.3207276914 2.2728288840
O -1.4820871330 1.2204372664 -0.2570367562
C -1.6298461337 2.4848589420 0.4252400486
C -3.0776183183 2.9157454243 0.5110083743
S -1.0093494640 -1.5762950728 -0.7347990990
C 0.5051825770 -1.5141154115 0.3286389362
H 0.1653780021 -1.2469200738 1.3394794175
C 1.1569241809 -2.8830923944 0.3152167426
Cl 2.5785346523 -2.8456806121 1.3955642472
N 1.3656054092 -0.4667193094 -0.1200189778
C 1.4351382838 0.7612816898 0.5374296219
O 0.8323579062 1.0166036209 1.5562632114
C 2.3427503221 1.5957575325 -0.2634660422
C 2.7919908082 2.8855789055 -0.0646414293
C 3.6621215110 3.4177330175 -1.0137897272
C 4.0621376435 2.6791702243 -2.1170778047
C 3.6075677079 1.3775809771 -2.3188994469
C 2.7455524973 0.8498785623 -1.3793919201
C 2.0964369394 -0.4709568485 -1.3128976352
O 2.1365198884 -1.3930624129 -2.0916554074
H -6.5949386631 -1.4302414145 -0.3724990021
H -6.1162622767 0.2314198517 0.0069361460
H -5.8294639459 -0.4207641604 -1.6111090645
H -4.2112638888 -2.0769199084 -0.6561862230
H -4.4694133745 -1.3767845899 0.9632400286
H -1.1858856558 2.3877010826 1.4213759609
H -1.0344648726 3.1722256854 -0.1778281344
H -3.6310597567 2.2208310928 1.1417439045
H -3.1320431978 3.9081081687 0.9475185138
H -3.5247737348 2.9264181060 -0.4795824694
H 0.4662359928 -3.6321101400 0.6962999984
H 1.5038912984 -3.1436147524 -0.6837072831
H 2.4767692552 3.4512528177 0.7974466011
H 4.0301314652 4.4231236376 -0.8852793308
H 4.7374360862 3.1183517693 -2.8339100769
H 3.9119104853 0.7949128643 -3.1733689707
40
CONF565
C -3.4867732557 -3.1887287690 0.8572647226
C -4.4398685832 -2.0119633441 0.7914603365
O -3.9696836600 -0.9867603290 -0.1005025811
P -2.6731500605 -0.1389897878 0.2094217386
S -2.3623581819 0.2260227177 2.1160909088
O -3.0740101917 1.0695211557 -0.7359030618
C -2.1782874776 2.0796353730 -1.2210390237
C -1.8643316117 3.1233806733 -0.1660351414
S -1.0935822162 -1.1361264115 -0.8336612687
C 0.2760851510 -0.9732974589 0.4015132294
H -0.1505448002 -0.4530076577 1.2733002748
C 0.7613728323 -2.3613307780 0.7764638355
Cl 2.0632170736 -2.2023851448 1.9906613244
N 1.3099517168 -0.1416786985 -0.1263557196
C 1.4932392500 1.1758219493 0.2982603110
O 0.8103634526 1.7151106246 1.1386518501
C 2.6216876596 1.6957159875 -0.4893586123
C 3.2442897593 2.9271097068 -0.4643664375
C 4.3061134820 3.1295343082 -1.3433434925
C 4.7215218211 2.1312151282 -2.2113260339
C 4.0923080616 0.8883311679 -2.2375658166
C 3.0409392953 0.6866395884 -1.3668946912
C 2.1854977733 -0.4946282337 -1.1573716123
O 2.1806331219 -1.5589094446 -1.7289133610
H -2.5649347764 -2.8840176431 1.3512816768
H -3.9425580246 -3.9912668283 1.4281940599
H -3.2533644915 -3.5423442253 -0.1438137196
H -4.5783944108 -1.5743469519 1.7853041391
H -5.4060071449 -2.2977618779 0.3736978664
H -1.2628746347 1.6022298016 -1.5885755890
H -2.7177871869 2.5200168120 -2.0620966282
H -2.7865393368 3.5005981961 0.2680050705
H -1.2534717718 2.7002175400 0.6301814892
H -1.3211676842 3.9443588071 -0.6233864045
H -0.0423932880 -2.9370764108 1.2301445577
H 1.1731725837 -2.8809814327 -0.0874995368
H 2.9142497121 3.6964953074 0.2149365875
H 4.8128808157 4.0813456224 -1.3465068664
H 5.5469253144 2.3180555085 -2.8796004122
H 4.4074744242 0.1058277416 -2.9088199723
40
CONF566
C -3.5452026809 -2.4482562459 2.0941003825
C -4.4901842658 -1.6247044396 1.2418425836
O -3.8986654657 -1.2555112342 -0.0155515168
P -2.6776871946 -0.2564592621 -0.1042205528
S -2.6731054564 1.1606622901 1.2586450088
O -2.9439447185 0.1472922934 -1.6143179365
C -1.9972630372 0.7802264880 -2.4867451059
C -1.8461752230 2.2609989719 -2.1940390846
S -0.9405720800 -1.5034146434 -0.1820376604
C 0.2084665214 -0.5434536969 0.9071096685
H -0.3563462403 0.3344839355 1.2578629738
C 0.6279788983 -1.4243153499 2.0693973456
Cl 1.7106190466 -0.4845322000 3.1366578849
N 1.3141292830 -0.0602719662 0.1434833233
C 2.3537693928 -0.8451952654 -0.3635704924
O 2.4477637477 -2.0405383849 -0.2161574576
C 3.2325341780 0.0889600777 -1.0889539221
C 4.4192917332 -0.1332745521 -1.7570224353
C 5.0359291158 0.9625538109 -2.3572644669
C 4.4772160806 2.2296680980 -2.2876036725
C 3.2782569859 2.4547735330 -1.6146487812
C 2.6681277459 1.3697753180 -1.0187202567
C 1.4202227483 1.2767027515 -0.2454706856
O 0.6010967599 2.1249301996 0.0246157647
H -4.0746990094 -2.8186250944 2.9660072735
H -3.1546723837 -3.2866830050 1.5229712432
H -2.7153694531 -1.8244723085 2.4242800551
H -4.7870189410 -0.7129337581 1.7700663154
H -5.3759799798 -2.1934080822 0.9562781916
H -1.0347283218 0.2623787790 -2.4087237138
H -2.4153019664 0.6165654936 -3.4821582336
H -1.2495154700 2.7223583673 -2.9746312696
H -2.8240717839 2.7342081774 -2.1626024984
H -1.3528907271 2.4201395740 -1.2361260015
H -0.2383550308 -1.7188076035 2.6576564690
H 1.1782139433 -2.2977820018 1.7225118858
H 4.8454613777 -1.1223439406 -1.8055044503
H 5.9652874587 0.8202014866 -2.8853044656
H 4.9782261549 3.0582511314 -2.7621705396
H 2.8361658260 3.4362100858 -1.5539830445
40
CONF651
C -3.4463047881 2.0399854778 2.2409401610
C -2.1598320946 1.6400428803 1.5462565155
O -2.2648273340 0.3003119272 1.0298064214
P -2.5952708748 0.0183737116 -0.5048291277
S -4.0911474462 1.0177440347 -1.2739788272
O -2.7160986258 -1.5626942724 -0.5035007413
C -3.9977235169 -2.2138179362 -0.3550594060
C -4.5640914080 -2.0200541160 1.0350093391
S -0.7487697666 0.2515219066 -1.5064739082
C 0.3075372492 -0.7879088837 -0.3755564570
H -0.2386185208 -0.8723220871 0.5706390916
C 0.5117388922 -2.1428338106 -1.0215295591
Cl 1.4839924182 -3.1629349678 0.0747869740
N 1.5227773884 -0.0958140481 -0.0981578041
C 1.7253330455 0.5808306136 1.1078241473
O 0.9157029446 0.6107009981 2.0060190597
C 3.0559325679 1.1964504587 1.0019152570
C 3.7749226289 1.9483981985 1.9090083369
C 5.0318779837 2.4030345968 1.5159243698
C 5.5416752280 2.1116147617 0.2599097611
C 4.8158183816 1.3533419151 -0.6565739296
C 3.5711337666 0.9021450192 -0.2680486403
C 2.5769749070 0.0953979118 -0.9965700662
O 2.6048777622 -0.3322246108 -2.1262370348
H -3.3255230019 3.0263982055 2.6764767671
H -4.2639512994 2.0663911526 1.5234621519
H -3.6834669745 1.3268468371 3.0251229437
H -1.3154728509 1.6087330365 2.2391875002
H -1.9317920806 2.3265292604 0.7243560895
H -4.6791538843 -1.8099933097 -1.1100401072
H -3.7857370444 -3.2625457562 -0.5666191187
H -3.8459922408 -2.3438586731 1.7838100749
H -4.7898004966 -0.9666786373 1.1947204468
H -5.4781433778 -2.5967350521 1.1356069896
H -0.4472286393 -2.6350578745 -1.1710237790
H 1.0553879661 -2.0512746934 -1.9611627297
H 3.3707290513 2.1703848376 2.8834692308
H 5.6172228026 2.9930220106 2.2029759376
H 6.5177354952 2.4779231523 -0.0155700328
H 5.2028829886 1.1218685770 -1.6357788186
40
CONF686
C -4.7508865565 -2.9347064946 0.6565932972
C -3.3272893710 -2.6038416485 1.0539053508
O -3.1775881235 -1.1817624926 1.3047035434
P -2.6834010115 -0.1584522793 0.2152424459
S -2.7028421686 1.6817331866 0.8773348421
O -3.6280225414 -0.4629659252 -1.0234141484
C -3.5236620533 0.3096666375 -2.2380566671
C -4.7185167310 -0.0300446349 -3.1053625255
S -0.7912465030 -0.8903270016 -0.4619173831
C 0.2642905792 0.1924938051 0.5971361508
H -0.1737760937 1.2001476293 0.5557289787
C 0.2506851749 -0.3558510617 2.0112776245
Cl 1.2687219479 0.6837053203 3.0441836526
N 1.5715707296 0.2730200648 0.0350394029
C 2.4785426327 -0.7868972729 -0.0398935561
O 2.2598000792 -1.9027499388 0.3689085557
C 3.6709074991 -0.2356969762 -0.7053330110
C 4.8741989493 -0.8305920812 -1.0252989428
C 5.8308269535 -0.0463832791 -1.6665968546
C 5.5832563734 1.2831002662 -1.9723577044
C 4.3686616628 1.8847297480 -1.6495683890
C 3.4206233477 1.1085843465 -1.0144392723
C 2.0637548511 1.4418474727 -0.5526984870
O 1.4391857881 2.4740469977 -0.6280685038
H -5.4402622577 -2.5899829854 1.4224016096
H -5.0025938022 -2.4526221547 -0.2837763238
H -4.8464663567 -4.0103593576 0.5460194935
H -2.6161174487 -2.9009321053 0.2781050990
H -3.0601237417 -3.0740709881 2.0017521073
H -3.5051204192 1.3720687581 -1.9741798169
H -2.5830071163 0.0477842656 -2.7304814375
H -5.6393119763 0.2182850464 -2.5853324315
H -4.6628325178 0.5411974661 -4.0260933178
H -4.7185496548 -1.0904007999 -3.3401291344
H -0.7612479516 -0.3281549352 2.4175779331
H 0.6619017345 -1.3646068486 2.0440414810
H 5.0569084707 -1.8651533056 -0.7834792658
H 6.7807196124 -0.4838110177 -1.9295078452
H 6.3429147685 1.8646991916 -2.4698033820
H 4.1660286306 2.9175561337 -1.8831606903
40
CONF87
C -1.4704021432 2.7183688417 1.6027816325
C -0.9492640197 2.7186932700 0.1811179667
O -0.7339977027 1.3806912016 -0.3152451054
P -1.9495608017 0.3978472825 -0.6252916319
S -3.5580159381 1.2513143045 -1.3416092112
O -2.1450481593 -0.3338965594 0.7780432897
C -3.3672648773 -1.0139764352 1.1105520378
C -3.5323673005 -2.3027148168 0.3303823151
S -0.9787734612 -0.9930306579 -1.8757089731
C 0.2508882988 -1.7181998971 -0.6748502213
H -0.3150385064 -2.1885534319 0.1360672379
C 1.0560505351 -2.7363404423 -1.4612549439
Cl 2.1902168900 -3.5536485690 -0.3477623458
N 1.0556470079 -0.7020760209 -0.0847416433
C 1.8541606183 0.1958166556 -0.7938093808
O 2.0320818731 0.1580159434 -1.9893265347
C 2.3772139556 1.1380105608 0.2102822177
C 3.2131398731 2.2266548396 0.0681181435
C 3.5184737401 2.9589554414 1.2134945688
C 3.0028235502 2.6054995205 2.4511626658
C 2.1613237532 1.5046239950 2.5952496083
C 1.8565912120 0.7802655613 1.4606160084
C 0.9918385637 -0.3966118228 1.2777599104
O 0.3419677978 -1.0216391095 2.0820223076
H -1.4770901338 3.7350538865 1.9823601235
H -2.4852304841 2.3244507615 1.6253114728
H -0.8397872943 2.0979237799 2.2352408971
H 0.0356422348 3.1833703428 0.1083153170
H -1.6508160970 3.2250563944 -0.4891694011
H -3.2820845637 -1.1973055992 2.1824755508
H -4.2029729477 -0.3362272646 0.9083059375
H -4.4543785110 -2.7879974852 0.6343083325
H -3.5824566804 -2.0862247895 -0.7366497109
H -2.6987157480 -2.9744267310 0.5185560412
H 0.4017775220 -3.4917154294 -1.8908995012
H 1.6434316646 -2.2483850157 -2.2379758854
H 3.6076729948 2.4934082785 -0.8992862265
H 4.1670579566 3.8166542754 1.1328964968
H 3.2553556631 3.1928708755 3.3194012982
H 1.7569640709 1.2222282076 3.5542177167
40
CONF647
C -3.2061493671 1.6716479851 3.0299667526
C -2.0366556601 1.3542569773 2.1202526815
O -2.2457533150 0.0811932087 1.4744256220
P -2.7304291644 0.0132621100 -0.0355352601
S -4.2462126664 1.1405449890 -0.5428346271
O -2.9594028168 -1.5560630141 -0.0779224542
C -3.8966217312 -2.1369972832 -1.0055310755
C -3.4023329608 -2.0637180288 -2.4370496682
S -0.9575165565 0.3528402145 -1.1724226688
C 0.2090042746 -0.7287899570 -0.2071967825
H -0.2164134141 -0.8349992941 0.7971029727
C 0.3260585222 -2.0725251390 -0.8984280930
Cl 1.4853007916 -3.0877729502 0.0080967999
N 1.4568987609 -0.0510422342 -0.0667131565
C 1.8299641570 0.5736013077 1.1246793972
O 1.1498967299 0.5732869003 2.1258182085
C 3.1431646213 1.1809393595 0.8630434786
C 3.9869136089 1.8936778245 1.6907668355
C 5.1865386760 2.3503103545 1.1488382899
C 5.5206942610 2.0986136614 -0.1730267990
C 4.6687580942 1.3801072988 -1.0094739648
C 3.4807283136 0.9273145507 -0.4736455125
C 2.3871330807 0.1564925760 -1.0898539875
O 2.2584303221 -0.2349795180 -2.2252474124
H -3.0082727180 2.5983954130 3.5584753248
H -4.1148858734 1.7821437588 2.4417726088
H -3.3461477309 0.8683708384 3.7474260467
H -1.1038710025 1.2452261733 2.6793594548
H -1.9140959734 2.1321902238 1.3587762386
H -4.0039709513 -3.1673609823 -0.6639197775
H -4.8517055353 -1.6118329829 -0.9078588498
H -3.2806317471 -1.0216416025 -2.7319972018
H -2.4486898224 -2.5730188281 -2.5478339102
H -4.1330726113 -2.5298664966 -3.0903212856
H -0.6337592429 -2.5848771099 -0.8855967968
H 0.7052869887 -1.9611744782 -1.9136334505
H 3.7190487842 2.0850296417 2.7173716308
H 5.8661210720 2.9103780998 1.7711296015
H 6.4564871289 2.4653014926 -0.5636815675
H 4.9186996453 1.1797237984 -2.0388557069
40
CONF56
C -1.2019234023 3.0563379249 1.1686291075
C -0.9823548991 2.8158269773 -0.3100479265
O -0.7663845930 1.4185823027 -0.6004187079
P -1.9512349665 0.3575422589 -0.5431690870
S -3.7172970116 1.0357299480 -1.0414307752
O -1.8361870679 -0.1646246343 0.9611694000
C -2.9226876138 -0.8438977477 1.6133864901
C -3.0095838889 -2.2988486536 1.1990288661
S -1.1780397111 -1.1612471784 -1.7805897679
C 0.2527626042 -1.7991482151 -0.7602010211
H -0.1677775579 -2.4091677738 0.0457943290
C 1.0970924180 -2.6335403686 -1.7063763103
Cl 2.4332347585 -3.3746865579 -0.7788160241
N 0.9758386889 -0.7375736860 -0.1484215657
C 1.6250487429 0.2910253097 -0.8330699245
O 1.7081596010 0.3690080228 -2.0368206506
C 2.1488432896 1.1887370232 0.2111621767
C 2.8526624429 2.3706880791 0.1054885549
C 3.1950898288 3.0255009585 1.2865914098
C 2.8437165181 2.5065575414 2.5235180620
C 2.1353802960 1.3115834838 2.6307729251
C 1.7927839378 0.6643107520 1.4604784012
C 1.0390049911 -0.5797564664 1.2391127869
O 0.5592968480 -1.3570091522 2.0299597664
H -2.1368858107 2.5952121092 1.4829225351
H -0.3860435064 2.6295729983 1.7470471964
H -1.2557397694 4.1246101585 1.3522599546
H -0.0740719102 3.2997993711 -0.6724028609
H -1.8443570465 3.1585204015 -0.8910062651
H -2.6973153680 -0.7449731375 2.6761017512
H -3.8515116011 -0.3156394288 1.3733815728
H -3.1901511501 -2.3731324143 0.1270760625
H -2.0854253346 -2.8150221768 1.4476034307
H -3.8313114584 -2.7711734751 1.7277967568
H 0.5027927003 -3.4344282443 -2.1409152157
H 1.5363377662 -2.0119579997 -2.4855023137
H 3.1219309440 2.7648746525 -0.8614594587
H 3.7425988181 3.9530189813 1.2352886550
H 3.1211835925 3.0368960703 3.4204278827
H 1.8560226926 0.9011403175 3.5879318724
40
CONF640
C -3.1031849014 1.6672707301 3.0497171487
C -1.9433123842 1.3135688994 2.1409588933
O -2.1881365402 0.0506442911 1.4895510215
P -2.7137316939 0.0022957775 -0.0077528486
S -4.2633055876 1.1100890515 -0.4520558129
O -2.9141287123 -1.5698012996 -0.0748126546
C -3.8933456761 -2.1501526469 -0.9583091016
C -3.4747755455 -2.0572025988 -2.4125743541
S -0.9793556435 0.3957588024 -1.1852492550
C 0.2085340153 -0.7383494328 -0.3117197140
H -0.2201448570 -0.9475138773 0.6751103508
C 0.3620509888 -2.0080249148 -1.1254370234
Cl 1.5373556988 -3.0792289918 -0.3084432824
N 1.4404049936 -0.0497392807 -0.0993337319
C 2.3586523745 0.2912867097 -1.0973470324
O 2.2285279818 0.0263544409 -2.2686160621
C 3.4407929426 1.0112847865 -0.4040923701
C 4.6142230610 1.5493932367 -0.8911266416
C 5.4578284247 2.1851630980 0.0176791152
C 5.1302504607 2.2747948313 1.3619419305
C 3.9453142906 1.7323014397 1.8546596650
C 3.1098476526 1.1017841461 0.9550212632
C 1.8120473381 0.4400329609 1.1537137498
O 1.1423283625 0.3105899814 2.1534078401
H -4.0077150133 1.8078065426 2.4615127998
H -3.2694164626 0.8680288459 3.7660649857
H -2.8759852213 2.5864987117 3.5796267793
H -1.0170466066 1.1692140736 2.7029321286
H -1.7918039955 2.0898600380 1.3827300665
H -3.9735108483 -3.1848988759 -0.6225749291
H -4.8467232316 -1.6350253451 -0.8058273345
H -2.5301331207 -2.5672713039 -2.5813630307
H -4.2402875773 -2.5124565666 -3.0328885036
H -3.3660461493 -1.0111734189 -2.6983182853
H -0.5858541349 -2.5400017772 -1.1717994852
H 0.7453228053 -1.7919467469 -2.1220905599
H 4.8596711237 1.4750952865 -1.9382495843
H 6.3821694164 2.6152028246 -0.3336439061
H 5.8033548233 2.7736649644 2.0407705772
H 3.6821935783 1.7972075461 2.8981467747
40
CONF643
C -3.1631412880 1.5415529805 3.1180864760
C -2.0019276604 1.2518080491 2.1887584097
O -2.2231618122 0.0066882453 1.4946563078
P -2.7270923565 0.0017571220 -0.0106285119
S -4.2576444913 1.1380329075 -0.4485322505
O -2.9449378020 -1.5658517911 -0.1198036584
C -3.8974263734 -2.1122263510 -1.0528417101
C -3.4293830893 -1.9794895443 -2.4888785508
S -0.9718643384 0.4057654907 -1.1536884360
C 0.2096672890 -0.7214994699 -0.2619376690
H -0.2095322609 -0.8937665953 0.7358486973
C 0.3352556096 -2.0184699519 -1.0361646723
Cl 1.5081774762 -3.0777987003 -0.2004353619
N 1.4524365198 -0.0426484601 -0.0855496118
C 2.3717549674 0.2418338141 -1.1000725444
O 2.2357986156 -0.0733993435 -2.2581004593
C 3.4644253823 0.9789509891 -0.4423472347
C 4.6434190735 1.4784322853 -0.9562319020
C 5.4969660416 2.1457436065 -0.0799410672
C 5.1731996002 2.3030821261 1.2590013935
C 3.9826772632 1.7993689183 1.7787985383
C 3.1373468734 1.1373816295 0.9115080194
C 1.8318221235 0.5017722936 1.1425654767
O 1.1616458504 0.4268226976 2.1475754856
H -3.3035128053 0.7122848831 3.8052537491
H -2.9554675767 2.4460951029 3.6802756146
H -4.0751691516 1.6803101897 2.5411107559
H -1.0666412285 1.1138883857 2.7372438303
H -1.8782569362 2.0582516420 1.4576172954
H -3.9957837249 -3.1558902865 -0.7512629869
H -4.8520343845 -1.5947241119 -0.9168738657
H -4.1721385039 -2.4184072745 -3.1474474815
H -3.3127213888 -0.9260113223 -2.7424096151
H -2.4782360332 -2.4835416970 -2.6382703576
H -0.6199025635 -2.5393351141 -1.0511283476
H 0.7078872597 -1.8403681036 -2.0442710327
H 4.8854585727 1.3514225467 -1.9990665074
H 6.4258442393 2.5469846512 -0.4527339696
H 5.8537829197 2.8253526534 1.9122955351
H 3.7228275511 1.9172884151 2.8184557674
40
CONF646
C -3.5063643210 2.0510319956 2.1008837518
C -2.2001472088 1.6447994312 1.4481100940
O -2.2901946683 0.3001193788 0.9417423565
P -2.5715937222 0.0025450804 -0.5997138916
S -4.0392550748 0.9975819839 -1.4266850542
O -2.6964080548 -1.5778438762 -0.5860565943
C -3.9839738590 -2.2243210260 -0.4713243498
C -4.5923998694 -2.0156987109 0.8987117354
S -0.6926163342 0.2202411863 -1.5428844956
C 0.3253137676 -0.8017044615 -0.3624024647
H -0.2565955685 -0.8824431210 0.5625423979
C 0.5642347995 -2.1605783950 -0.9879175494
Cl 1.4996292860 -3.1640151643 0.1549056871
N 1.5236799336 -0.0978669608 -0.0437192416
C 2.6062355642 0.1016656026 -0.9058902520
O 2.6778309264 -0.3309365352 -2.0317335120
C 3.5650663158 0.9233040074 -0.1472171380
C 4.8161561024 1.3897715958 -0.4950434180
C 5.5001702488 2.1612271939 0.4424060792
C 4.9442127956 2.4504417539 1.6792089085
C 3.6808429318 1.9803023418 2.0312848896
C 3.0032676627 1.2155246265 1.1033225365
C 1.6774168595 0.5840694151 1.1662496176
O 0.8378866070 0.6068478015 2.0368266841
H -3.7661198300 1.3455429979 2.8849055582
H -3.3983493545 3.0417720398 2.5299355893
H -4.3027000340 2.0700123219 1.3595605871
H -1.3767734625 1.6200122016 2.1661601726
H -1.9478069571 2.3233427023 0.6266839836
H -4.6404930038 -1.8257757313 -1.2508064900
H -3.7685288894 -3.2755150485 -0.6663939395
H -4.8216981083 -0.9605673103 1.0406905221
H -5.5097164324 -2.5906245646 0.9773984830
H -3.8978030522 -2.3323577305 1.6723590844
H -0.3847022116 -2.6610389852 -1.1706611588
H 1.1437685373 -2.0730455582 -1.9062475511
H 5.2393833055 1.1601175416 -1.4596062021
H 6.4799288546 2.5399065986 0.1985918327
H 5.4978593376 3.0509849710 2.3831746694
H 3.2405959209 2.2004150525 2.9904414211
40
CONF481
C -5.6251839871 -1.4985328580 0.7726156206
C -4.3610257509 -2.3304616657 0.8282198799
O -3.3215194029 -1.7997659340 -0.0205409069
P -2.5997946194 -0.4229928506 0.2799823568
S -2.2449169521 -0.0527205498 2.1779272411
O -3.5572847135 0.6220593739 -0.4421886462
C -3.4846720325 2.0357975817 -0.1940342637
C -2.1896262494 2.6439584513 -0.6942794960
S -0.9573085589 -0.6660400926 -1.0299362987
C 0.3944231060 -0.7673505567 0.2412625582
H 0.0057310003 -0.2576973437 1.1362097981
C 0.6884917175 -2.2238755505 0.5348455511
Cl 1.9500515929 -2.3139869334 1.7941391882
N 1.5230697709 -0.0211656202 -0.2062580001
C 1.6793542593 1.3213379155 0.1534694129
O 0.9012948842 1.9198832705 0.8602810057
C 2.9094225556 1.7735680488 -0.5111527602
C 3.5582800466 2.9912133090 -0.4744270482
C 4.7232876877 3.1229093701 -1.2270033727
C 5.2119244385 2.0703707488 -1.9858595171
C 4.5557772854 0.8417297185 -2.0248497406
C 3.4025147412 0.7098254680 -1.2788812968
C 2.4933915995 -0.4395333899 -1.1211298360
O 2.5254590293 -1.5242433912 -1.6517441264
H -5.9360805732 -1.3580884606 -0.2591709364
H -6.4123460216 -2.0043556584 1.3230645200
H -5.4491857993 -0.5230660835 1.2234362909
H -4.5220657044 -3.3370485428 0.4401363896
H -3.9777737968 -2.3813564634 1.8524903004
H -4.3477364371 2.4376826378 -0.7266995273
H -3.5959191334 2.2062769516 0.8816433382
H -1.3505956835 2.3086588205 -0.0836715639
H -2.0122216731 2.3559165730 -1.7277809720
H -2.2517443222 3.7254535401 -0.6270857571
H -0.2023538290 -2.7131250134 0.9268742787
H 1.0628939499 -2.7400096625 -0.3479836270
H 3.1696880779 3.8036581782 0.1181542363
H 5.2526561045 4.0622998457 -1.2181387859
H 6.1160031276 2.2030755629 -2.5584322946
H 4.9265969445 0.0177996422 -2.6129359867
40
CONF482
C -5.6268281622 -1.4980376104 0.7718539366
C -4.3611831680 -2.3274634544 0.8310894754
O -3.3221541135 -1.7975360696 -0.0187180685
P -2.5989703799 -0.4213543074 0.2811452792
S -2.2433344270 -0.0509760312 2.1788824632
O -3.5555971346 0.6244396661 -0.4410735096
C -3.4821964987 2.0381798001 -0.1930458724
C -2.1870414747 2.6457521273 -0.6936903054
S -0.9573080372 -0.6664875133 -1.0293204606
C 0.3948862059 -0.7698903864 0.2413232366
H 0.0065394711 -0.2612799166 1.1370156034
C 0.6888314868 -2.2267852025 0.5330682209
Cl 1.9514437148 -2.3186263814 1.7912296297
N 1.5233834486 -0.0232104657 -0.2058152755
C 1.6773478218 1.3199737286 0.1523772434
O 0.8979753973 1.9180779640 0.8581378263
C 2.9068449012 1.7735313554 -0.5123295860
C 3.5532760435 2.9925138388 -0.4772375143
C 4.7183296627 3.1253179107 -1.2295400168
C 5.2093770194 2.0725186102 -1.9864858033
C 4.5556058260 0.8425583787 -2.0239092126
C 3.4022370115 0.7095885713 -1.2782906239
C 2.4948761759 -0.4410716136 -1.1196882143
O 2.5289504026 -1.5262042427 -1.6493072301
H -6.4128865163 -2.0025863340 1.3250608654
H -5.4523747046 -0.5200765822 1.2178597462
H -5.9383629373 -1.3631597511 -0.2604880676
H -4.5201384080 -3.3356276116 0.4462020664
H -3.9785308608 -2.3742908609 1.8558009973
H -4.3452365539 2.4404314328 -0.7254924566
H -3.5930442958 2.2088065806 0.8826482165
H -1.3480348247 2.3103645061 -0.0831101493
H -2.0099349783 2.3573042234 -1.7271300283
H -2.2487822083 3.7272981720 -0.6268538131
H -0.2018066690 -2.7161778530 0.9253704434
H 1.0624258042 -2.7421244581 -0.3505623808
H 3.1627972990 3.8051199916 0.1138862790
H 5.2457618590 4.0658102301 -1.2220473292
H 6.1134000751 2.2061241636 -2.5589338638
H 4.9282627181 0.0184608792 -2.6106015869
40
CONF652
C -3.3753726440 2.2141947967 2.0908147587
C -2.0960220814 1.7235319431 1.4428549760
O -2.2419829696 0.3604777045 1.0045509810
P -2.5880167197 0.0025916123 -0.5111309408
S -4.0985400346 0.9536295955 -1.3125461458
O -2.7003543371 -1.5768342780 -0.4313710869
C -3.9741618709 -2.2261994393 -0.2210754355
C -4.5103084372 -1.9642845460 1.1698962207
S -0.7526474034 0.1970434679 -1.5406862082
C 0.3055962061 -0.8211786546 -0.3930538884
H -0.2498996093 -0.9116137960 0.5470950965
C 0.5363831764 -2.1742618868 -1.0342729824
Cl 1.5092113497 -3.1798493556 0.0749023502
N 1.5078810989 -0.1121790495 -0.1024164705
C 1.6983178752 0.5487399871 1.1140373065
O 0.8878865107 0.5524535786 2.0119669035
C 3.0182584436 1.1883437621 1.0185498359
C 3.7223915703 1.9395210599 1.9377972866
C 4.9710451375 2.4230488608 1.5530414812
C 5.4868335655 2.1601163755 0.2931657319
C 4.7760402681 1.4021753777 -0.6353554401
C 3.5396873050 0.9219186595 -0.2550233460
C 2.5609102596 0.1072873160 -0.9957121869
O 2.5975962548 -0.3070762621 -2.1300744220
H -4.1824783002 2.2250922625 1.3611606242
H -3.6495283468 1.5617712608 2.9148272950
H -3.2225956672 3.2211550801 2.4650248800
H -1.2647656096 1.7004261015 2.1519230092
H -1.8276827903 2.3506046130 0.5860278849
H -4.6749150084 -1.8653584352 -0.9801719484
H -3.7597725168 -3.2832263067 -0.3831735656
H -3.7705651790 -2.2393805484 1.9172823147
H -4.7449721974 -0.9063576137 1.2788201652
H -5.4144053179 -2.5450433246 1.3235792009
H -0.4138431481 -2.6797738171 -1.1950728072
H 1.0898739614 -2.0759277754 -1.9675041123
H 3.3131429192 2.1389781083 2.9150326177
H 5.5449148279 3.0132052932 2.2495514561
H 6.4559935059 2.5488535653 0.0241573331
H 5.1682913314 1.1927475340 -1.6174481987
40
CONF191
C -5.7910141144 -0.7219272519 -0.6124551595
C -4.4844275566 -1.1204761655 0.0438548138
O -3.4399400686 -0.2886233331 -0.5019626830
P -2.0728013870 -0.0597087953 0.2697154871
S -2.2662445002 0.3708420581 2.1752087762
O -1.3512325884 1.0081732223 -0.6558014916
C -1.4951757104 2.4274933496 -0.4298455410
C -2.9247601918 2.8881118400 -0.6114966657
S -0.9809425858 -1.8030036590 -0.2046155505
C 0.5085270586 -1.3998549976 0.8186926993
H 0.1437780557 -0.8763940950 1.7135947579
C 1.2002761251 -2.6988838692 1.1842939078
Cl 2.5984501141 -2.3236912851 2.2303372190
N 1.3469199028 -0.4889599288 0.1069900720
C 2.0585446362 -0.7890460846 -1.0592552498
O 2.1079773852 -1.8817704270 -1.5711930454
C 2.6750052135 0.4809402802 -1.4804175744
C 3.5043024473 0.7644966202 -2.5463575292
C 3.9306024260 2.0823187394 -2.6983421428
C 3.5356400655 3.0729869038 -1.8121005993
C 2.6986503913 2.7875134949 -0.7355306357
C 2.2771135659 1.4820042132 -0.5842598129
C 1.4042681083 0.8672693519 0.4266754896
O 0.8190785999 1.3670096851 1.3615894962
H -5.7118671114 -0.8325669263 -1.6898714110
H -6.5842026700 -1.3626796422 -0.2417506672
H -6.0284583574 0.3123505810 -0.3803400484
H -4.2316971488 -2.1623999722 -0.1683972248
H -4.5169408052 -0.9724568128 1.1286329183
H -1.1337879104 2.6501531808 0.5796862912
H -0.8259561797 2.8733005387 -1.1677537433
H -3.5535377900 2.4485253087 0.1619516975
H -2.9668054276 3.9695691618 -0.5280828158
H -3.2962514062 2.5813158988 -1.5857517748
H 0.5246442913 -3.3411492172 1.7448923732
H 1.5742761960 -3.2065987031 0.2962301878
H 3.8050701837 -0.0129018444 -3.2300477907
H 4.5795445556 2.3343143665 -3.5218330648
H 3.8812397412 4.0841717376 -1.9563577452
H 2.3869497900 3.5501921474 -0.0400005729
40
CONF329
C -1.8741255412 2.5623493525 1.3981097937
C -1.0786446810 2.6177250983 0.1112765343
O -0.7577802571 1.2969226865 -0.3786570235
P -1.8821367907 0.3268363824 -0.9463690851
S -3.2917352051 1.1809871720 -2.0013110730
O -2.3847488238 -0.4160168595 0.3687193107
C -3.5877660410 -1.2092569165 0.3857183110
C -4.0847601596 -1.2676917673 1.8161744930
S -0.7003177491 -1.0972129715 -1.9556084361
C 0.3035500844 -1.7383259908 -0.5178869318
H -0.3984078537 -2.0458998430 0.2644781490
C 1.1065405713 -2.9128049337 -1.0451710726
Cl 2.0202667548 -3.6343765297 0.3099739364
N 1.1142583205 -0.7052489021 0.0330877141
C 2.0858148924 0.0082289085 -0.6691257569
O 2.4325205531 -0.2375482719 -1.8013807139
C 2.5393847844 1.0668101505 0.2490599214
C 3.4881467196 2.0542003224 0.0783866494
C 3.6901570790 2.9431197691 1.1320436238
C 2.9649221239 2.8386417253 2.3092688790
C 2.0084204320 1.8406021635 2.4825927853
C 1.8072198687 0.9601908123 1.4388187770
C 0.8723716286 -0.1681530994 1.3017897766
O 0.0508636443 -0.6016081339 2.0741042432
H -1.9432793724 3.5588906539 1.8221923252
H -2.8773940300 2.1913067133 1.1960775704
H -1.3917655349 1.8948633526 2.1085421370
H -0.1019913125 3.0835818593 0.2545542191
H -1.6341022093 3.1472694075 -0.6690010472
H -4.3221276258 -0.7438207524 -0.2805352208
H -3.3463165686 -2.2062953292 0.0071969784
H -4.3720171473 -0.2770551069 2.1563640476
H -4.9442700394 -1.9278186439 1.8678602599
H -3.2974262998 -1.6445432253 2.4633765863
H 0.4468328064 -3.6764302349 -1.4510432648
H 1.8245860040 -2.5847968976 -1.7956851804
H 4.0451886366 2.1271430367 -0.8419016256
H 4.4235349500 3.7266275379 1.0266989710
H 3.1420515792 3.5429005735 3.1063392825
H 1.4409804552 1.7531795343 3.3951300413
40
CONF190
C -5.7834896705 -0.6515562350 -0.6277208134
C -4.4871569258 -1.0785130155 0.0311203426
O -3.4269923152 -0.2564152489 -0.4989330188
P -2.0602337969 -0.0563306729 0.2811217295
S -2.2540901994 0.3496480499 2.1919114025
O -1.3223240707 1.0165177186 -0.6261183238
C -1.4515323037 2.4338468711 -0.3789870289
C -2.8757146372 2.9128687539 -0.5551658462
S -0.9885229433 -1.8061589341 -0.2145309965
C 0.5106494675 -1.4260322537 0.8036466834
H 0.1555385275 -0.9189886764 1.7116957782
C 1.2029959677 -2.7332689365 1.1374292112
Cl 2.6090149697 -2.3815427304 2.1811982462
N 1.3440289869 -0.5035015262 0.1010964312
C 2.0332598618 -0.7804343333 -1.0841408727
O 2.0710803530 -1.8625972746 -1.6190221960
C 2.6435490964 0.4971546675 -1.4908886978
C 3.4506813803 0.8021349521 -2.5678830289
C 3.8737785625 2.1228712450 -2.7024341294
C 3.4973471736 3.0955641717 -1.7886278115
C 2.6833491014 2.7882934846 -0.7004973002
C 2.2649198115 1.4798890394 -0.5665678115
C 1.4115574954 0.8453194570 0.4487996047
O 0.8473824516 1.3259726593 1.4063521430
H -6.5888310376 -1.2842501869 -0.2696099051
H -6.0061144472 0.3834276680 -0.3843337259
H -5.6995771344 -0.7502616314 -1.7059465873
H -4.2494696824 -2.1215985446 -0.1924652247
H -4.5234304335 -0.9431207708 1.1174222723
H -1.0893237178 2.6374405645 0.6343041625
H -0.7765125283 2.8834869205 -1.1092647153
H -3.2502058300 2.6227606809 -1.5333638036
H -3.5097887817 2.4708034610 0.2125222945
H -2.9053407824 3.9935894875 -0.4580098546
H 0.5304791744 -3.3863281812 1.6892423089
H 1.5699808007 -3.2228001953 0.2363172490
H 3.7368229940 0.0386676521 -3.2732111429
H 4.5052104402 2.3915166593 -3.5342325578
H 3.8394102467 4.1096754624 -1.9202104234
H 2.3860217913 3.5368819201 0.0163193590
40
CONF194
C -5.7953028989 -0.8258004797 -0.6044481555
C -4.4765121416 -1.1809960509 0.0521874547
O -3.4550347847 -0.3327696729 -0.5116501479
P -2.0891982800 -0.0641682428 0.2497173067
S -2.2843728699 0.3960474714 2.1481449512
O -1.3918718854 0.9987353909 -0.6991368654
C -1.5561460324 2.4193941717 -0.4973495879
C -2.9946870712 2.8538040600 -0.6731528506
S -0.9675149683 -1.7963336673 -0.1958056614
C 0.5056736029 -1.3627701889 0.8383489226
H 0.1253515528 -0.8164709862 1.7130308793
C 1.1937376214 -2.6496012604 1.2508426414
Cl 2.5738476701 -2.2423134484 2.3086864590
N 1.3537762366 -0.4690274892 0.1164854715
C 2.0997958555 -0.8009564603 -1.0193552537
O 2.1688092528 -1.9083454413 -1.4962358858
C 2.7225358492 0.4588484362 -1.4615055392
C 3.5839631208 0.7133544132 -2.5091317914
C 4.0100808247 2.0278504156 -2.6881925148
C 3.5834523786 3.0435135228 -1.8460464251
C 2.7137033911 2.7874672750 -0.7882053296
C 2.2927196610 1.4852208894 -0.6097942823
C 1.3929824097 0.8972275843 0.3933113139
O 0.7761547566 1.4227154752 1.2931728605
H -6.0559053436 0.2066819873 -0.3901204876
H -5.7189791252 -0.9545473740 -1.6800115166
H -6.5712197235 -1.4780414590 -0.2175443912
H -4.1989327111 -2.2197243854 -0.1439839921
H -4.5083238749 -1.0159782294 1.1345123153
H -1.1883825230 2.6658242018 0.5042609113
H -0.9013507642 2.8621217689 -1.2498394644
H -3.6086983936 2.4198063586 0.1152020880
H -3.0532580962 3.9358974236 -0.6108035122
H -3.3709921067 2.5218116372 -1.6372737577
H 0.5100388352 -3.2772339214 1.8182120779
H 1.5832125205 -3.1812576257 0.3837160830
H 3.9094557297 -0.0833247971 -3.1584170329
H 4.6842461535 2.2573126911 -3.4978918867
H 3.9298866227 4.0513332312 -2.0104310906
H 2.3773354660 3.5697257111 -0.1267725537
40
CONF189
C -0.4574760014 3.2958984495 -2.0214894953
C -0.9500048839 2.6568730800 -0.7396604591
O -0.8233365040 1.2200408328 -0.8572959911
P -2.0114992794 0.2394723972 -0.4631066122
S -3.7990920093 0.7934125797 -1.0359324918
O -1.8337413746 0.1799455374 1.1248798401
C -2.8862819872 -0.2712538056 1.9939288799
C -2.9498459631 -1.7837456286 2.0574631282
S -1.3073685840 -1.5650858630 -1.2696977839
C 0.1621715448 -1.9397875940 -0.1729989048
H -0.2307711254 -2.2971053731 0.7843221384
C 0.9478641208 -3.0225915725 -0.8904593462
Cl 2.3127876624 -3.5219219178 0.1505860504
N 0.9292775600 -0.7733008444 0.0973926221
C 1.0475409067 -0.2409968216 1.3844193373
O 0.5803623900 -0.7548482160 2.3733259072
C 1.8391255898 0.9896057139 1.2315256423
C 2.2441054467 1.9194039659 2.1679898617
C 2.9862795917 3.0085046309 1.7163773981
C 3.3115673346 3.1506485795 0.3759523027
C 2.9060610687 2.2104306121 -0.5686817954
C 2.1654784926 1.1348442349 -0.1232024788
C 1.5759322577 0.0060996479 -0.8644947213
O 1.6103144187 -0.2492839852 -2.0451589107
H -0.4587340116 4.3746829022 -1.9060379763
H 0.5497408267 2.9539017529 -2.2423705337
H -1.1077501452 3.0214626601 -2.8480628252
H -1.9997232751 2.9048457411 -0.5517407622
H -0.3456625076 2.9558301554 0.1201425166
H -2.6325347443 0.1586958114 2.9637518508
H -3.8322379191 0.1460432118 1.6328225478
H -3.1630851253 -2.1914206250 1.0698113692
H -2.0043337728 -2.1810908143 2.4189298872
H -3.7413573515 -2.0790305490 2.7386990473
H 0.3211118637 -3.8940721551 -1.0666360498
H 1.3611725723 -2.6480790055 -1.8259454655
H 1.9880058266 1.7988408458 3.2083719082
H 3.3133536335 3.7530836416 2.4244798659
H 3.8885284963 4.0036413227 0.0563472501
H 3.1592722027 2.3100485049 -1.6121843213
40
CONF682
C -4.7245892217 -2.6352530770 -1.3689575110
C -3.2405951433 -2.6156990732 -1.0670178992
O -2.9809156809 -1.9895168190 0.2166057189
P -2.6319800503 -0.4632338775 0.3837175617
S -2.4298208968 0.0399717121 2.2627091482
O -3.7967405551 0.2635851119 -0.4119322831
C -3.8821527167 1.7038627027 -0.4535423482
C -5.2642213511 2.0703783464 -0.9548641187
S -0.9326543836 -0.1085905192 -0.8645750600
C 0.3528634360 -0.3136867335 0.4442057207
H 0.0079331658 0.2520355351 1.3214096772
C 0.4895795276 -1.7915860149 0.7590250580
Cl 1.7427179136 -2.0024404442 2.0117480832
N 1.5725366903 0.2798976453 0.0055105807
C 2.1113971501 1.4226710890 0.6028339791
O 1.5995255897 2.0052411092 1.5300679630
C 3.3558250680 1.7003846841 -0.1322037077
C 4.2962288361 2.6958501561 0.0386639323
C 5.3897500488 2.7047701937 -0.8248324839
C 5.5284520501 1.7488453555 -1.8194305561
C 4.5795345993 0.7433870736 -1.9925111227
C 3.4964008996 0.7335310907 -1.1375850226
C 2.3454263170 -0.1816441075 -1.0626739403
O 2.0625498238 -1.1373395573 -1.7459020679
H -5.2610975290 -3.1313696943 -0.5648874176
H -5.1032557718 -1.6221667076 -1.4698929128
H -4.8895316003 -3.1747348942 -2.2964002707
H -2.6824889452 -2.0791312432 -1.8393391800
H -2.8444444071 -3.6266746287 -0.9577793592
H -3.7029992102 2.0933017633 0.5539577719
H -3.1008103129 2.0721658263 -1.1238259263
H -6.0212473040 1.6744835941 -0.2838484242
H -5.3525958521 3.1509817063 -0.9954821151
H -5.4211218784 1.6597914699 -1.9479630470
H -0.4447852104 -2.1814223105 1.1646817784
H 0.8014024419 -2.3512242558 -0.1227209029
H 4.1790285298 3.4346877391 0.8150286068
H 6.1405283298 3.4710199397 -0.7153679554
H 6.3860144005 1.7822046955 -2.4722992701
H 4.6783618739 -0.0046845904 -2.7624457054
40
CONF163
C -1.3604732731 3.0728081645 0.8168969789
C -0.9424079261 2.7228577440 -0.5951329585
O -0.6848499988 1.3088437279 -0.7307018088
P -1.8661002828 0.2464980884 -0.7461976503
S -3.5396001805 0.8752041006 -1.5421239863
O -1.9025844612 -0.1730520559 0.7927684918
C -2.8014405154 -1.1825219860 1.2923119048
C -4.0987347049 -0.5678549310 1.7792016464
S -1.0080550987 -1.4014426485 -1.7394910204
C 0.3341148364 -1.9181374115 -0.5411054849
H -0.1521080635 -2.4295944349 0.2964844230
C 1.2411640358 -2.8580920692 -1.3145594275
Cl 2.4945719226 -3.4845957174 -0.2053950288
N 1.0180382414 -0.7912666165 -0.0061576754
C 1.7231278746 0.1495637161 -0.7592059086
O 1.8902892703 0.0845028643 -1.9548987734
C 2.1755194524 1.1661149154 0.2056351611
C 2.8999532801 2.3241716954 0.0116805778
C 3.1569456617 3.1186023737 1.1270160689
C 2.7022831995 2.7573766465 2.3861560116
C 1.9729337900 1.5865960290 2.5827603764
C 1.7162553837 0.8000536895 1.4776427306
C 0.9683543931 -0.4603634871 1.3511361158
O 0.4137676402 -1.1317794199 2.1891699576
H -1.4609646476 4.1496536356 0.9061159750
H -2.3186030385 2.6057039551 1.0398518247
H -0.6208251122 2.7156462257 1.5294568314
H 0.0045659087 3.1890770987 -0.8712105572
H -1.7204498168 3.0033280180 -1.3120463533
H -2.9919371149 -1.9166211564 0.5024453934
H -2.2481296530 -1.6518440574 2.1097907698
H -4.6188061229 -0.0855643773 0.9543310054
H -4.7307652485 -1.3497327118 2.1876600611
H -3.8972967814 0.1705302613 2.5499978605
H 0.6750300222 -3.7046163931 -1.6971046358
H 1.7444699088 -2.3322785501 -2.1248442174
H 3.2486029585 2.5953837490 -0.9721000083
H 3.7188223651 4.0309484991 1.0059183843
H 2.9147038694 3.3938129873 3.2302586498
H 1.6140410983 1.2986045436 3.5579248018
40
CONF94
C -1.7171241912 2.4559204514 1.8580656034
C -1.0751300890 2.6160433388 0.4958855899
O -0.8124758307 1.3425541994 -0.1307104531
P -1.9915656071 0.4067733910 -0.6537776703
S -3.5015701012 1.3418281056 -1.4754542161
O -2.3558041176 -0.4386406954 0.6473489915
C -3.6109683067 -1.1291750566 0.7679717404
C -3.6788696423 -2.3435542447 -0.1364049761
S -0.8744336219 -0.8870280969 -1.8879680787
C 0.2439988725 -1.6398494412 -0.6014764179
H -0.3903607501 -2.0011628914 0.2149677480
C 0.9837088309 -2.7749894388 -1.2841256437
Cl 1.9988382434 -3.6074396389 -0.0714105093
N 1.1125990199 -0.6555907136 -0.0471828854
C 2.0292852496 0.1033375100 -0.7748908423
O 2.2748425597 -0.0577468293 -1.9480548061
C 2.5733232777 1.0865714606 0.1778239909
C 3.5179608375 2.0770641470 0.0022879480
C 3.8200700357 2.8814344669 1.0990980190
C 3.1948131363 2.6932865189 2.3223886572
C 2.2428489660 1.6918611544 2.5005506046
C 1.9430313360 0.8950156747 1.4142536595
C 0.9867968200 -0.2146697704 1.2734883736
O 0.2296412361 -0.7004415221 2.0803357787
H -1.7312695518 3.4159042181 2.3639960054
H -2.7390952153 2.0973912360 1.7476216022
H -1.1587614406 1.7371162027 2.4535404138
H -0.0889079116 3.0792103971 0.5628685176
H -1.7165060602 3.2005237170 -0.1713124949
H -3.6599380295 -1.4044435733 1.8223000753
H -4.4149072872 -0.4269883678 0.5244209074
H -4.6262425195 -2.8504842485 0.0166833658
H -3.6089988983 -2.0329554598 -1.1787869247
H -2.8667741843 -3.0317679714 0.0836846925
H 0.2819036529 -3.4998030582 -1.6905685997
H 1.6404396511 -2.3947506015 -2.0654864046
H 3.9970086847 2.2159042283 -0.9536230738
H 4.5530369665 3.6650127527 0.9914935042
H 3.4477713788 3.3334818248 3.1523585320
H 1.7528079187 1.5389196176 3.4486739081
40
CONF176
C -1.2734779798 3.1634310246 0.6314582863
C -0.9857884541 2.7256505924 -0.7885455868
O -0.7402244917 1.3044431821 -0.8633879403
P -1.9180228025 0.2464086031 -0.7471201945
S -3.6636644066 0.8355564320 -1.4055624644
O -1.8705550639 -0.1097798888 0.8067573444
C -2.9034791064 -0.9075977518 1.4198240629
C -2.7190937066 -0.8239418705 2.9210150583
S -1.1210714447 -1.4332784963 -1.7372332887
C 0.2909331847 -1.9322573272 -0.6093855885
H -0.1431454440 -2.4828726436 0.2321735557
C 1.1917765617 -2.8198511101 -1.4492997466
Cl 2.5124659025 -3.4370491108 -0.4159018137
N 0.9607948022 -0.8004118305 -0.0689749846
C 1.6252432820 0.1756462740 -0.8146852035
O 1.7694864104 0.1430397767 -2.0146895334
C 2.0780846732 1.1778562148 0.1658684536
C 2.7562638912 2.3656692504 -0.0151577723
C 3.0232509926 3.1351025598 1.1153091667
C 2.6249647723 2.7206867811 2.3772537684
C 1.9432807171 1.5196581026 2.5612691005
C 1.6750135482 0.7592906788 1.4406693536
C 0.9643144658 -0.5201760832 1.3008735669
O 0.4754479309 -1.2404793698 2.1385729206
H -2.2050579747 2.7137173316 0.9713513093
H -0.4690838854 2.8530806123 1.2937750912
H -1.3708176460 4.2439143053 0.6600730507
H -0.0684804445 3.1696092293 -1.1779717704
H -1.8258519767 2.9658912903 -1.4477315937
H -3.8752014905 -0.5158036945 1.1016383137
H -2.8052258070 -1.9373964629 1.0642266266
H -2.8506792532 0.1995648840 3.2593252687
H -3.4512931321 -1.4609263438 3.4057178453
H -1.7178090683 -1.1572066085 3.1828672897
H 0.6358956167 -3.6727643731 -1.8327212249
H 1.6419120863 -2.2544134146 -2.2642178863
H 3.0632387387 2.6783534314 -1.0004599762
H 3.5482570577 4.0703408499 1.0041348263
H 2.8437594883 3.3388262612 3.2332550803
H 1.6278635399 1.1898843530 3.5381021250
40
CONF130
C -1.1153958081 3.2488468376 -0.5162554250
C -0.8601866385 2.3252444227 -1.6878691619
O -0.6584580986 0.9646749388 -1.2488471357
P -1.8619457168 0.0616351602 -0.7439182133
S -3.6006376623 0.4451014273 -1.5542267458
O -1.7394922117 0.2693782633 0.8339246802
C -2.6530062967 -0.3531499140 1.7587489208
C -3.7756203830 0.5961893998 2.1267687591
S -1.1700595408 -1.8954795595 -1.1091029164
C 0.2666398995 -2.0641043417 0.0847045412
H -0.1571418019 -2.3215940800 1.0614870440
C 1.1270749817 -3.1888652187 -0.4610928874
Cl 2.4580280154 -3.5007470027 0.6899219388
N 0.9688308782 -0.8378880613 0.2408262034
C 0.9709092294 -0.1326049163 1.4485244240
O 0.4626044722 -0.5393689065 2.4671520676
C 1.7090196773 1.1097525145 1.1794885940
C 1.9874692721 2.1847988359 1.9996235871
C 2.6971112711 3.2494751549 1.4482893027
C 3.1125516203 3.2283453106 0.1254165466
C 2.8349348184 2.1417304198 -0.7012834057
C 2.1287806728 1.0888212136 -0.1570579633
C 1.6565380942 -0.1644345458 -0.7712123052
O 1.8035622738 -0.5806601337 -1.8967471926
H -1.1921462332 4.2703316961 -0.8745348661
H -2.0494973350 2.9709192064 -0.0303510557
H -0.3066497414 3.1763211010 0.2067719026
H 0.0641470723 2.5703901625 -2.2128500839
H -1.7023793292 2.3417332761 -2.3867461293
H -3.0488468940 -1.2705145785 1.3113811516
H -2.0343601649 -0.6012418624 2.6253712585
H -4.4180860781 0.1196048793 2.8599882817
H -3.3684150050 1.5115565777 2.5464992444
H -4.3633861518 0.8403345962 1.2443794061
H 0.5428981120 -4.1016019998 -0.5572367681
H 1.5705399545 -2.9110753472 -1.4163725585
H 1.6581615418 2.1925235806 3.0262350711
H 2.9244588227 4.1057569957 2.0629797191
H 3.6590278155 4.0678818674 -0.2735828132
H 3.1543864143 2.1152189306 -1.7308552418
40
CONF49
C -1.0092163224 3.3501509060 -0.2321528336
C -0.8415842917 2.5134010569 -1.4827566871
O -0.6953360621 1.1109357818 -1.1745004842
P -1.9200102016 0.2264699642 -0.6779076629
S -3.6748323980 0.7368671886 -1.3758095891
O -1.7713460760 0.3511538576 0.9072281821
C -2.8501461791 0.0278358321 1.8013361095
C -2.9125447453 -1.4584952183 2.0892807986
S -1.2725663418 -1.7009600588 -1.2270012966
C 0.1786441192 -1.9989068135 -0.0810409867
H -0.2337508280 -2.3161971732 0.8822799524
C 0.9940689759 -3.1044496224 -0.7265066381
Cl 2.3414591112 -3.5342524464 0.3663710547
N 0.9213837430 -0.8088825093 0.1510445607
C 0.9804508350 -0.2044410917 1.4105678830
O 0.4826464139 -0.6719396170 2.4072508653
C 1.7581251874 1.0291738092 1.2203814299
C 2.0979641583 2.0239288224 2.1152565925
C 2.8335632041 3.1033967757 1.6307355241
C 3.2142453073 3.1741157248 0.2991684442
C 2.8748052253 2.1682603440 -0.6031343401
C 2.1431648834 1.1008522131 -0.1247229419
C 1.6115089815 -0.0834698102 -0.8220962770
O 1.7209799157 -0.4158090483 -1.9794425215
H -1.0145669999 4.4007531014 -0.5042669617
H -1.9531675853 3.1046123232 0.2519208687
H -0.1954426815 3.1598348699 0.4634211946
H 0.0765703958 2.7578088727 -2.0191246298
H -1.7035160930 2.6313047590 -2.1468865349
H -2.6277103245 0.5970527917 2.7049267408
H -3.7855691693 0.3816698171 1.3548612619
H -3.1029285778 -2.0121539573 1.1707026613
H -1.9735146212 -1.7895059208 2.5267009514
H -3.7179509808 -1.6521877176 2.7904424768
H 0.3818026206 -3.9916857299 -0.8728526674
H 1.4239036715 -2.7711944153 -1.6701526285
H 1.7958973062 1.9604616696 3.1483177215
H 3.1089930788 3.8984444589 2.3050991808
H 3.7821382973 4.0228745505 -0.0468894076
H 3.1673100888 2.2131039524 -1.6400512762
40
CONF693
C -5.6640761144 -0.0995484796 -0.0842048218
C -4.9289205556 -1.1344741592 -0.9100019687
O -3.5678586633 -0.7376927800 -1.1843814641
P -2.4877207835 -0.5862773712 -0.0419882761
S -2.6384406191 -1.7704066946 1.5156832615
O -2.5055512528 0.9668879700 0.3012451750
C -2.3205993715 1.5416609473 1.6101691146
C -3.3526827335 2.6332583881 1.8123158080
S -0.8055745473 -0.8557547577 -1.2892804872
C 0.4487120833 -0.9157697617 0.0846763794
H -0.0457035936 -0.5346898402 0.9886228654
C 0.8823226032 -2.3562642698 0.2755921759
Cl 2.0859981543 -2.4252149607 1.5895898426
N 1.5255380806 -0.0284988799 -0.2055170889
C 1.6674705963 1.1992837310 0.4414032307
O 0.9181406499 1.5929034641 1.3069831900
C 2.8530642794 1.8308580158 -0.1546973552
C 3.4676805502 3.0348643776 0.1239805164
C 4.5959789362 3.3698036160 -0.6217589272
C 5.0832634646 2.5251433697 -1.6072959030
C 4.4629265374 1.3094597050 -1.8891451868
C 3.3456873303 0.9764085944 -1.1511836057
C 2.4811903027 -0.2149179628 -1.2101030849
O 2.5263918640 -1.1726595092 -1.9439930124
H -6.7075054516 -0.3847526357 0.0072329255
H -5.2243169881 -0.0464962143 0.9115182535
H -5.5944489951 0.8766884049 -0.5572845340
H -5.3688913063 -1.2523984716 -1.9010370557
H -4.9101935987 -2.0986203301 -0.3928191031
H -2.4239547868 0.7498889910 2.3606718178
H -1.3050636556 1.9436796975 1.6516657669
H -3.1666760046 3.1189048214 2.7647029524
H -3.2755191217 3.3661348191 1.0144721623
H -4.3560390671 2.2162521779 1.8137371518
H 0.0319518194 -2.9679861457 0.5746211248
H 1.3482521757 -2.7463488512 -0.6282329734
H 3.0817198118 3.6851640610 0.8923767518
H 5.0975588920 4.3042675202 -0.4269641781
H 5.9585327710 2.8121169620 -2.1679357799
H 4.8338559239 0.6458074813 -2.6534368607
40
CONF256
C -1.0554375795 3.7854827214 -0.2515876718
C -1.2028702309 2.5422742473 -1.1055365723
O -1.0066133440 1.3809479909 -0.2715446860
P -2.0491541988 0.1860385589 -0.2168167698
S -3.9251852383 0.6772117786 -0.4656843067
O -1.6381190563 -0.3562735776 1.2149835137
C -2.4501329284 -1.3599303671 1.8641679020
C -1.9736902958 -1.4810094273 3.2965273690
S -1.4117556629 -1.2963459610 -1.5980028803
C 0.2541295113 -1.8130841906 -0.9134405495
H 0.0653708710 -2.5718221388 -0.1463106480
C 1.0208075873 -2.3912615532 -2.0896846789
Cl 2.5876733743 -3.0191320647 -1.5013864507
N 0.9319956755 -0.7354991774 -0.2787351045
C 1.3446777696 0.4382691334 -0.9076585058
O 1.1995679071 0.6733108085 -2.0863915811
C 1.9541964051 1.2609841254 0.1503889662
C 2.5140669167 2.5207203484 0.0948932578
C 2.9951268275 3.0648313759 1.2839182068
C 2.9140291834 2.3657344783 2.4785856776
C 2.3494273791 1.0934380681 2.5343992388
C 1.8718565346 0.5544865837 1.3570530399
C 1.2203761313 -0.7356544586 1.0901027203
O 0.9681654862 -1.6562710390 1.8307569495
H -1.1388947924 4.6617048274 -0.8860399981
H -1.8390735992 3.8121686011 0.5012668165
H -0.0884649350 3.7855818269 0.2440076369
H -0.4445689107 2.4947076752 -1.8920006364
H -2.1986338169 2.4929417002 -1.5586204594
H -3.4974898228 -1.0456422531 1.8066974825
H -2.3348423408 -2.3057292262 1.3262523915
H -2.5598768616 -2.2405008887 3.8029614287
H -0.9243024267 -1.7648982576 3.3090132704
H -2.0904582198 -0.5309204721 3.8093146696
H 0.4702082777 -3.2182978571 -2.5328206424
H 1.2275657778 -1.6231920857 -2.8338336133
H 2.5730125328 3.0570594470 -0.8388264841
H 3.4363843349 4.0487952882 1.2726448742
H 3.2931800812 2.8138929070 3.3831560649
H 2.2816456957 0.5433786266 3.4591086371
40
CONF14
C -2.3583406177 0.3640520929 3.6682917919
C -2.7136666731 0.8630358242 2.2839240999
O -2.3169037802 -0.1492081579 1.3286204852
P -2.0279493867 0.1974162672 -0.1854714690
S -0.9843262026 1.8379759205 -0.5121729239
O -3.4939840801 0.2782898016 -0.7951980035
C -3.7611674634 0.8548146310 -2.0856681719
C -3.1764590877 0.0195706799 -3.2059787927
S -1.3130949843 -1.6712465379 -0.8340171117
C 0.1729035689 -1.7947656893 0.2754348962
H -0.1972838318 -1.7784381921 1.3067535877
C 0.8563806446 -3.1099153476 -0.0519699042
Cl 2.2365234976 -3.3283861527 1.0609580045
N 1.0275034319 -0.6648404274 0.1191900551
C 1.1618269116 0.3047608296 1.1179727969
O 0.6128543953 0.2363953073 2.1944754668
C 2.0812567550 1.3132557214 0.5739551165
C 2.5701344924 2.4764719142 1.1311006977
C 3.4222345220 3.2545271851 0.3511938815
C 3.7638534595 2.8759070897 -0.9379293208
C 3.2676596898 1.7029677576 -1.5017012269
C 2.4266177754 0.9296092949 -0.7286674055
C 1.7313928708 -0.3291188800 -1.0407094278
O 1.7142526561 -0.9786911401 -2.0603001878
H -2.6699429349 1.0998249868 4.4022806107
H -2.8607095433 -0.5787910784 3.8638102248
H -1.2835861536 0.2173985130 3.7390592647
H -2.1838391801 1.7919525343 2.0466028145
H -3.7885874318 1.0206623258 2.1704098692
H -4.8499413081 0.8938631591 -2.1346141068
H -3.3483837971 1.8686788921 -2.1032188662
H -2.0878063277 0.0315735908 -3.1496095882
H -3.5163679551 -1.0099236817 -3.1270625502
H -3.4834330359 0.4309551332 -4.1621129028
H 0.1705170309 -3.9414384480 0.0944667337
H 1.2451015326 -3.1020890735 -1.0695727244
H 2.2921769605 2.7663416212 2.1316181484
H 3.8184845389 4.1709466074 0.7587078166
H 4.4222518868 3.5021580535 -1.5186277775
H 3.5223918801 1.4023470354 -2.5052611219
40
CONF404
C -1.3102594531 3.2048752640 0.4450341817
C -0.8207349052 2.6886363606 -0.8909162905
O -0.5222591451 1.2761116841 -0.8371081810
P -1.6749217341 0.1848873288 -0.7631529442
S -3.3435989885 0.6482850909 -1.6767300058
O -1.8090606844 -0.0226343175 0.8133556658
C -2.8554228573 -0.8468443607 1.3639208376
C -2.8295621759 -0.6754288928 2.8688147859
S -0.7283043874 -1.5462638170 -1.4784833952
C 0.5520493400 -1.8656227269 -0.1437317759
H 0.0175855095 -2.2596001469 0.7271303337
C 1.5279429260 -2.8892746709 -0.7019977969
Cl 0.6520468263 -4.3871388187 -1.0912508946
N 1.2019614260 -0.6646256875 0.2585247246
C 1.9049723608 0.1884566419 -0.5971026100
O 2.1370320166 -0.0498734351 -1.7590072504
C 2.2678597019 1.3566130225 0.2225523053
C 2.9555961299 2.5054921364 -0.1106875772
C 3.1221675594 3.4689088005 0.8821215864
C 2.6171239963 3.2791615800 2.1594669380
C 1.9254875597 2.1178459501 2.4976965827
C 1.7576741212 1.1642198686 1.5134792260
C 1.0665719780 -0.1331385717 1.5469613289
O 0.5018291183 -0.6983110801 2.4521707073
H -1.4321286453 4.2818463708 0.3899020465
H -2.2706358297 2.7505559143 0.6835682597
H -0.5989459064 2.9583599059 1.2293725150
H 0.1264569593 3.1433941687 -1.1847892643
H -1.5718387051 2.8527465670 -1.6698694123
H -3.8089850181 -0.5298695817 0.9287316937
H -2.6691546521 -1.8865866188 1.0769074837
H -3.0774538850 0.3479741339 3.1339597423
H -3.5517083399 -1.3494979553 3.3170738663
H -1.8348856680 -0.9046581262 3.2432904148
H 1.9858736824 -2.5235470278 -1.6208730243
H 2.2851546828 -3.1332937616 0.0429660856
H 3.3441564955 2.6431006529 -1.1071353776
H 3.6525197946 4.3785386220 0.6496925543
H 2.7593255977 4.0442170079 2.9058618299
H 1.5276373767 1.9623861493 3.4877370533
40
CONF97
C -1.6098359364 2.7216979708 1.5794807880
C -1.0089585851 2.6834479961 0.1898765499
O -0.7974660942 1.3318426240 -0.2706099131
P -2.0144445426 0.3690735177 -0.6326233950
S -3.5195746851 1.2278601264 -1.5419699057
O -2.3680363198 -0.2791454452 0.7799638642
C -3.6370661636 -0.9113865817 1.0185722544
C -3.7585313808 -2.2325650015 0.2857570100
S -0.9627454033 -1.1149534094 -1.6991822035
C 0.1745501137 -1.7036092015 -0.3458433735
H -0.4411375812 -1.9013072867 0.5381539640
C 0.8428076536 -2.9648473433 -0.8599225629
Cl 1.8721263652 -3.6364592216 0.4376551905
N 1.1012114208 -0.6825399089 0.0140767487
C 1.0423829823 -0.0292272168 1.2485552640
O 0.2994877231 -0.3459417281 2.1475611917
C 2.0431862726 1.0472810597 1.1759872492
C 2.4127378510 1.9965904175 2.1072254849
C 3.3932929775 2.9146941415 1.7377741338
C 3.9784611118 2.8751993185 0.4812655494
C 3.6058866133 1.9169897901 -0.4590706806
C 2.6329073954 1.0090097088 -0.0942768108
C 2.0173534944 -0.0914938271 -0.8560659344
O 2.2123237374 -0.4508928014 -1.9942082492
H -1.5800177140 3.7389838207 1.9562874030
H -2.6445582283 2.3850095349 1.5469605078
H -1.0522684546 2.0681557899 2.2466919279
H -0.0101044774 3.1232662671 0.1667011714
H -1.6570736051 3.1931901026 -0.5300290501
H -3.6668157839 -1.0427130283 2.1009817959
H -4.4287031163 -0.2250971374 0.7008011552
H -4.7134193479 -2.6885712362 0.5269297557
H -3.7091570028 -2.0647382060 -0.7900288520
H -2.9575271893 -2.9075379849 0.5762450460
H 0.0984021863 -3.7137610753 -1.1208116354
H 1.4824127862 -2.7439819348 -1.7134578092
H 1.9533212409 2.0207038395 3.0823073474
H 3.7005637248 3.6699810462 2.4433435158
H 4.7349951904 3.5992558585 0.2239435346
H 4.0531263814 1.8784496354 -1.4393839315
40
CONF159
C -2.5025033140 0.4211594890 3.4844174158
C -2.8136988621 0.8168563312 2.0569723844
O -2.3452908547 -0.2417612873 1.1861616303
P -1.9761161385 0.0235547757 -0.3238817284
S -0.9695832796 1.6728344098 -0.7099006899
O -3.3930963497 -0.0239779781 -1.0399538448
C -3.6300404313 0.4923184514 -2.3666414917
C -4.5043829502 1.7283498589 -2.2834407857
S -1.1440356678 -1.8386906684 -0.8418899801
C 0.2914963891 -1.8411010584 0.3436181087
H -0.1345883975 -1.7762405681 1.3511959338
C 1.0316734679 -3.1492409270 0.1344128463
Cl 2.3507537359 -3.2550931641 1.3331619823
N 1.1140277040 -0.6927963686 0.1618699313
C 1.1374193761 0.3509589109 1.0934851427
O 0.5177801865 0.3320706427 2.1328816169
C 2.0533637849 1.3579613889 0.5415213340
C 2.4560531289 2.5777094979 1.0442164969
C 3.3328063030 3.3343810894 0.2706617537
C 3.7820626264 2.8802143230 -0.9597566567
C 3.3731969271 1.6499333191 -1.4686717300
C 2.5072983994 0.8979907045 -0.7017818782
C 1.8870153444 -0.4095043848 -0.9676559040
O 1.9725068033 -1.1305988277 -1.9345502806
H -2.9803643776 -0.5250822628 3.7206223312
H -1.4276122220 0.3194259477 3.6096072847
H -2.8712172582 1.1906003141 4.1546881214
H -2.3035314631 1.7456715614 1.7802205078
H -3.8871827287 0.9283632565 1.8898958018
H -2.6730111779 0.7263611227 -2.8409680405
H -4.1221517937 -0.3147810610 -2.9115017496
H -3.9805839742 2.5175013995 -1.7482115977
H -4.7335121400 2.0717441503 -3.2869045579
H -5.4281899367 1.4977209188 -1.7608747938
H 0.3633943577 -3.9928221880 0.2928069371
H 1.4778997866 -3.1885196761 -0.8585487733
H 2.0952685436 2.9255044525 1.9987251642
H 3.6633732745 4.2935762315 0.6361166705
H 4.4572837854 3.4911892872 -1.5373998057
H 3.7123865554 1.2894987772 -2.4265168700
40
CONF102
C -4.5529847943 -1.6850103185 0.8363894834
C -4.5913551419 -0.1755034555 0.7216601048
O -3.4622801931 0.3471746500 -0.0051040311
P -1.9767367690 0.2188009007 0.5392976168
S -1.7411108882 0.4910669095 2.4593127020
O -1.1971859555 1.3045483356 -0.3146736689
C -1.3715077840 1.4640180449 -1.7455478590
C -2.3929882357 2.5397858471 -2.0500131281
S -1.3254622000 -1.6499087325 -0.2543373080
C 0.3379197168 -1.6213350563 0.5405286067
H 0.1879176642 -1.4179622683 1.6091333312
C 0.9735172361 -2.9813761461 0.3121796749
Cl 2.5599900765 -3.0198847478 1.1371728227
N 1.1240867929 -0.5460112694 0.0162961375
C 1.6388296019 0.4812466314 0.8137527722
O 1.5273607406 0.5272485258 2.0160129659
C 2.3171198447 1.3997370007 -0.1159414155
C 2.9827239926 2.5852977880 0.1189184994
C 3.5320259808 3.2441484911 -0.9791693253
C 3.4169480628 2.7269303291 -2.2606603082
C 2.7455651636 1.5297782196 -2.4983421797
C 2.1992770021 0.8783325988 -1.4108754819
C 1.4329326014 -0.3778095146 -1.3336428420
O 1.0943433773 -1.1362645427 -2.2118901488
H -3.7313708970 -1.9869254926 1.4838321251
H -5.4859113499 -2.0351304249 1.2662746367
H -4.4127794706 -2.1367511348 -0.1423359488
H -4.6031155382 0.2855434898 1.7136410297
H -5.4509120715 0.1631671090 0.1416664866
H -0.3814660381 1.7466590831 -2.1112115742
H -1.6601905668 0.5019899210 -2.1783388480
H -2.4299829401 2.6964122206 -3.1234529539
H -3.3749357299 2.2395853974 -1.6959937150
H -2.1100615996 3.4671966021 -1.5596707785
H 0.3541010184 -3.7679381300 0.7376408747
H 1.1444604397 -3.1546576221 -0.7497044032
H 3.0662447725 2.9783547829 1.1194427113
H 4.0567361526 4.1736561640 -0.8258872291
H 3.8545570977 3.2597373002 -3.0896951582
H 2.6500609984 1.1183361789 -3.4904109002
40
CONF160
C -2.5045179897 0.4305849593 3.4856277049
C -2.8103087770 0.8249205616 2.0566622541
O -2.3413903865 -0.2360263723 1.1889970586
P -1.9744554970 0.0257896580 -0.3222134911
S -0.9666956747 1.6730479468 -0.7138785251
O -3.3931659355 -0.0202011375 -1.0345403292
C -3.6318347908 0.4881983046 -2.3638233916
C -4.5107576321 1.7214210965 -2.2867204121
S -1.1465140773 -1.8386850490 -0.8391780435
C 0.2912917905 -1.8436193268 0.3437752120
H -0.1330729089 -1.7803405980 1.3521832137
C 1.0301751655 -3.1518643326 0.1305830413
Cl 2.3572616817 -3.2565841699 1.3205606023
N 1.1137462468 -0.6952035214 0.1627117696
C 1.1348827981 0.3486561032 1.0943240132
O 0.5137648015 0.3291391144 2.1328407748
C 2.0505558802 1.3564974965 0.5437375071
C 2.4493953526 2.5776177997 1.0460999318
C 3.3256853788 3.3357420093 0.2734497578
C 3.7784624065 2.8813746011 -0.9555812096
C 3.3736367973 1.6495325445 -1.4640492203
C 2.5078805821 0.8963299038 -0.6982509671
C 1.8895775497 -0.4119853719 -0.9649033592
O 1.9784584267 -1.1334717340 -1.9311901762
H -1.4303177544 0.3253936806 3.6137686407
H -2.8724602395 1.2024055961 4.1535912543
H -2.9862056142 -0.5136609796 3.7220495322
H -2.2971462214 1.7521618945 1.7801224988
H -3.8830161058 0.9387171294 1.8860205100
H -2.6756025483 0.7234384130 -2.8392859878
H -4.1209756296 -0.3232527525 -2.9048539214
H -5.4323438578 1.4905875652 -1.7602556429
H -3.9888811751 2.5162624341 -1.7582370275
H -4.7438953253 2.0569202673 -3.2918770590
H 0.3630863226 -3.9953666926 0.2942622512
H 1.4699043734 -3.1919472368 -0.8652503397
H 2.0858684618 2.9254805126 1.9995546239
H 3.6528241932 4.2962825696 0.6384493690
H 4.4530102568 3.4935465228 -1.5327352738
H 3.7156122816 1.2890673129 -2.4208901249
40
CONF46
C -0.9935763471 3.3514138903 -0.3537104580
C -0.8547078803 2.4686294543 -1.5758503019
O -0.7049320250 1.0782424788 -1.2189823682
P -1.9204418013 0.2146334985 -0.6670494868
S -3.6894896437 0.7100669745 -1.3389459668
O -1.7337775328 0.3880934460 0.9096313854
C -2.7942994258 0.1035966935 1.8379867067
C -2.8796281470 -1.3755747661 2.1554347692
S -1.2931996506 -1.7309743627 -1.1746194090
C 0.1840732432 -2.0118755637 -0.0560442959
H -0.2085594654 -2.3315217392 0.9147759172
C 0.9965897738 -3.1114914582 -0.7148932235
Cl 2.3686970283 -3.5267993549 0.3526801121
N 0.9194592091 -0.8148866508 0.1610809781
C 0.9840953782 -0.2029934839 1.4169676902
O 0.4997638652 -0.6701063302 2.4204569648
C 1.7492154986 1.0360719110 1.2138556347
C 2.0864483401 2.0391323186 2.1003053453
C 2.8091125721 3.1220710674 1.6041364267
C 3.1803603019 3.1876911694 0.2696794103
C 2.8441000554 2.1730221390 -0.6240208360
C 2.1247869592 1.1024226669 -0.1342398191
C 1.5992965101 -0.0911119197 -0.8207484612
O 1.7076115617 -0.4313549890 -1.9758602851
H -1.9257595285 3.1238743802 0.1610478767
H -0.1635774057 3.1872851318 0.3291817772
H -1.0064466837 4.3911293961 -0.6646498841
H 0.0519820725 2.6901111780 -2.1408519759
H -1.7306676599 2.5643910675 -2.2250559577
H -2.5356349643 0.6845687264 2.7242585226
H -3.7339127160 0.4685135595 1.4097516421
H -3.1091601730 -1.9411862480 1.2530103920
H -1.9349619611 -1.7192279818 2.5706665323
H -3.6674345640 -1.5390521244 2.8837243724
H 0.3894096791 -4.0044216449 -0.8471050340
H 1.4053873005 -2.7769014642 -1.6673546881
H 1.7920497650 1.9797393938 3.1357829267
H 3.0819387570 3.9236079001 2.2718547066
H 3.7383166324 4.0392334100 -0.0855550641
H 3.1295360678 2.2139691156 -1.6630343872
40
CONF413
C -3.7566948198 -2.6169924324 1.6503940521
C -4.6123265454 -1.5306969946 1.0300265672
O -3.9576195149 -0.8821247771 -0.0761890623
P -2.6461289928 -0.0261191089 0.1134882075
S -2.5170862832 1.0258066474 1.7685528299
O -2.8220366468 0.7997653022 -1.2290963106
C -1.9283207579 1.8453163563 -1.6478975191
C -0.9735825335 1.3392195688 -2.7139030603
S -1.0652947895 -1.4270440492 -0.2257017924
C 0.2328537990 -0.7221341972 0.8923054862
H -0.2502453738 0.0951868283 1.4494003874
C 0.7073134208 -1.8129184709 1.8333728123
Cl 1.9301585675 -1.1212778171 2.9382366582
N 1.2838703251 -0.1444795237 0.1165355826
C 2.2535884454 -0.8525271142 -0.6012068858
O 2.3433787294 -2.0563369964 -0.6355171653
C 3.0657950269 0.1732480249 -1.2792266419
C 4.1706262360 0.0448910641 -2.0957983046
C 4.7320425590 1.2125782639 -2.6084093095
C 4.1997064007 2.4578097411 -2.3106347979
C 3.0836395344 2.5882904178 -1.4870880320
C 2.5284519855 1.4319484711 -0.9779955094
C 1.3665322195 1.2320319246 -0.0995301411
O 0.5857762459 2.0350069629 0.3610271761
H -4.3429299096 -3.1598727538 2.3849051327
H -3.4053235852 -3.3053506664 0.8859377272
H -2.8968923318 -2.1688907175 2.1468814193
H -4.8674908294 -0.7711703889 1.7756422396
H -5.5229005431 -1.9376545165 0.5883595426
H -2.5781305635 2.6264619590 -2.0475026876
H -1.3878570063 2.2411955819 -0.7807434952
H -0.3599471922 2.1635387542 -3.0633397498
H -0.3263794036 0.5600889224 -2.3155833967
H -1.5364430031 0.9267825198 -3.5463094568
H -0.1190227909 -2.1739019034 2.4417032507
H 1.1768668201 -2.6298085554 1.2875380728
H 4.5761935524 -0.9279093525 -2.3223643162
H 5.5965214644 1.1441214501 -3.2492995027
H 4.6559344378 3.3433728195 -2.7233978252
H 2.6620084815 3.5516705587 -1.2493797885
40
CONF177
C -0.8741433025 3.7897627640 -0.4743346273
C -1.1626094071 2.6614890996 0.4941446301
O -0.9870167022 1.4020574409 -0.1964849505
P -2.0554322944 0.2296911848 -0.1003240571
S -3.9332012113 0.7780012467 -0.1591489617
O -1.6262920464 -0.4488072230 1.2829290647
C -2.5024741651 -1.3295088749 2.0065892320
C -2.4377324373 -2.7446966993 1.4694021655
S -1.4226045432 -1.0066228602 -1.6732994462
C 0.2226770000 -1.6563766136 -1.0554761768
H 0.0034098592 -2.4608937328 -0.3460311507
C 0.9452564757 -2.1801175744 -2.2834796331
Cl 2.4851764099 -2.9251269261 -1.7649378943
N 0.9540546385 -0.6619803923 -0.3504886893
C 1.4296424566 0.5324483966 -0.8971066786
O 1.3271422615 0.8454544234 -2.0597654690
C 2.0506063184 1.2573500261 0.2257615099
C 2.6671040449 2.4911481532 0.2646147833
C 3.1410380639 2.9376409889 1.4962060383
C 3.0018543414 2.1682463850 2.6414098463
C 2.3861912551 0.9191908833 2.6017515064
C 1.9138694956 0.4781229177 1.3820127093
C 1.2195918078 -0.7662847402 1.0181365617
O 0.9243051030 -1.7250907506 1.6917097058
H -0.9001136105 4.7342768316 0.0588750148
H 0.1054301696 3.6503877594 -0.9230069699
H -1.6197650862 3.8018416941 -1.2650404649
H -2.1882374430 2.7165071830 0.8732692535
H -0.4632831249 2.6596255840 1.3336114515
H -2.1426770192 -1.2774728857 3.0349975365
H -3.5201407574 -0.9298085573 1.9440385231
H -3.0867703218 -3.3813473260 2.0619940661
H -2.7703120786 -2.7681020811 0.4322510930
H -1.4182737275 -3.1177358976 1.5343053594
H 0.3495614612 -2.9447158889 -2.7773908690
H 1.1819506280 -1.3696687031 -2.9714932939
H 2.7758597514 3.0810348530 -0.6314697780
H 3.6241200268 3.8996848910 1.5574647651
H 3.3771813067 2.5410161282 3.5810740848
H 2.2755253611 0.3121039239 3.4858745037
40
CONF206
C -5.7358812383 -1.5911379533 -0.5149028257
C -4.3793561755 -1.5821244118 0.1604262049
O -3.5314126758 -0.6638904484 -0.5581719201
P -2.1981702399 -0.0939798258 0.0892918337
S -2.4139657758 0.6020444485 1.9128298305
O -1.7038964156 0.8968288347 -1.0417842177
C -2.0308816881 2.3030226071 -1.0208999908
C -3.5206171576 2.5373129439 -1.1456092466
S -0.8613905975 -1.7143211426 -0.1455121842
C 0.4824924834 -1.0808509134 0.9617737792
H -0.0039576472 -0.3814553684 1.6575537091
C 1.0873967471 -2.2526975363 1.7088017480
Cl 2.3334437581 -1.6302944048 2.8260614715
N 1.4278163954 -0.3306314488 0.1992318053
C 2.4251581508 -0.8532668467 -0.6318750557
O 2.6477559317 -2.0291694899 -0.7908249730
C 3.0803326595 0.3183820946 -1.2401016170
C 4.1547103882 0.3947131520 -2.1025672298
C 4.5564521957 1.6617570989 -2.5207917024
C 3.8999851300 2.8038182905 -2.0879585355
C 2.8141573105 2.7275996084 -1.2182974974
C 2.4170621949 1.4727840329 -0.8026564477
C 1.3308111660 1.0568940517 0.0954514051
O 0.4809429326 1.7147749980 0.6542063925
H -6.1842295679 -0.6028130261 -0.4698757744
H -5.6282386796 -1.8823392953 -1.5555252763
H -6.3808555770 -2.3003870437 -0.0068435097
H -3.9121497629 -2.5700745251 0.1315817814
H -4.4494292759 -1.2491340797 1.2014963372
H -1.6377287800 2.7293724907 -0.0928074862
H -1.4818952682 2.7060704140 -1.8730956631
H -3.9051952097 2.0405431079 -2.0326197619
H -4.0301141396 2.1390045042 -0.2687236616
H -3.7131954783 3.6035415390 -1.2114946387
H 0.3246386824 -2.7506461759 2.3034681975
H 1.5713586640 -2.9507854515 1.0275347602
H 4.6580321536 -0.4994237881 -2.4331269149
H 5.3939198779 1.7533172345 -3.1937770535
H 4.2341014345 3.7706379513 -2.4291333114
H 2.2986035594 3.6100426469 -0.8749174025
40
CONF69
C -1.1159415104 3.2744406224 0.3236090609
C -0.8146912279 2.6582271711 -1.0262994284
O -0.6687245215 1.2247586287 -0.9424622345
P -1.9188832324 0.2687607450 -0.6992524147
S -3.6055883746 0.8734354877 -1.4847298888
O -1.9253241225 0.1488648136 0.8924393132
C -3.0944268755 -0.2757539606 1.6137485796
C -3.3266505612 -1.7683335757 1.4927817849
S -1.1571007671 -1.5530874117 -1.4325221590
C 0.1709863070 -1.9275643226 -0.1735641761
H -0.3289206499 -2.2152624839 0.7570540323
C 0.9781147274 -3.0763701516 -0.7507927403
Cl 2.2094540067 -3.5702704034 0.4470210574
N 0.9582776508 -0.7773204800 0.1140198499
C 0.9894295095 -0.1897812971 1.3818240024
O 0.4268684909 -0.6419055201 2.3507802720
C 1.8271278526 1.0117899172 1.2392570583
C 2.1840320482 1.9736113689 2.1630178471
C 2.9803834950 3.0281525813 1.7215528099
C 3.4024213348 3.1073066398 0.4031116860
C 3.0452359149 2.1350850467 -0.5287131835
C 2.2542495124 1.0921422104 -0.0924669353
C 1.6943028933 -0.0556098083 -0.8268227799
O 1.8087165391 -0.3632423423 -1.9905773207
H -2.1002153326 2.9564091611 0.6637627640
H -0.3732491603 2.9648738359 1.0550920373
H -1.1059094719 4.3558639059 0.2327995042
H 0.1445683766 2.9941548601 -1.4233879811
H -1.6128314800 2.8814167661 -1.7412257713
H -2.8881703113 0.0162177701 2.6443856363
H -3.9556369501 0.2795237985 1.2277719101
H -3.4836254513 -2.0377499140 0.4485021749
H -2.4730093413 -2.3178346784 1.8817871564
H -4.2101211889 -2.0386264978 2.0623382280
H 0.3359562830 -3.9321710447 -0.9474138984
H 1.4982184215 -2.7678178606 -1.6566983395
H 1.8497906647 1.9043157484 3.1859099753
H 3.2712300601 3.7968272482 2.4195638729
H 4.0175223049 3.9359949645 0.0906005706
H 3.3681322831 2.1867009986 -1.5563258835
40
CONF158
C -2.6244249865 0.6163880546 3.3630759947
C -2.8883685292 0.9230840262 1.9045084413
O -2.3853360980 -0.1824737973 1.1156065707
P -1.9648288118 -0.0037891887 -0.3942895447
S -0.9466805396 1.6228849638 -0.8408017644
O -3.3556596793 -0.0983767180 -1.1556249637
C -3.5610000510 0.3762844967 -2.5028248850
C -4.4120517334 1.6311366226 -2.4784239819
S -1.1144742455 -1.8912576929 -0.7722830159
C 0.2787786251 -1.8196565466 0.4606168200
H -0.1818947629 -1.6945104077 1.4470827706
C 1.0255468707 -3.1366925568 0.3570095959
Cl 2.3105412788 -3.1612027269 1.5966350495
N 1.1072640315 -0.6827879207 0.2380989560
C 1.9232656260 -0.4689281429 -0.8763111968
O 2.0463658068 -1.2488833922 -1.7921221898
C 2.5326607190 0.8542548168 -0.6691947813
C 3.4265092902 1.5595079238 -1.4483086391
C 3.8144121302 2.8206993778 -1.0025577607
C 3.3181477928 3.3497362865 0.1789287499
C 2.4137016247 2.6399177589 0.9648853844
C 2.0317151923 1.3896748636 0.5248761516
C 1.0966614085 0.4161005097 1.1041619936
O 0.4407193746 0.4590202950 2.1203490653
H -3.0189892456 1.4226662712 3.9725742091
H -3.1060875006 -0.3168135966 3.6399986469
H -1.5539900910 0.5290885749 3.5303769699
H -2.3736248099 1.8372120369 1.5897776009
H -3.9561229902 1.0169640900 1.6948405941
H -2.5923318983 0.5748484857 -2.9694186654
H -4.0604402263 -0.4406422512 -3.0258294466
H -4.6209794509 1.9411252222 -3.4971124116
H -5.3472661891 1.4380929576 -1.9607566772
H -3.8800990551 2.4298008318 -1.9656245612
H 0.3539608601 -3.9701055718 0.5510158872
H 1.4998454444 -3.2387844811 -0.6183047905
H 3.8023852407 1.1409902222 -2.3680994839
H 4.5106765295 3.3963881595 -1.5913546419
H 3.6335550506 4.3311291761 0.4956244288
H 2.0163775397 3.0454909095 1.8813356086
40
CONF75
C -1.1398031892 3.2514631404 0.4208696568
C -0.8140534002 2.6738622585 -0.9403661044
O -0.6678042232 1.2387798162 -0.8944964935
P -1.9211338474 0.2755173453 -0.6988912242
S -3.5930230058 0.8996745384 -1.5007143990
O -1.9570778910 0.1128502059 0.8884370780
C -3.1404484815 -0.3295357416 1.5751091862
C -3.4000958297 -1.8082229620 1.3695594698
S -1.1380495523 -1.5259388911 -1.4597705446
C 0.1711349810 -1.9140493422 -0.1862672267
H -0.3411741656 -2.1952171277 0.7396346815
C 0.9729093549 -3.0713435249 -0.7539096600
Cl 2.1866989005 -3.5762314317 0.4571625784
N 0.9676175250 -0.7717538503 0.1087540973
C 0.9930722595 -0.1840017971 1.3764598286
O 0.4179465828 -0.6301978305 2.3407993602
C 1.8418963039 1.0106421915 1.2405714001
C 2.2017389592 1.9679880024 2.1677810317
C 3.0092404297 3.0165242953 1.7323902740
C 3.4388965549 3.0943599011 0.4163504504
C 3.0787452696 2.1266148911 -0.5189990970
C 2.2769618325 1.0894603781 -0.0886362750
C 1.7123538133 -0.0530690578 -0.8274251401
O 1.8284378259 -0.3586636725 -1.9915565891
H -0.4112706311 2.9195016096 1.1567653648
H -1.1268219667 4.3350334934 0.3616229426
H -2.1305118034 2.9253513375 0.7335152322
H 0.1516671541 3.0217038931 -1.3106918277
H -1.5996976753 2.9166326900 -1.6627203183
H -2.9384610328 -0.0977509389 2.6217147124
H -3.9877342776 0.2615766350 1.2126437087
H -3.5540214041 -2.0151115685 0.3106239258
H -2.5607578916 -2.3966223215 1.7315475759
H -4.2932826307 -2.0924912595 1.9167276330
H 0.3246422478 -3.9210367829 -0.9568554341
H 1.5054473786 -2.7685243041 -1.6545061401
H 1.8617592333 1.8997279258 3.1888722959
H 3.3028795293 3.7814993860 2.4332775277
H 4.0625027740 3.9184219213 0.1084927746
H 3.4073049275 2.1773289874 -1.5448468606
40
CONF607
C -4.0159033526 -2.4454503465 1.5093405579
C -4.6129102088 -1.0832357995 1.2170932838
O -3.9555374069 -0.4338151473 0.1143309647
P -2.4664486348 0.0787239366 0.2240475320
S -1.9570339693 0.7849977166 1.9872520993
O -2.5833536715 1.1070751714 -0.9824257682
C -1.4732123403 1.6613119651 -1.6991138306
C -0.7799908473 2.7618624816 -0.9170228968
S -1.2691947684 -1.5136382264 -0.5426783240
C 0.2366447959 -1.3314757924 0.5095826081
H -0.0826222987 -0.9490021706 1.4890821189
C 0.8749169116 -2.7062560199 0.6205697902
Cl 2.3179781214 -2.5881887680 1.6717572568
N 1.1264805451 -0.3575990719 -0.0482471637
C 1.6435592297 0.7152841892 0.6854878991
O 1.4092413701 0.9181507143 1.8530780367
C 2.4891266030 1.4651575440 -0.2603905348
C 3.2186857070 2.6231743966 -0.0863374945
C 3.9318637558 3.1054805956 -1.1818469952
C 3.9110346492 2.4454021799 -2.4010885276
C 3.1761189603 1.2749511301 -2.5765375974
C 2.4683385815 0.7979336069 -1.4922217014
C 1.6119400154 -0.3928481972 -1.3561108976
O 1.3358046975 -1.2507207087 -2.1624214936
H -4.6215418486 -2.9521203460 2.2538650931
H -3.9802074547 -3.0433470644 0.6023082106
H -3.0046513306 -2.3289125312 1.8970368918
H -4.5426745542 -0.4350985508 2.0967099231
H -5.6518580421 -1.1584469049 0.8937467425
H -0.7749297746 0.8574443213 -1.9602037478
H -1.9201402662 2.0539464893 -2.6145705262
H -1.4903188296 3.5470505772 -0.6729152925
H -0.3712923746 2.3738049235 0.0152972259
H 0.0275536428 3.1773955714 -1.5121139677
H 0.1869590582 -3.4149868438 1.0755806007
H 1.2018959512 -3.0586796425 -0.3569161950
H 3.2276081212 3.1285847309 0.8659231654
H 4.5108682206 4.0089789878 -1.0761410064
H 4.4747433432 2.8430217445 -3.2298452609
H 3.1546306719 0.7532184409 -3.5196764932
40
CONF129
C -1.2474395266 3.2181866875 0.3897403916
C -0.9639767945 2.6605067646 -0.9885036795
O -0.7048628896 1.2412389187 -0.9361104981
P -1.8688787670 0.1858351897 -0.7114762601
S -3.6224594619 0.7071380310 -1.4042853850
O -1.7537490405 -0.0432200097 0.8638927628
C -2.6328525637 -0.9406362203 1.5705298862
C -3.8051425543 -0.1876913881 2.1670316843
S -1.0956703966 -1.5662878101 -1.5915025005
C 0.3491427944 -1.9936650104 -0.4748613344
H -0.0613326622 -2.5209844781 0.3931350350
C 1.2529433634 -2.8951791341 -1.2957755129
Cl 2.6009657584 -3.4482624651 -0.2611074423
N 1.0022864771 -0.8281985508 0.0112061733
C 1.6585939769 0.1197228516 -0.7770554990
O 1.8151712420 0.0296896690 -1.9724841983
C 2.0860958983 1.1768677814 0.1559136270
C 2.7501482792 2.3631639805 -0.0790049465
C 2.9913631223 3.1947442630 1.0125581728
C 2.5816189576 2.8415266529 2.2894139211
C 1.9143798774 1.6419281502 2.5279362409
C 1.6721796606 0.8195177331 1.4458815198
C 0.9826942180 -0.4761521375 1.3645128903
O 0.4941994578 -1.1617903188 2.2320820959
H -1.3644333002 4.2950839728 0.3242213563
H -2.1675739328 2.7828412811 0.7766296266
H -0.4324029138 2.9811960861 1.0691998203
H -0.0540337495 3.0769097527 -1.4228611794
H -1.8111172017 2.8329288460 -1.6597921342
H -2.9787479220 -1.7202682359 0.8842089585
H -2.0016446959 -1.3834389249 2.3456361536
H -4.4055287547 0.2573071163 1.3763381734
H -4.4206513719 -0.8792664349 2.7330602125
H -3.4480415960 0.5982186485 2.8263870954
H 0.7067816172 -3.7722614883 -1.6363231375
H 1.6800876849 -2.3539937516 -2.1390113296
H 3.0654643918 2.6281941728 -1.0755583780
H 3.5046887531 4.1304499166 0.8588717142
H 2.7801324918 3.5070596069 3.1142768823
H 1.5898979862 1.3592417270 3.5164954821
40
CONF594
C -5.6403128284 -0.1326119478 1.0785031058
C -4.8601159042 -1.4177475806 0.8983187319
O -3.7129049766 -1.2364016338 0.0414075192
P -2.4683325081 -0.3697663537 0.4780552998
S -2.0058281122 -0.4133992266 2.3868727052
O -2.8817808446 1.0629530459 -0.0851627318
C -2.0825717364 2.2477093181 0.0650167326
C -1.3276195930 2.5442339408 -1.2174928945
S -1.0650366671 -1.1922859239 -0.8857582286
C 0.4349700032 -1.2376690459 0.2100144655
H 0.0971191896 -0.9134483769 1.2063726399
C 0.9598523873 -2.6588869904 0.2557183532
Cl 2.3628439738 -2.7128431226 1.3592514962
N 1.3938782720 -0.2822534178 -0.2418607246
C 1.4723664835 0.9906527199 0.3287237478
O 0.7781025062 1.3590374904 1.2494336608
C 2.5054593307 1.7090167316 -0.4308502906
C 3.0103423523 2.9846482935 -0.2802770225
C 3.9989517454 3.3947904812 -1.1720260642
C 4.4577489695 2.5530682617 -2.1738653112
C 3.9467713707 1.2658247341 -2.3271143504
C 2.9679892130 0.8583581775 -1.4439351826
C 2.2337404940 -0.4162252003 -1.3527154238
O 2.2898619525 -1.3906805572 -2.0637620287
H -5.0380505993 0.5904778407 1.6269822536
H -5.8992353015 0.2880175327 0.1105579906
H -6.5463366688 -0.3366781695 1.6405152528
H -5.4470445595 -2.1811762204 0.3861808163
H -4.5136342295 -1.7977499875 1.8645585269
H -2.7944616625 3.0437794318 0.2914981453
H -1.3975722085 2.1244332296 0.9106964574
H -0.6210890154 1.7465221343 -1.4401661603
H -2.0247047020 2.6285409362 -2.0462459774
H -0.7830970825 3.4761305411 -1.1040881507
H 0.1990842304 -3.3265891567 0.6547694216
H 1.2967181151 -2.9896920575 -0.7254883985
H 2.6468798778 3.6311044142 0.5022135184
H 4.4130843502 4.3861038689 -1.0797516463
H 5.2238152414 2.8993749377 -2.8491269445
H 4.2956054471 0.6042991566 -3.1035524135
40
CONF136
C -1.2888009327 3.1634953046 0.5815967127
C -0.9527736641 2.6975405356 -0.8187455665
O -0.6950198876 1.2774248100 -0.8506932998
P -1.8672929145 0.2135489152 -0.7271220458
S -3.5908557753 0.7781360410 -1.4609461355
O -1.8121632090 -0.1003812697 0.8365748540
C -2.6977588887 -1.0530973674 1.4572005725
C -3.9270558430 -0.3658842840 2.0174666171
S -1.0597337511 -1.4929582833 -1.6630750332
C 0.3419847262 -1.9607781352 -0.5108635390
H -0.1008355260 -2.4856259548 0.3425042990
C 1.2500002152 -2.8742525524 -1.3140566145
Cl 2.5585378938 -3.4611305017 -0.2477652927
N 1.0066610033 -0.8121828630 0.0003217711
C 1.6809120386 0.1374929537 -0.7701754002
O 1.8397446275 0.0634334502 -1.9664278283
C 2.1197820759 1.1738676070 0.1802291089
C 2.8068483651 2.3510043979 -0.0335615190
C 3.0565181581 3.1621079539 1.0713972935
C 2.6320169273 2.7980941342 2.3403028260
C 1.9408406616 1.6079349975 2.5572328698
C 1.6905685412 0.8055155715 1.4620634354
C 0.9775740528 -0.4762329490 1.3572445852
O 0.4640204611 -1.1613172453 2.2104774954
H -1.3983813789 4.2431507370 0.5845796386
H -2.2253937600 2.7094285302 0.9017711630
H -0.5025005822 2.8753810131 1.2751203479
H -0.0269677832 3.1400844221 -1.1891431671
H -1.7737057464 2.9158464891 -1.5089618088
H -2.9784857524 -1.8147684463 0.7224700675
H -2.0940878460 -1.5058096520 2.2482127345
H -4.5485980919 -1.1017211469 2.5172612311
H -3.6351830170 0.4009811991 2.7292517311
H -4.4979892635 0.0946692391 1.2140107464
H 0.6964854649 -3.7379480852 -1.6762259627
H 1.7098991740 -2.3352797453 -2.1413299589
H 3.1331715618 2.6242113419 -1.0243919146
H 3.5884935367 4.0899894356 0.9345272969
H 2.8378071804 3.4476911359 3.1759980236
H 1.6048340162 1.3173941447 3.5396968234
40
CONF207
C -5.7468223012 -1.6194637382 -0.4563203249
C -4.3786030946 -1.6054213256 0.1953094086
O -3.5396421022 -0.7022058173 -0.5519766544
P -2.2081916377 -0.1014948136 0.0714549778
S -2.4190442708 0.6265556316 1.8831157996
O -1.7394342419 0.8720165853 -1.0847842838
C -2.0868664423 2.2733248429 -1.0901299084
C -3.5808524779 2.4828602640 -1.2091580374
S -0.8521946308 -1.7089676524 -0.1434852273
C 0.4810621459 -1.0565683626 0.9661570185
H -0.0136109702 -0.3448072697 1.6434854873
C 1.0765191761 -2.2142217907 1.7421597159
Cl 2.3114149137 -1.5711571994 2.8600697334
N 1.4352798420 -0.3197648355 0.2015218296
C 2.4612836596 -0.8521313648 -0.5875738893
O 2.7021781937 -2.0287566213 -0.7098413429
C 3.1199282369 0.3111892940 -1.2081918748
C 4.2188679259 0.3779155508 -2.0399602013
C 4.6184950601 1.6383399424 -2.4797089451
C 3.9360656453 2.7832651539 -2.0975256752
C 2.8251299408 2.7166573373 -1.2593463379
C 2.4302941724 1.4684616066 -0.8221340045
C 1.3232259791 1.0627668554 0.0548167842
O 0.4476201487 1.7237027844 0.5686609531
H -6.3849360768 -2.3198690114 0.0722789829
H -6.1917466000 -0.6292796507 -0.4168991568
H -5.6579000893 -1.9249299644 -1.4946950773
H -3.9155577379 -2.5955074059 0.1738075831
H -4.4299966415 -1.2558504270 1.2321342748
H -1.6936888525 2.7241247026 -0.1737214725
H -1.5497681338 2.6668888904 -1.9542312710
H -3.9641133278 1.9605307756 -2.0819421958
H -4.0783805504 2.0970587720 -0.3198960904
H -3.7897941452 3.5443348511 -1.2977647822
H 0.3068796656 -2.6992780496 2.3386231314
H 1.5670608771 -2.9262287038 1.0803655457
H 4.7422244413 -0.5184166762 -2.3313359049
H 5.4750358751 1.7224296090 -3.1293071011
H 4.2693971236 3.7447826255 -2.4540856771
H 2.2893037626 3.6014936204 -0.9552914603
40
CONF446
C -5.8247447645 -1.1104945714 -1.2406682773
C -4.3938579435 -1.4703520874 -0.8968086417
O -3.8002009283 -0.3338006680 -0.2312255897
P -2.4510588843 -0.4844508452 0.5870988343
S -2.4142371898 -1.8799526898 1.9550604093
O -2.2234429261 0.9416414962 1.2034523802
C -2.2480849592 2.1708761731 0.4366073867
C -3.6011833472 2.8401095858 0.5520076574
S -0.9910882894 -0.7115917501 -0.9555297907
C 0.4400409338 -0.8911349398 0.2090000003
H 0.0830985651 -0.5425430991 1.1880548148
C 0.8350214458 -2.3522842613 0.2697019143
Cl 2.2004992504 -2.5293088335 1.4037680802
N 1.4944976073 -0.0168447101 -0.1854753305
C 1.6587113289 1.2365176064 0.4098740564
O 0.9393532963 1.6640483672 1.2843776084
C 2.8129629270 1.8499424648 -0.2620925389
C 3.4359569804 3.0638461547 -0.0534012282
C 4.5257890205 3.3759659178 -0.8633358054
C 4.9671968873 2.5005411696 -1.8437453723
C 4.3371507591 1.2758771659 -2.0562633477
C 3.2586557781 0.9651705609 -1.2537062673
C 2.3941836591 -0.2278207116 -1.2361233762
O 2.4006082721 -1.1975824030 -1.9552438519
H -6.3813965485 -0.8863921659 -0.3350890486
H -5.8444952919 -0.2421729554 -1.8926557052
H -6.2895457550 -1.9498581411 -1.7471308328
H -3.8054974262 -1.6830636183 -1.7931419301
H -4.3454919156 -2.3313939615 -0.2226813724
H -1.4530171505 2.7769296289 0.8767833743
H -2.0051933401 1.9426595325 -0.6051935041
H -3.5758844367 3.7859831123 0.0201920905
H -4.3705488367 2.2043207946 0.1218854157
H -3.8380703217 3.0210462301 1.5967088786
H 0.0066206950 -2.9456184721 0.6571132037
H 1.1608881812 -2.7153431570 -0.7042211079
H 3.0856369845 3.7380502414 0.7114779840
H 5.0333946939 4.3169713763 -0.7233700252
H 5.8132443516 2.7706900302 -2.4552861763
H 4.6716003867 0.5889484757 -2.8167974062
40
CONF390
C -1.2600821947 3.2451921156 0.2976177752
C -0.8278333292 2.6525647863 -1.0263056791
O -0.5297185061 1.2443266420 -0.9044529194
P -1.6794806368 0.1597187308 -0.7451411739
S -3.3779045117 0.5870713004 -1.6204383291
O -1.7607200735 0.0210435566 0.8428869523
C -2.8005511050 -0.7586524394 1.4660653350
C -2.7403284797 -0.4966011403 2.9568114206
S -0.7610131284 -1.6016623082 -1.4228639620
C 0.5647013989 -1.8854008257 -0.1231072772
H 0.0620614123 -2.2880589266 0.7626767383
C 1.5456305973 -2.8903346364 -0.7058564882
Cl 0.6873173740 -4.4035785408 -1.0745626940
N 1.1990135945 -0.6698584632 0.2584567711
C 1.8766353557 0.1883012689 -0.6127266758
O 2.0980035690 -0.0546791858 -1.7757307918
C 2.2332795896 1.3670781130 0.1947618183
C 2.8946166398 2.5261706582 -0.1560035800
C 3.0608919803 3.4978171833 0.8288067317
C 2.5817765296 3.3059583506 2.1158286252
C 1.9169894860 2.1343533350 2.4719243825
C 1.7488947863 1.1729143827 1.4953431670
C 1.0814349725 -0.1357744034 1.5476386877
O 0.5464460550 -0.7075731201 2.4667207193
H -1.3899363410 4.3166903888 0.1845265158
H -2.2066216985 2.8032660157 0.6047680313
H -0.5134016645 3.0475120311 1.0625984762
H 0.1066081749 3.0863475110 -1.3852919971
H -1.6108124968 2.7750624952 -1.7812182832
H -3.7612478545 -0.4601402708 1.0334110480
H -2.6280283408 -1.8154111109 1.2397051053
H -2.9595434654 0.5467244831 3.1632436885
H -3.4689082449 -1.1245529043 3.4584661194
H -1.7442488898 -0.7279794062 3.3260646713
H 1.9738178789 -2.5161591250 -1.6356022180
H 2.3255140031 -3.1206991725 0.0197930546
H 3.2639264383 2.6652970233 -1.1595232530
H 3.5704361098 4.4156407153 0.5825479022
H 2.7231335327 4.0773968425 2.8557990310
H 1.5390923905 1.9770550481 3.4694012429
40
CONF350
C -0.4953459125 3.6749219865 0.2783115552
C -1.2229228274 2.4595715192 0.8152377866
O -0.8452644242 1.3043685241 0.0283522491
P -1.9334989411 0.2194467794 -0.3917253301
S -3.5417008989 0.9351452145 -1.2512794646
O -2.2147357940 -0.5053335861 1.0034676588
C -3.4007359696 -1.2888645552 1.2191905510
C -3.3941580148 -2.5644171139 0.4008402540
S -0.7203729128 -1.0611453045 -1.5211151291
C 0.4604067770 -1.6095720916 -0.1835946704
H -0.1404964443 -1.8363240055 0.7034193157
C 1.2029863356 -2.8378136351 -0.6831288027
Cl 0.0674610580 -4.1940711840 -0.8484799382
N 1.3441896136 -0.5458743965 0.1642332244
C 1.2331648681 0.1455022707 1.3759030332
O 0.5036939862 -0.1876586250 2.2800277262
C 2.1699327831 1.2751495280 1.2747728319
C 2.4837966994 2.2665472772 2.1827560584
C 3.4077217143 3.2324680359 1.7892991022
C 3.9927318643 3.1979683824 0.5324620258
C 3.6786049018 2.1959063183 -0.3834330640
C 2.7619303141 1.2399060047 0.0047121600
C 2.2187718293 0.0828770093 -0.7263613719
O 2.4373957465 -0.3007593186 -1.8510668670
H -0.7976361464 3.8636635390 -0.7484684918
H -0.7471566260 4.5355162189 0.8892288458
H 0.5788212903 3.5139155022 0.3052317427
H -2.3080804878 2.5893096761 0.7480205852
H -0.9490591697 2.2403237715 1.8500086627
H -3.3899963772 -1.4915228592 2.2907990966
H -4.2693954616 -0.6750018828 0.9604565980
H -2.5119872531 -3.1619624692 0.6186051070
H -4.2820308888 -3.1440231848 0.6319937967
H -3.4001439924 -2.3211634628 -0.6619649218
H 1.6478313695 -2.6510701165 -1.6603777288
H 1.9635423921 -3.1337306646 0.0396484089
H 2.0234936861 2.2869851272 3.1574275220
H 3.6688950677 4.0220654634 2.4755017625
H 4.7029180580 3.9606427925 0.2556512726
H 4.1270077638 2.1604945893 -1.3631893710
40
CONF347
C -0.5751838568 3.5976625692 0.7146732466
C -1.3011180490 2.3159911765 1.0684218811
O -0.8697142517 1.2710020007 0.1640957203
P -1.9165990576 0.2265070773 -0.4285045756
S -3.5214612490 1.0121972498 -1.2310475907
O -2.2132600427 -0.6852967744 0.8487008790
C -3.3817753994 -1.5193666000 0.9246023238
C -3.3180712194 -2.6751998112 -0.0535962720
S -0.6418432465 -0.8623587380 -1.6840271749
C 0.5167830519 -1.5644976474 -0.4001704824
H -0.1021962204 -1.9417915451 0.4206894686
C 1.3205548293 -2.6786477202 -1.0500402280
Cl 0.2422555732 -4.0306444828 -1.4570617596
N 1.3481971313 -0.5368702914 0.1347340367
C 2.2231167545 0.2499840828 -0.6193734702
O 2.4896684637 0.0499550740 -1.7807715006
C 2.6982241421 1.3004430833 0.2966840013
C 3.5864607417 2.3363419666 0.0895540896
C 3.8340530080 3.1971057595 1.1570477653
C 3.2129043086 3.0183195985 2.3839746348
C 2.3170677239 1.9720815283 2.5943304304
C 2.0688623772 1.1208856432 1.5362006957
C 1.1737290827 -0.0416361676 1.4321404959
O 0.4297540786 -0.5321080506 2.2483976566
H -0.8703186225 4.3744790342 1.4122997486
H 0.4998588581 3.4506247266 0.7705527551
H -0.8365388568 3.9044914975 -0.2947246935
H -2.3849578424 2.4378021394 0.9704493816
H -1.0660205862 1.9765226728 2.0799833343
H -3.3928695993 -1.8615835009 1.9601246465
H -4.2604987169 -0.8982447741 0.7235122390
H -2.4259796155 -3.2751915235 0.1103996256
H -4.1954818037 -3.3012273665 0.0726770952
H -3.3023475177 -2.2939787169 -1.0749515219
H 1.7880998706 -2.3325391378 -1.9716657378
H 2.0689607326 -3.0549033442 -0.3524174580
H 4.0638286534 2.4667840267 -0.8682215959
H 4.5205268231 4.0178148104 1.0234715586
H 3.4226476922 3.7025194264 3.1904627389
H 1.8286295742 1.8270661612 3.5444355885
40
CONF86
C -4.1202853777 -0.9604823385 2.3650612310
C -4.2354284838 0.2956316239 1.5261403835
O -3.4412068157 0.2215855299 0.3284121303
P -1.8536634198 0.2212747646 0.3529482904
S -1.0552195557 1.4444124029 1.6720645472
O -1.4962884799 0.5560696101 -1.1563062118
C -1.3795578194 1.9100536538 -1.6402119238
C -2.7071454382 2.6376628073 -1.6315889279
S -1.4104004944 -1.8373429836 0.3863498874
C 0.4128856133 -1.8037461530 0.7521577104
H 0.5322423560 -1.6288414015 1.8279105916
C 0.9566735724 -3.1627141622 0.3444505290
Cl 2.6958607519 -3.2321534310 0.7537841340
N 1.0539289932 -0.7186048128 0.0839547675
C 1.0899692391 -0.5297593491 -1.2977175970
O 0.6117242645 -1.2905279178 -2.1067662628
C 1.8177034321 0.7353708907 -1.5014158280
C 2.1037813511 1.4278684753 -2.6603715727
C 2.8005315333 2.6277422309 -2.5391667134
C 3.1954028891 3.1075311712 -1.2994343792
C 2.9142633495 2.4053170720 -0.1295962556
C 2.2216314119 1.2178823853 -0.2493968778
C 1.7773371289 0.2622514361 0.7777277554
O 1.9853702451 0.2312027565 1.9667182111
H -4.8269142701 -0.9099622531 3.1872528367
H -4.3290088354 -1.8389714303 1.7598454062
H -3.1126848317 -1.0462448846 2.7699385475
H -3.9146553916 1.1716127859 2.0992151672
H -5.2510223225 0.4424370809 1.1565092610
H -0.6462562889 2.4371592400 -1.0197796301
H -0.9900584872 1.7880978235 -2.6520000132
H -3.0348750313 2.7993264132 -0.6058322607
H -2.5898429912 3.5994211021 -2.1210238349
H -3.4584042921 2.0517989988 -2.1542378777
H 0.4491574030 -3.9547261209 0.8907318003
H 0.8608800996 -3.3100652312 -0.7305899859
H 1.7949968197 1.0441028017 -3.6195242566
H 3.0363327647 3.1924057591 -3.4269541492
H 3.7318172172 4.0408025092 -1.2364617823
H 3.2155253303 2.7675623673 0.8400953185
40
CONF346
C -0.5597107287 3.6038895450 0.6830415042
C -1.2894707162 2.3282239264 1.0504173659
O -0.8637463896 1.2734245983 0.1549584735
P -1.9144679785 0.2266177412 -0.4268204192
S -3.5230582312 1.0089341166 -1.2255733693
O -2.2050032888 -0.6779130972 0.8570325757
C -3.3729285644 -1.5116330920 0.9436058606
C -3.3108244391 -2.6768354546 -0.0235174741
S -0.6464542946 -0.8683990911 -1.6836980240
C 0.5171837876 -1.5685337420 -0.4031988594
H -0.0987587165 -1.9507715914 0.4176454287
C 1.3250076012 -2.6771865979 -1.0575070022
Cl 0.2517298239 -4.0317884329 -1.4693229556
N 1.3447129801 -0.5385832562 0.1330764672
C 2.2153364994 0.2541504442 -0.6198229592
O 2.4804612651 0.0593927124 -1.7824396000
C 2.6888620794 1.3026736855 0.2993119546
C 3.5739599901 2.3417692929 0.0947633559
C 3.8203788766 3.1995112561 1.1649702612
C 3.2012295907 3.0147404168 2.3920217610
C 2.3089192458 1.9650317175 2.5999062690
C 2.0618229560 1.1168975920 1.5390850764
C 1.1703698116 -0.0481734852 1.4323680819
O 0.4293847337 -0.5438860851 2.2481438903
H 0.5148560564 3.4544710594 0.7408466479
H -0.8198314264 3.9003333330 -0.3297474072
H -0.8527796089 4.3892469240 1.3718572588
H -2.3730704605 2.4530919247 0.9536112546
H -1.0534105059 1.9975937345 2.0646665338
H -3.3816271892 -1.8437834581 1.9824405292
H -4.2523486262 -0.8928408171 0.7383841594
H -3.2953903834 -2.3057263169 -1.0485838018
H -2.4192045776 -3.2759336272 0.1459543654
H -4.1886657717 -3.3008643123 0.1094366936
H 1.7908781834 -2.3257103880 -1.9779494975
H 2.0751023165 -3.0531865384 -0.3615884452
H 4.0492079702 2.4774163423 -0.8633419801
H 4.5043128331 4.0226558763 1.0334281334
H 3.4105095508 3.6963336118 3.2008313564
H 1.8224603420 1.8149355621 3.5502441261
40
CONF48
C -1.1402686114 3.2616873998 0.7013955484
C -1.0496119067 2.7866750744 -0.7332707610
O -0.8201131415 1.3640859626 -0.8134220873
P -1.9586503081 0.3057970240 -0.4813234731
S -3.7896257295 0.8760093294 -0.8666870557
O -1.6637826120 0.0079934697 1.0602019254
C -2.6438411856 -0.6003376179 1.9187778163
C -2.6610168876 -2.1080664382 1.7697657080
S -1.3013094774 -1.3554610124 -1.5972680793
C 0.2711260426 -1.8844806778 -0.7226690150
H -0.0316473889 -2.5411463152 0.0996433168
C 1.0866332080 -2.6348095493 -1.7594911221
Cl 2.5544825546 -3.2835602499 -0.9725688521
N 0.9574534732 -0.7804364252 -0.1481976073
C 1.5475026661 0.2695237008 -0.8551762081
O 1.6129585926 0.3383363115 -2.0604512025
C 2.0494773082 1.1998070950 0.1720831412
C 2.6858939120 2.4172659874 0.0438533283
C 3.0194704865 3.0975051501 1.2131775632
C 2.7267626926 2.5683244340 2.4611706379
C 2.0884537721 1.3369135293 2.5914754272
C 1.7534616909 0.6654338485 1.4328037203
C 1.0651059598 -0.6185058249 1.2369910899
O 0.6656379030 -1.4251650532 2.0429136886
H -2.0235265611 2.8358635336 1.1749459659
H -0.2582704341 2.9562299228 1.2589484846
H -1.2199122351 4.3439865108 0.7140100352
H -0.1933565137 3.2166684398 -1.2550328674
H -1.9710443406 3.0173120084 -1.2770361270
H -2.3380237007 -0.3049082091 2.9233215080
H -3.6230124525 -0.1707913650 1.6818639157
H -3.3852181757 -2.5266137388 2.4611669189
H -2.9423108767 -2.3820786990 0.7535678029
H -1.6772797071 -2.5124286930 1.9969639938
H 0.5173097349 -3.4730694283 -2.1553621212
H 1.4054800218 -1.9701110107 -2.5612404553
H 2.9108416457 2.8199800437 -0.9307402229
H 3.5129052843 4.0537314831 1.1440300628
H 2.9956031976 3.1189953011 3.3484296367
H 1.8559384043 0.9168703550 3.5568196005
40
CONF211
C -5.8477976872 -1.2554598052 -0.3513878219
C -4.4041435731 -1.5191333840 0.0273199584
O -3.6309873324 -0.3565148546 -0.3302942598
P -2.1982773819 -0.0887509892 0.3018772044
S -2.1310941742 -0.2754661885 2.2557093495
O -1.8415123528 1.3120647984 -0.3406993530
C -2.1026821763 2.5548501672 0.3461072248
C -3.5842284495 2.7807762227 0.5564939810
S -0.9745813814 -1.4069493664 -0.8099523932
C 0.5115619210 -1.3703146670 0.2978053894
H 0.1424689753 -1.0401772971 1.2802410513
C 1.0900122469 -2.7682284319 0.3830232113
Cl 2.4772294402 -2.7394586109 1.5068369691
N 1.4366174820 -0.3843880917 -0.1605583588
C 1.3807993808 0.9227018117 0.3229387998
O 0.5842110372 1.2958102904 1.1560938126
C 2.4273420959 1.6655237759 -0.3922474981
C 2.8450117299 2.9759265615 -0.2760162955
C 3.8813312088 3.3969998780 -1.1065663792
C 4.4700339231 2.5325271425 -2.0169513765
C 4.0470372438 1.2101636191 -2.1359048575
C 3.0218872704 0.7917585577 -1.3125263105
C 2.3604545504 -0.5210175789 -1.2031715411
O 2.5285622597 -1.5228909917 -1.8551900088
H -6.2330302770 -0.4061946696 0.2057720604
H -5.9173161298 -1.0409944767 -1.4137335414
H -6.4416865690 -2.1337975686 -0.1211684720
H -3.9987992275 -2.3769125862 -0.5160395408
H -4.2957660862 -1.6922169718 1.1035105172
H -1.5638245730 2.5364421910 1.2983190624
H -1.6645789511 3.3074564638 -0.3108436415
H -3.9794723198 2.0230944355 1.2324660086
H -3.7406069315 3.7612073058 0.9953194045
H -4.1114510946 2.7162080314 -0.3918430323
H 0.3486325962 -3.4545209338 0.7864863363
H 1.4549293996 -3.1086984087 -0.5846287617
H 2.3822209872 3.6401822799 0.4360087728
H 4.2302784961 4.4149706010 -1.0379851141
H 5.2702702869 2.8881985585 -2.6461621656
H 4.4974280760 0.5301982333 -2.8409192619
40
CONF128
C -1.2105973394 3.2715529716 -0.0331029759
C -0.9903947531 2.5309762593 -1.3345941048
O -0.7270228734 1.1302946516 -1.1038430172
P -1.8723471750 0.1194020124 -0.6772165866
S -3.6724704214 0.5599731801 -1.3017508107
O -1.6533222296 0.0821563607 0.9037658115
C -2.5335622462 -0.6521070893 1.7777371942
C -3.5644173861 0.2735068587 2.3919627532
S -1.1601632060 -1.7273947709 -1.4036193034
C 0.3668169026 -2.0622974004 -0.3618842585
H 0.0212371093 -2.5736171346 0.5433277699
C 1.2522577476 -2.9615004630 -1.2041568980
Cl 2.6745029437 -3.4359064645 -0.2318295642
N 1.0017055797 -0.8602058721 0.0509807704
C 1.6289393666 0.0632270695 -0.7889100675
O 1.7859379888 -0.0829314282 -1.9786766575
C 2.0330627437 1.1772988134 0.0872035652
C 2.6580225083 2.3703903096 -0.2121800737
C 2.8804135497 3.2628969852 0.8344016895
C 2.4915498273 2.9617326245 2.1310960466
C 1.8650035944 1.7551824488 2.4351027123
C 1.6408642274 0.8729009641 1.3973112438
C 0.9917140692 -0.4449902258 1.3870523390
O 0.5409931268 -1.1057090928 2.2938506809
H -2.1108565634 2.8965448151 0.4513995064
H -0.3642344879 3.1265577879 0.6336818421
H -1.3335565287 4.3298792692 -0.2394361428
H -0.1022689650 2.8794701947 -1.8635320910
H -1.8680570382 2.6151512370 -1.9830218235
H -3.0167638259 -1.4546403041 1.2118640557
H -1.8727842686 -1.0814876312 2.5357182094
H -3.0705650765 1.0843124399 2.9198360290
H -4.2016838667 0.6899057881 1.6145891326
H -4.1769532753 -0.2888840649 3.0890424879
H 0.7170611543 -3.8666095398 -1.4833299367
H 1.6134667450 -2.4368016425 -2.0876592427
H 2.9572116546 2.5955851251 -1.2233074128
H 3.3616437388 4.2058091320 0.6294751090
H 2.6745054405 3.6739010389 2.9198368197
H 1.5574331835 1.5117027733 3.4393275983
40
CONF447
C -5.8057704604 -1.0096236281 -1.3430446174
C -4.3918012378 -1.4097052744 -0.9746187850
O -3.7987083151 -0.3120502079 -0.2462525252
P -2.4566870842 -0.5104789117 0.5735061477
S -2.4399320546 -1.9641807725 1.8799567052
O -2.2212981107 0.8850782248 1.2533798040
C -2.2461051858 2.1478892748 0.5427150043
C -3.5929687932 2.8193928843 0.7067509743
S -0.9876292338 -0.6815599632 -0.9680179726
C 0.4385488946 -0.8832241774 0.1992238567
H 0.0803726368 -0.5457873564 1.1816576266
C 0.8283311608 -2.3463828062 0.2417704351
Cl 2.1865614982 -2.5429579282 1.3812362022
N 1.4973905549 -0.0080573283 -0.1817320133
C 1.6666521837 1.2366160737 0.4302371300
O 0.9500668162 1.6546516913 1.3115485782
C 2.8222502843 1.8550374282 -0.2348451785
C 3.4493666642 3.0641655314 -0.0112349681
C 4.5388723291 3.3835691280 -0.8187973153
C 4.9761792154 2.5197260646 -1.8112599843
C 4.3419908425 1.2999408131 -2.0388613693
C 3.2637209323 0.9821218046 -1.2387884750
C 2.3953021438 -0.2080063166 -1.2360654094
O 2.3975244432 -1.1680348405 -1.9682142932
H -6.3850282985 -0.8150342091 -0.4448855111
H -5.7914949831 -0.1135437204 -1.9565072471
H -6.2694464455 -1.8175602840 -1.8992039423
H -3.7819846309 -1.5963843111 -1.8624739879
H -4.3768626448 -2.2982659144 -0.3356567767
H -1.4409199969 2.7283099916 0.9987884060
H -2.0185963087 1.9650687840 -0.5113375051
H -3.8149545779 2.9531892933 1.7617889650
H -3.5683775238 3.7886788556 0.2189223376
H -4.3720741722 2.2086903614 0.2581339809
H -0.0038975742 -2.9429673974 0.6159703675
H 1.1589083605 -2.6968170828 -0.7351757581
H 3.1021063020 3.7295973376 0.7626537746
H 5.0494779242 4.3211874242 -0.6674602843
H 5.8222671061 2.7951460736 -2.4203929097
H 4.6732761745 0.6218308915 -2.8086494417
40
CONF218
C -3.5195307842 -3.3773648694 0.2420628674
C -4.4212477105 -2.2073508468 -0.0917130303
O -3.6880122449 -1.0924443912 -0.6340689616
P -2.6256519560 -0.2772191981 0.2180646472
S -3.0924196840 0.0817897740 2.0812641745
O -2.4516616847 1.0603515350 -0.5951216057
C -2.1873013206 1.1187838442 -2.0180417943
C -3.4658008681 1.3877373996 -2.7833086777
S -0.7961681448 -1.3344699438 -0.0914054940
C 0.2392206703 -0.1350971170 0.8687706627
H -0.3420685831 0.7950265792 0.9327318266
C 0.4940492138 -0.7085462687 2.2479851287
Cl 1.4820376783 0.4508646598 3.1772871762
N 1.4271992666 0.1662025906 0.1387241255
C 2.5463402317 -0.6636268476 0.0112470417
O 2.6562290799 -1.7553156451 0.5150566926
C 3.4829292979 0.0753989050 -0.8532037030
C 4.7523656160 -0.2530451793 -1.2825824127
C 5.4064370963 0.6540843573 -2.1139433894
C 4.8034498493 1.8422433276 -2.4974250131
C 3.5213723919 2.1744825912 -2.0648925082
C 2.8740383915 1.2772785628 -1.2396160997
C 1.5398608955 1.3300540258 -0.6248833655
O 0.6623712130 2.1582099498 -0.7220826370
H -2.8690174895 -3.1199781383 1.0765076925
H -4.1284636202 -4.2310336693 0.5216300855
H -2.9025063151 -3.6377744323 -0.6143362511
H -4.9558744646 -1.8661867154 0.7997245037
H -5.1324643617 -2.4579683748 -0.8799690885
H -1.4687226904 1.9347936447 -2.1257192600
H -1.7271587758 0.1776044129 -2.3319608169
H -3.2311132569 1.5031314332 -3.8367488553
H -4.1596557812 0.5608747195 -2.6566386459
H -3.9322488820 2.2981174169 -2.4172032595
H -0.4486858366 -0.8361943144 2.7804091814
H 1.0458548681 -1.6459658227 2.1901431979
H 5.2117863491 -1.1800241406 -0.9796308053
H 6.3999566269 0.4251017921 -2.4650105181
H 5.3344384533 2.5235751778 -3.1428433765
H 3.0445759919 3.0959656952 -2.3578341441
40
CONF549
C -1.8036798649 2.8216442838 1.0014204660
C -0.9453490351 2.6777054081 -0.2371775622
O -0.5740527495 1.3017035656 -0.4760499155
P -1.6476264613 0.2150622627 -0.9181182993
S -3.0295760223 0.8386394562 -2.1570725132
O -2.1926303772 -0.3038957118 0.4855576612
C -3.3507774928 -1.1537246578 0.5883885253
C -3.8773364245 -1.0436873329 2.0050668763
S -0.3998691359 -1.3191316368 -1.6261837418
C 0.5266460522 -1.7274626697 -0.0530147729
H -0.2206627304 -1.9299618289 0.7212135468
C 1.3878069797 -2.9493145590 -0.3271305637
Cl 0.3440269092 -4.3491155612 -0.6596191408
N 1.2957054359 -0.6085327162 0.3806604554
C 2.2853732014 0.0170406298 -0.3817256953
O 2.7146898435 -0.4128664737 -1.4266675466
C 2.6401928453 1.2399471437 0.3572353997
C 3.5656540612 2.2229081027 0.0707475464
C 3.6651019339 3.2932889639 0.9572092796
C 2.8645905309 3.3675063374 2.0870648938
C 1.9324583784 2.3739033184 2.3785609563
C 1.8323330381 1.3139583581 1.5000235769
C 0.9453563470 0.1403103638 1.5121228811
O 0.0898660444 -0.1865959551 2.2986607031
H -1.9159936368 3.8739789774 1.2415877800
H -2.7870945087 2.3911787769 0.8204904486
H -1.3443625936 2.3013802896 1.8386069150
H 0.0135116081 3.1883588670 -0.1321690320
H -1.4715395080 3.0490689001 -1.1220217010
H -4.0914593106 -0.8250684272 -0.1487180756
H -3.0493367491 -2.1789329282 0.3532608671
H -4.2255987825 -0.0335019163 2.1993099700
H -4.6999862073 -1.7390064001 2.1347536354
H -3.0849353078 -1.2816832182 2.7095218142
H 2.0209218218 -2.7885062478 -1.1995162001
H 1.9878550039 -3.1884352294 0.5508597808
H 4.1820057273 2.1561313728 -0.8113406527
H 4.3773169995 4.0779218459 0.7574393774
H 2.9625175785 4.2099331908 2.7529360108
H 1.3072680881 2.4247689885 3.2554226319
40
CONF157
C -2.5811295834 0.6123909714 3.4123992939
C -2.8621506285 0.9385000381 1.9612530473
O -2.3931977002 -0.1689350628 1.1536706039
P -1.9824417869 0.0121439542 -0.3576333485
S -0.9549146403 1.6338468100 -0.8024391555
O -3.3829465926 -0.0715832183 -1.1030159518
C -3.5521797918 0.2809891093 -2.4930299527
C -4.2191489507 1.6377792504 -2.6089198318
S -1.1440617252 -1.8767998688 -0.7595270518
C 0.2685144431 -1.8196427563 0.4514187843
H -0.1765632694 -1.7028897297 1.4460684415
C 1.0096598533 -3.1377324633 0.3232367948
Cl 2.3117885711 -3.1795896433 1.5444089393
N 1.0970021363 -0.6832840678 0.2274399946
C 1.8942403868 -0.4592455669 -0.8984192436
O 1.9978756197 -1.2288431142 -1.8253625253
C 2.5121577390 0.8591677601 -0.6864787962
C 3.3949960259 1.5702960160 -1.4727357145
C 3.7956213028 2.8246207350 -1.0189538886
C 3.3222473431 3.3413718492 0.1772550357
C 2.4284177654 2.6259079926 0.9702073521
C 2.0336842872 1.3825214538 0.5221007025
C 1.1038785910 0.4063778529 1.1052550786
O 0.4633353356 0.4405102108 2.1315833133
H -3.0752435549 -0.3147425301 3.6877407520
H -1.5100085186 0.5045805622 3.5623058601
H -2.9516621510 1.4194419865 4.0357987657
H -2.3353167955 1.8457335450 1.6467808483
H -3.9309865293 1.0543129977 1.7694821006
H -2.5776568590 0.2831221315 -2.9883915132
H -4.1742230944 -0.5109395146 -2.9130564365
H -5.1630192602 1.6370461608 -2.0714698931
H -3.5731928143 2.4067393061 -2.1903368646
H -4.4002952765 1.8582197433 -3.6558477339
H 0.3382481800 -3.9712716593 0.5174219161
H 1.4698831002 -3.2305129131 -0.6597403207
H 3.7530315902 1.1613164532 -2.4038546887
H 4.4835504779 3.4048100273 -1.6131050746
H 3.6469726332 4.3177500287 0.4999475314
H 2.0485334480 3.0222780758 1.8979960431
40
CONF439
C -1.7178652510 2.3503125662 1.6458114854
C -2.7819463232 1.2889674719 1.8380321938
O -2.4717960368 0.0885261133 1.1143524142
P -2.6962873378 -0.0246287841 -0.4629189015
S -4.2385421903 0.9675562191 -1.1450053607
O -2.7203559393 -1.6009856496 -0.6662171966
C -3.9569877794 -2.3454805676 -0.6087284914
C -4.5376671703 -2.3749025240 0.7892225033
S -0.8318321206 0.3898535696 -1.3645093928
C 0.2507762046 -0.6952046216 -0.3060770785
H -0.2638145483 -0.8144177983 0.6538849880
C 0.4425341709 -2.0232672514 -1.0110780114
Cl 1.4570628215 -3.0780487249 0.0126340355
N 1.4785775826 -0.0169093802 -0.0471556582
C 1.7758070573 0.5354061903 1.2005846709
O 1.0355795560 0.4775257510 2.1554981199
C 3.0988418135 1.1596528324 1.0563048600
C 3.8853007956 1.8237408483 1.9757157404
C 5.1121705377 2.3168189951 1.5366752856
C 5.5273725667 2.1472145740 0.2247309513
C 4.7331859557 1.4775486187 -0.7040326870
C 3.5181501513 0.9883802182 -0.2702023117
C 2.4697554579 0.2507659294 -0.9957051344
O 2.4149401917 -0.0781923769 -2.1572357114
H -0.7491993006 1.9687624433 1.9611147496
H -1.6654611656 2.6390492110 0.5960521579
H -1.9678997389 3.2229195333 2.2402715229
H -3.7576822039 1.6542808100 1.5001922450
H -2.8409742119 0.9670617974 2.8784808755
H -4.6635555374 -1.8926417687 -1.3109971096
H -3.6786932017 -3.3425039819 -0.9527340261
H -3.7947371523 -2.7284774728 1.4994787763
H -4.8563485725 -1.3747739850 1.0791316642
H -5.3977443984 -3.0369540017 0.8061590067
H -0.5152875381 -2.5191837916 -1.1525801939
H 0.9563755314 -1.8877516832 -1.9622612982
H 3.5540363337 1.9511906951 2.9936988633
H 5.7487438686 2.8404503490 2.2318971083
H 6.4822452461 2.5406615836 -0.0854321001
H 5.0467017993 1.3414541218 -1.7264941880
40
CONF167
C -5.5266260531 -0.5651492731 0.4093114298
C -4.4145852166 -1.2883649796 -0.3257848983
O -3.3889737087 -0.3637442220 -0.7450144138
P -2.0895594077 -0.0920587279 0.1252675405
S -2.3702491643 0.4077679999 2.0028953979
O -1.3195667470 0.9557662031 -0.7852817140
C -1.4826696592 2.3784305332 -0.6007808484
C -2.9005704285 2.8239280784 -0.8833450226
S -0.9540671937 -1.8423277594 -0.2126701869
C 0.4765779099 -1.3695435023 0.8613410596
H 0.0626727040 -0.8178476663 1.7171934856
C 1.1750560131 -2.6389795927 1.3094902271
Cl 2.5165699825 -2.1948990599 2.4018614521
N 1.3306240420 -0.4718998813 0.1507797954
C 2.0774014081 -0.8017219075 -0.9846140569
O 2.1518695200 -1.9104261756 -1.4581178442
C 2.6921501266 0.4605338076 -1.4306093172
C 3.5441377012 0.7191997317 -2.4849169793
C 3.9597524426 2.0362781029 -2.6692679009
C 3.5328331810 3.0502196929 -1.8251550799
C 2.6732949768 2.7897606222 -0.7600678575
C 2.2620048747 1.4850790361 -0.5769489011
C 1.3693533550 0.8937137258 0.4309684605
O 0.7582080375 1.4163211380 1.3360766302
H -5.9419982060 0.2185507168 -0.2179425347
H -6.3078018742 -1.2746781983 0.6619872468
H -5.1437173801 -0.1193304194 1.3247359073
H -4.7748756169 -1.7357331371 -1.2537965178
H -3.9670553784 -2.0633426182 0.3024245573
H -1.1879780435 2.6264889990 0.4245374531
H -0.7698440932 2.8125511153 -1.3040093535
H -3.5744419689 2.3919063168 -0.1443691004
H -2.9563900547 3.9062595299 -0.8230610062
H -3.2058422977 2.4957975238 -1.8735197953
H 0.4868664798 -3.2732120979 1.8639571141
H 1.5987637309 -3.1728097268 0.4598634312
H 3.8694835719 -0.0761968332 -3.1358855505
H 4.6254704560 2.2692423975 -3.4849351779
H 3.8706768873 4.0602273874 -1.9939595613
H 2.3364170486 3.5707384674 -0.0973370346
40
CONF285
C -0.7290905497 3.3747086787 -1.3630187477
C -0.8414960029 1.9577728625 -1.8905322773
O -0.8888418262 1.0501108205 -0.7743951597
P -1.9772531946 -0.1188510952 -0.6187484347
S -3.6579616591 0.2773040696 -1.5399355658
O -1.9878219358 -0.3314425482 0.9503896964
C -2.4663296241 0.6734649717 1.8735769743
C -3.9498445471 0.5130667648 2.1335116630
S -1.0671042561 -1.9246836965 -1.1809675329
C 0.3056862929 -2.0502637384 0.0806647692
H -0.1606724831 -2.2928819088 1.0409033923
C 1.2152178709 -3.1647959826 -0.4045835390
Cl 2.5045018131 -3.4205853977 0.8058779621
N 0.9867945592 -0.8097153415 0.2407662318
C 0.9973202457 -0.1035809709 1.4463592091
O 0.4883696783 -0.4982848856 2.4692616910
C 1.7311355325 1.1415842366 1.1706684907
C 2.0381018776 2.2054021649 1.9946570430
C 2.7423032589 3.2706409702 1.4369439041
C 3.1216985160 3.2625716981 0.1032162072
C 2.8107110843 2.1892978323 -0.7293917918
C 2.1130463862 1.1347345061 -0.1769513216
C 1.6171599652 -0.1095780649 -0.7883908485
O 1.6874006850 -0.4910703998 -1.9341848756
H -1.6230863971 3.6353399537 -0.8021509849
H 0.1379701580 3.4665827243 -0.7141604020
H -0.6260735044 4.0553608017 -2.2014716259
H 0.0268210138 1.6782338121 -2.4923583122
H -1.7513389349 1.8301930823 -2.4865237920
H -1.8767989567 0.4986541412 2.7766707222
H -2.2366346577 1.6631552488 1.4706852527
H -4.5139726959 0.6744454314 1.2173034502
H -4.1578314663 -0.4884742138 2.4993440425
H -4.2619070399 1.2393834535 2.8771194505
H 0.6586934574 -4.0938140544 -0.5070147964
H 1.6897461278 -2.8947016293 -1.3471402325
H 1.7382275315 2.2040206236 3.0301987369
H 2.9939512354 4.1170663772 2.0558086736
H 3.6642901605 4.1024015426 -0.3005117729
H 3.0989035418 2.1756105389 -1.7682929799
40
CONF88
C -1.1715692905 3.8379463682 -0.0450819888
C -1.3512455743 2.5789104857 -0.8695206543
O -1.0396471664 1.4387255054 -0.0429086152
P -2.0231643623 0.1956043226 0.0896372176
S -3.9286961543 0.6277716197 0.1492553172
O -1.3854845791 -0.3908029418 1.4181339615
C -2.1397367423 -1.2511306079 2.2942840495
C -2.1172020807 -2.6911737587 1.8228837961
S -1.5364245113 -1.1323974551 -1.4961162779
C 0.1989753051 -1.6850606699 -1.0657566259
H 0.1005707031 -2.5302304236 -0.3767654956
C 0.8381434675 -2.1101228550 -2.3755134357
Cl 2.4657030643 -2.7668178176 -2.0328167041
N 0.9292074667 -0.6709034820 -0.3857382830
C 1.2727855933 0.5694530409 -0.9202163947
O 1.0272025139 0.9214220685 -2.0524135675
C 1.9627485344 1.2899027644 0.1625957648
C 2.4976765759 2.5611280677 0.1935884870
C 3.0747392451 2.9881833944 1.3874931491
C 3.1109958843 2.1650519421 2.5027188341
C 2.5723698400 0.8807881814 2.4706998013
C 1.9987706685 0.4579748373 1.2888080789
C 1.3429056517 -0.8115550842 0.9432118614
O 1.1742036026 -1.8129739721 1.5979004901
H -1.3381067647 4.7028795874 -0.6785762947
H -1.8865068352 3.8496534545 0.7736565228
H -0.1656649516 3.8742762084 0.3638881270
H -0.6654982889 2.5489407965 -1.7211846444
H -2.3812012195 2.4895518030 -1.2304975354
H -1.6458100782 -1.1421918252 3.2607376927
H -3.1654410426 -0.8722582230 2.3536109809
H -2.6590847131 -3.3064823964 2.5339219261
H -2.5939006323 -2.7753675348 0.8470281458
H -1.0899784899 -3.0429263179 1.7592712623
H 0.2501537788 -2.8944763531 -2.8472888181
H 0.9568559911 -1.2601611062 -3.0461541419
H 2.4659444085 3.1937201439 -0.6792836756
H 3.4989666216 3.9780948361 1.4435375904
H 3.5630793121 2.5242100583 3.4135027710
H 2.5957570762 0.2340199527 3.3329857663
40
CONF467
C -1.7990340658 1.7395303132 2.2637069152
C -2.8288698990 0.6312098098 2.1821578746
O -2.5127374151 -0.3191737780 1.1522958919
P -2.7318787781 0.0144478387 -0.3944642601
S -4.2486843008 1.1884055366 -0.7815637511
O -2.7907118324 -1.4431712731 -1.0274074730
C -4.0482044664 -2.1274044471 -1.2182680445
C -4.6802654898 -2.5271691305 0.0981617564
S -0.8552595247 0.6296536255 -1.1433303306
C 0.2584659992 -0.5916913781 -0.2829936781
H -0.1990097966 -0.8115491294 0.6877869160
C 0.3843450122 -1.8360816248 -1.1390248971
Cl 1.4465257891 -3.0033529584 -0.3021579979
N 1.5122075854 0.0405992347 -0.0299347110
C 2.4430720847 0.4035460879 -1.0072486233
O 2.3081653144 0.2046107475 -2.1916386015
C 3.5473087402 1.0485940280 -0.2770727105
C 4.7381677357 1.5727991506 -0.7361457373
C 5.6015493303 2.1314994990 0.2040612745
C 5.2756596851 2.1603412529 1.5513808023
C 4.0734842990 1.6308799869 2.0159734838
C 3.2182415153 1.0764637619 1.0852630957
C 1.8993034527 0.4476479364 1.2486393738
O 1.2252966993 0.2816348754 2.2392187512
H -0.8088105378 1.3282301669 2.4490435302
H -1.7841856481 2.3001213421 1.3288136098
H -2.0600943355 2.4128658401 3.0736423421
H -3.8215838267 1.0451333335 1.9762451851
H -2.8525381613 0.0367599524 3.0963059400
H -4.7157511491 -1.4689095578 -1.7823890565
H -3.7852020900 -2.9958078923 -1.8235526569
H -4.9748193643 -1.6367807319 0.6518396122
H -5.5627731798 -3.1287045168 -0.0958176857
H -3.9766822910 -3.0990736368 0.6974641089
H -0.5870724008 -2.3071923692 -1.2715503262
H 0.8392450123 -1.6021734514 -2.1009982879
H 4.9814041523 1.5460863816 -1.7861035477
H 6.5396352237 2.5491989186 -0.1250817042
H 5.9640241516 2.6009573122 2.2547874473
H 3.8122616286 1.6495412103 3.0617372681
40
CONF621
C -5.4667716360 -1.1885232019 1.5039153783
C -4.7216363339 -2.1116144090 0.5622207483
O -3.2991279776 -1.8589294166 0.5538730695
P -2.6309646481 -0.4883888785 0.1292180615
S -2.5891656833 0.9632100804 1.4569596612
O -3.4323223700 -0.1409625960 -1.2016591413
C -3.3962523193 1.1639267753 -1.8021224678
C -2.0462183971 1.4724210025 -2.4173001977
S -0.7558900133 -1.2797876522 -0.4642945027
C 0.3388181466 -0.3509246562 0.7094434548
H -0.2080258295 0.5671353674 0.9744862845
C 0.5750320919 -1.2081782397 1.9363764705
Cl 1.5991403846 -0.3035349226 3.0832987298
N 1.5319929775 0.0493842822 0.0413754754
C 2.6355216175 -0.7593301524 -0.2435014454
O 2.7338827416 -1.9261660102 0.0534433854
C 3.5809037584 0.1106212785 -0.9656358712
C 4.8459039787 -0.1512630782 -1.4504556347
C 5.5115213716 0.8819042249 -2.1070830067
C 4.9238862220 2.1271700095 -2.2695388060
C 3.6461444770 2.3923237233 -1.7815587616
C 2.9875572553 1.3698281843 -1.1290831488
C 1.6547330462 1.3278041051 -0.5111098564
O 0.7842039324 2.1660210457 -0.4599911289
H -6.5145388073 -1.4706867680 1.5325356017
H -5.0492729971 -1.2521498035 2.5061385209
H -5.3850101056 -0.1572304083 1.1629405422
H -5.0938138642 -2.0123848862 -0.4595242907
H -4.7903784239 -3.1520039718 0.8840434856
H -4.1816006310 1.1246922315 -2.5583606921
H -3.6480578572 1.9067958895 -1.0384070944
H -2.1174873569 2.3844753063 -3.0012219851
H -1.2978042970 1.6209656402 -1.6386395874
H -1.7300318207 0.6551495158 -3.0610427589
H -0.3723387910 -1.4150924117 2.4334279240
H 1.0950674028 -2.1307770580 1.6824178408
H 5.2933549021 -1.1234275869 -1.3204385167
H 6.5018899463 0.7069470582 -2.4961444426
H 5.4638361241 2.9066455711 -2.7829983120
H 3.1804312290 3.3570100562 -1.9028636776
40
CONF214
C -3.9692818981 -2.2876778859 -1.6963020152
C -4.6944690863 -1.3777535865 -0.7270554159
O -3.8825989549 -0.2609040125 -0.3162926080
P -2.5507708637 -0.4423788193 0.5277654219
S -2.5910618902 -1.7918277002 1.9404596981
O -2.2908061648 0.9943553452 1.1185921751
C -2.2620343536 2.2090742800 0.3312867381
C -3.5967512045 2.9209800809 0.3996485045
S -1.0332170484 -0.6970809815 -0.9527978425
C 0.3550381001 -0.8075233555 0.2686035479
H -0.0296056646 -0.3993658871 1.2134947767
C 0.7436305752 -2.2635478005 0.4280463761
Cl 2.0798178897 -2.3757573318 1.6053570391
N 1.4287727124 0.0366679556 -0.1421868539
C 1.6162141968 1.3036915677 0.4144775840
O 0.8995290680 1.7760797986 1.2680012607
C 2.7915697905 1.8682144855 -0.2643164259
C 3.4395239906 3.0742203040 -0.0889307199
C 4.5451049636 3.3345720525 -0.8957864986
C 4.9774588492 2.4170549921 -1.8410893728
C 4.3225048118 1.2001059576 -2.0196963388
C 3.2284802464 0.9406119527 -1.2200115272
C 2.3382392101 -0.2323279827 -1.1707336256
O 2.3331768202 -1.2293310861 -1.8515773684
H -3.1479759210 -2.7919738389 -1.1894659478
H -4.6608688477 -3.0343308784 -2.0729954095
H -3.5672976158 -1.7141187086 -2.5278067011
H -4.9960000167 -1.9303502414 0.1676594827
H -5.5655641352 -0.9095629318 -1.1873901639
H -1.4613944923 2.8011226411 0.7809708710
H -1.9998860347 1.9564584638 -0.7001921911
H -3.8622456156 3.1126305332 1.4355531122
H -3.5229835545 3.8641767221 -0.1323828064
H -4.3716500527 2.3099056298 -0.0554294728
H -0.0953435210 -2.8322610722 0.8293497195
H 1.0928262949 -2.6842781777 -0.5141400641
H 3.0959716586 3.7815170086 0.6486577898
H 5.0721237243 4.2683469317 -0.7813831579
H 5.8360659406 2.6476984958 -2.4512990518
H 4.6500153662 0.4804745571 -2.7525216475
40
CONF1
C -3.6104887732 1.4270888327 2.4517941038
C -2.3748678987 0.5674965718 2.6046611593
O -2.2116261292 -0.3480543156 1.5004471794
P -2.0023981190 0.1260964831 0.0077867002
S -0.9978158170 1.8000492978 -0.2676274821
O -3.4898468919 0.1933618418 -0.5426996941
C -3.8300435032 0.8408098386 -1.7805374003
C -3.2826371338 0.0924639058 -2.9787349543
S -1.2750130437 -1.6747654161 -0.8161223929
C 0.2644249591 -1.8428998676 0.2089041311
H -0.0541149455 -1.8797487931 1.2571196811
C 0.9386081300 -3.1350227392 -0.2135100049
Cl 2.3712530475 -3.3966291690 0.8207937999
N 1.1021986224 -0.6979424595 0.0672593459
C 1.2340556595 0.2471117375 1.0887947352
O 0.7029666603 0.1389812539 2.1726246658
C 2.1274772263 1.2863527443 0.5595887783
C 2.6086670094 2.4404256809 1.1420388161
C 3.4339405496 3.2545767543 0.3703014647
C 3.7577723516 2.9194340039 -0.9354197975
C 3.2700939401 1.7554032916 -1.5243383771
C 2.4553019569 0.9463025858 -0.7595589058
C 1.7767849625 -0.3153462295 -1.0958351044
O 1.7524872031 -0.9338220192 -2.1342604314
H -4.4853854069 0.8011171634 2.2964421449
H -3.7448872582 2.0242242961 3.3482113860
H -3.4957222689 2.0928547766 1.5969427897
H -2.4387532109 -0.0900070683 3.4725410772
H -1.4707008764 1.1792242275 2.6787867286
H -4.9205699214 0.8554153398 -1.7772291114
H -3.4414983505 1.8641024370 -1.7551397326
H -2.1933752473 0.1321926877 -2.9778193434
H -3.5911008465 -0.9493837366 -2.9466643250
H -3.6503516844 0.5517540928 -3.8906505775
H 0.2646125476 -3.9774461336 -0.0743648663
H 1.2785293199 -3.0761357007 -1.2467589764
H 2.3452727552 2.6963658558 2.1556468628
H 3.8232625124 4.1648448967 0.7977588596
H 4.3956150093 3.5729547442 -1.5089368858
H 3.5116393367 1.4877668818 -2.5404205540
40
CONF426
C -4.7542626215 -3.0435422696 0.6513584205
C -3.3787610952 -2.6568145611 1.1545289757
O -3.2704432217 -1.2224230319 1.3344417844
P -2.7439483952 -0.2276665089 0.2287268872
S -2.7698998874 1.6208722481 0.8661306713
O -3.6821675381 -0.5423109211 -1.0163132163
C -3.8223945919 0.3710267013 -2.1202034592
C -2.5264821280 0.5690054335 -2.8799753743
S -0.8463618960 -1.0387984029 -0.3382919483
C 0.1975956235 0.1459391124 0.6206649012
H -0.2757936381 1.1333689575 0.5181560174
C 0.2243578315 -0.2968167865 2.0702506028
Cl 1.2229223847 0.8473707716 3.0073128610
N 1.4885470674 0.2330747112 0.0239511529
C 2.4796250529 -0.7497877939 0.0788178539
O 2.3637524552 -1.8113896999 0.6441621633
C 3.6136718598 -0.2046019526 -0.6870499583
C 4.8633850802 -0.7342708641 -0.9353802588
C 5.7430800094 0.0229288025 -1.7062080536
C 5.3761048024 1.2627257611 -2.2067889408
C 4.1140840658 1.7979142903 -1.9575395275
C 3.2427695940 1.0489558619 -1.1929647813
C 1.8655105992 1.3287651957 -0.7588368606
O 1.1433637471 2.2704847659 -0.9894938299
H -5.5174247211 -2.6559078908 1.3206597909
H -4.9216274061 -2.6400799394 -0.3431892016
H -4.8254435051 -4.1261853626 0.6157659986
H -2.5956802501 -2.9847604526 0.4649452894
H -3.1917862719 -3.0652720083 2.1491886765
H -4.5861885308 -0.0931594542 -2.7456158465
H -4.1883785608 1.3261261746 -1.7316097798
H -2.7225772160 1.1514725117 -3.7745451876
H -1.8071497672 1.1099099331 -2.2649946592
H -2.0997839858 -0.3910148603 -3.1600523917
H -0.7823992861 -0.2699855413 2.4892050794
H 0.6682309593 -1.2867350882 2.1721130610
H 5.1389558662 -1.6993556366 -0.5418420958
H 6.7272049581 -0.3645964924 -1.9162161027
H 6.0786401521 1.8253356790 -2.8006658075
H 3.8190182667 2.7607697692 -2.3424302097
40
CONF429
C -4.7012207381 -3.0477990391 0.8309115795
C -3.3234322666 -2.6103997451 1.2838606273
O -3.2361609112 -1.1662901449 1.3776442396
P -2.7490595942 -0.2282509116 0.2060515137
S -2.8039047784 1.6540427686 0.7334882966
O -3.6992788958 -0.6365366394 -1.0017750660
C -3.8809395008 0.2069831707 -2.1542198784
C -2.6032377340 0.3904198930 -2.9475119484
S -0.8437914987 -1.0299053681 -0.3465987347
C 0.1846028237 0.1951138989 0.5777412152
H -0.2819977438 1.1784896118 0.4212293398
C 0.1832375284 -0.1820907608 2.0462772345
Cl 1.1725865893 0.9976193630 2.9483683599
N 1.4884858831 0.2502187989 0.0053671081
C 2.4643914145 -0.7433991987 0.1123740709
O 2.3183965760 -1.7876422002 0.7026022824
C 3.6259263440 -0.2329604703 -0.6358289136
C 4.8741602673 -0.7854384706 -0.8375685111
C 5.7854154904 -0.0584143766 -1.6007368599
C 5.4501283801 1.1744443155 -2.1391985328
C 4.1896111767 1.7325908715 -1.9370545387
C 3.2870241088 1.0136242788 -1.1800068415
C 1.9031411375 1.3235994615 -0.7888929418
O 1.2034049214 2.2723601155 -1.0565060443
H -5.4585171112 -2.6316552718 1.4896908180
H -4.8928427535 -2.7084307489 -0.1829965044
H -4.7554400597 -4.1315573426 0.8625411520
H -2.5476739306 -2.9658781110 0.5997380582
H -3.1115707663 -2.9565932056 2.2970010584
H -4.6436358627 -0.3109981754 -2.7372847562
H -4.2636897394 1.1742726918 -1.8150710933
H -2.1595483687 -0.5740971734 -3.1818994910
H -2.8277624924 0.9180887627 -3.8689702609
H -1.8863425070 0.9795873477 -2.3757668001
H -0.8300527458 -0.1315236969 2.4468409927
H 0.6196757349 -1.1687591305 2.1994572254
H 5.1250484259 -1.7448063647 -0.4146439287
H 6.7692704369 -0.4641182292 -1.7745376586
H 6.1767264805 1.7136231410 -2.7258155862
H 3.9192448258 2.6904448398 -2.3513912939
40
CONF604
C -5.5742674769 -0.2383825720 0.5526734269
C -4.1962797182 -0.8098391166 0.8172700268
O -3.2245704786 0.0936034873 0.2478676403
P -1.7106377453 0.0670947369 0.7278801822
S -1.4361920505 0.1490419341 2.6605983847
O -1.0984696566 1.3102132018 -0.0348625478
C -1.3689398582 1.5950893218 -1.4360302410
C -0.9455082273 3.0236812265 -1.7044592109
S -0.9617467433 -1.6682576473 -0.2476026792
C 0.7447184185 -1.5625894197 0.4572756665
H 0.6345917746 -1.3933553276 1.5367900554
C 1.4831697353 -2.8600941022 0.1685446740
Cl 0.7194455569 -4.1911218864 1.0671674846
N 1.4234324814 -0.4261678107 -0.0876299138
C 1.7774346631 0.6901972467 0.6817113432
O 1.6674547515 0.7444361839 1.8830732598
C 2.2995044210 1.6785725292 -0.2748534663
C 2.7852312549 2.9541783316 -0.0704024718
C 3.2040592412 3.6709967702 -1.1899063601
C 3.1382309089 3.1222284340 -2.4619318297
C 2.6508751645 1.8333663473 -2.6686468397
C 2.2342227068 1.1235028077 -1.5604037613
C 1.6633639764 -0.2292477535 -1.4504334287
O 1.4165391091 -1.0422558829 -2.3099099864
H -5.6687761472 0.7375753427 1.0202963359
H -5.7367456868 -0.1363933306 -0.5162276515
H -6.3206740871 -0.9077339010 0.9673506350
H -4.0675020992 -1.7861823446 0.3429760865
H -3.9977224949 -0.9025424855 1.8901232388
H -0.8038342549 0.8812894899 -2.0428773131
H -2.4351609979 1.4542391207 -1.6166381434
H -1.1310842277 3.2552973217 -2.7481969034
H -1.5153388164 3.7025309950 -1.0767497448
H 0.1112311866 3.1532749679 -1.4888320076
H 1.4382213029 -3.1028111364 -0.8931065140
H 2.5160346506 -2.7847215471 0.5084846679
H 2.8284421764 3.3713814025 0.9227591976
H 3.5842164850 4.6717577050 -1.0610650096
H 3.4683757446 3.7030270097 -3.3081482894
H 2.5943524493 1.3981908863 -3.6532183116
40
CONF82
C -1.4982639194 2.2977310581 -2.4052191110
C -1.3596433333 2.6160293872 -0.9298298099
O -0.9804280694 1.4575264720 -0.1606197854
P -1.9986673208 0.2595138948 0.0695857242
S -3.8945005677 0.7399682649 0.0289221620
O -1.3910675247 -0.2153902428 1.4590651765
C -1.9830404348 -1.3090258491 2.1918502755
C -2.9353510172 -0.7915718710 3.2509159132
S -1.5012542788 -1.2860871318 -1.3010519269
C 0.2036553319 -1.8109384648 -0.7338859661
H 0.0636095045 -2.5073982763 0.0999421721
C 0.8437569538 -2.4985528900 -1.9265224553
Cl 2.4364032225 -3.1426753782 -1.4291186194
N 0.9648468906 -0.7144156435 -0.2396069072
C 1.3804830143 0.3850390440 -0.9899467678
O 1.1820004268 0.5212030076 -2.1750828308
C 2.0739996847 1.2718238525 -0.0415313087
C 2.6630148276 2.5041537884 -0.2352516621
C 3.2352390283 3.1256631477 0.8724438242
C 3.2137749323 2.5270637997 2.1229558355
C 2.6200886115 1.2820177575 2.3182839513
C 2.0519772989 0.6665361631 1.2215285858
C 1.3530782449 -0.6207091010 1.1007446898
O 1.1415151439 -1.4805824439 1.9242528594
H -1.7026962685 3.2121163655 -2.9524656865
H -0.5851451867 1.8455207578 -2.7855972353
H -2.3234093248 1.6018132198 -2.5563260505
H -2.3023460985 3.0023530290 -0.5300703840
H -0.5547997943 3.3280181462 -0.7416963902
H -2.5017058727 -1.9750425225 1.4938410239
H -1.1321172275 -1.8311863900 2.6379586638
H -3.7682389297 -0.2703773321 2.7837711689
H -3.3167700392 -1.6289843378 3.8261489219
H -2.4170135376 -0.1042384235 3.9131761307
H 0.2303130872 -3.3338865566 -2.2572688766
H 1.0088319561 -1.7943275784 -2.7407724973
H 2.6757611898 2.9612313955 -1.2118681437
H 3.7022556512 4.0903416292 0.7530573967
H 3.6639010255 3.0333353844 2.9620038576
H 2.5981434802 0.8094165210 3.2870779694
40
CONF315
C -4.2576590302 -1.6758083335 1.2820362485
C -4.3344994434 -0.1736649235 1.1048706594
O -3.2712968928 0.3305697670 0.2746870348
P -1.7498420854 0.2840567179 0.7354425827
S -1.4233208223 0.6607961492 2.6242319241
O -1.0879908251 1.3644798895 -0.2199715581
C -1.3888209157 1.4548603715 -1.6391464605
C -0.9363642852 2.8171631101 -2.1214523234
S -1.0730835627 -1.5895960990 -0.0079234711
C 0.6532025905 -1.4391090480 0.6365728764
H 0.5783146668 -1.1016662926 1.6790014645
C 1.3393500485 -2.7927262446 0.5379760594
Cl 0.5610290344 -3.9365627920 1.6542540452
N 1.3588339756 -0.4269453812 -0.0899797201
C 1.5728985489 -0.4512056026 -1.4705295192
O 1.2776671120 -1.3768636950 -2.1894800861
C 2.1879960737 0.8458100555 -1.7987346812
C 2.6031962985 1.3600878451 -3.0106189244
C 3.1404766524 2.6456353208 -3.0144138157
C 3.2554874414 3.3806366081 -1.8439334127
C 2.8375811962 2.8614963015 -0.6198670905
C 2.3023904553 1.5893227417 -0.6159298430
C 1.7668988104 0.7808630844 0.4906115435
O 1.6836161320 1.0246611560 1.6705343131
H -3.3799698416 -1.9359847046 1.8721502036
H -5.1448267235 -2.0216340480 1.8025693465
H -4.1886890722 -2.1696443597 0.3158945137
H -4.2830118947 0.3311835971 2.0742830301
H -5.2396622214 0.1253343363 0.5745201942
H -0.8590517639 0.6456823722 -2.1509940429
H -2.4629560541 1.3206646759 -1.7743952935
H -1.1432741499 2.9014030988 -3.1832995940
H -1.4717604571 3.5957352553 -1.5859150847
H 0.1286506191 2.9456088157 -1.9503002503
H 1.2536431993 -3.1970112340 -0.4705745608
H 2.3842710810 -2.7037930546 0.8352139903
H 2.5084455173 0.7809136636 -3.9147935911
H 3.4708746057 3.0761850808 -3.9460202040
H 3.6736440359 4.3739230282 -1.8782653417
H 2.9187131293 3.4247633658 0.2958232996
40
CONF509
C -1.7862677087 2.8305165855 1.0747255244
C -0.9417964938 2.6603901382 -0.1698197235
O -0.5763728106 1.2784567061 -0.3781472983
P -1.6533298675 0.1907983633 -0.8089051956
S -3.0143016769 0.8209267666 -2.0677602789
O -2.1681487877 -0.3231210507 0.6107842341
C -3.2028364098 -1.3193525749 0.7254564882
C -4.5655334275 -0.6719598669 0.8761881228
S -0.4313565178 -1.3562756082 -1.5352292805
C 0.5688244549 -1.7461177143 -0.0040764874
H -0.1413529576 -1.9631540063 0.8006122551
C 1.4400225778 -2.9518045876 -0.3159762273
Cl 0.4092901515 -4.3700924795 -0.6075581624
N 1.3353696918 -0.6134794786 0.3975744176
C 2.2849157759 0.0269047382 -0.4026295053
O 2.6789648984 -0.3962811039 -1.4640737428
C 2.6499495919 1.2549619515 0.3226179825
C 3.5490658504 2.2514112468 0.0009599961
C 3.6667540523 3.3233900199 0.8832678933
C 2.9092423651 3.3861426030 2.0430767345
C 2.0035741229 2.3790872466 2.3698077035
C 1.8854574327 1.3174417649 1.4955967808
C 1.0161569728 0.1316301091 1.5405869827
O 0.1937073522 -0.2068844679 2.3572136785
H -1.9083400975 3.8877268060 1.2869289866
H -2.7659724139 2.3824055443 0.9179124519
H -1.3104871595 2.3389427958 1.9200507736
H 0.0182767141 3.1728289046 -0.0873607644
H -1.4781048378 3.0115983495 -1.0569636032
H -3.1752690757 -1.9725859069 -0.1530795218
H -2.9363787060 -1.8915558301 1.6167983275
H -5.3142054410 -1.4456927222 1.0122725157
H -4.5701822726 -0.0108543791 1.7381829525
H -4.8089165609 -0.0959609703 -0.0140013852
H 2.0335472038 -2.7784947577 -1.2134829799
H 2.0803849616 -3.1806136836 0.5358830678
H 4.1318454538 2.1935744109 -0.9042739278
H 4.3590989787 4.1183932091 0.6564994020
H 3.0202348983 4.2300807160 2.7049717100
H 1.4115417070 2.4209067356 3.2698616615
40
CONF687
C -2.0388123986 -3.4717975590 -1.5200721948
C -3.2635503824 -2.6667132692 -1.1332767303
O -3.0507284433 -1.9876241412 0.1349553332
P -2.7379649863 -0.4510583934 0.2711117037
S -2.6656797206 0.1156808847 2.1419460320
O -3.8839135584 0.2012192463 -0.6141434168
C -4.0312959139 1.6340864763 -0.7093175090
C -5.4131441129 1.9208790213 -1.2605102507
S -0.9868611354 -0.0470899547 -0.8816489072
C 0.2327558115 -0.1999216302 0.4968930825
H -0.1430726100 0.4152786871 1.3261835170
C 0.3426611762 -1.6590187039 0.8987578560
Cl 1.5150766412 -1.7997370342 2.2369756140
N 1.4785869491 0.3541848999 0.0790113514
C 2.0268580383 1.5047031486 0.6506391171
O 1.5041702690 2.1316081051 1.5423675391
C 3.2969660016 1.7281648291 -0.0591730425
C 4.2547021250 2.7084865499 0.1021637525
C 5.3707213227 2.6629338441 -0.7308999352
C 5.5142016003 1.6692607274 -1.6870395061
C 4.5478662052 0.6788784413 -1.8504151930
C 3.4423701896 0.7230729710 -1.0257494926
C 2.2690216112 -0.1629032317 -0.9501382777
O 1.9807860766 -1.1365090825 -1.6052296224
H -2.2731835836 -4.0649045915 -2.3984206883
H -1.2017131813 -2.8176904465 -1.7521130075
H -1.7563863832 -4.1365327631 -0.7082845412
H -4.1220738903 -3.3144268242 -0.9502998389
H -3.5136512812 -1.9281486482 -1.8958598221
H -3.8986965816 2.0656862888 0.2881961203
H -3.2477230233 2.0128579103 -1.3710360551
H -5.5449979505 2.9942203942 -1.3483646605
H -5.5261404379 1.4627865731 -2.2385677660
H -6.1707177547 1.5197996469 -0.5932451165
H -0.6159304023 -2.0272960995 1.2661277931
H 0.7083145406 -2.2664289910 0.0711908254
H 4.1336180833 3.4770207798 0.8485337455
H 6.1354129650 3.4162092628 -0.6278808139
H 6.3893659777 1.6608171751 -2.3169424189
H 4.6503288632 -0.0980079420 -2.5907467408
40
CONF510
C -1.6162522603 2.9510678414 1.0215728025
C -0.8950111474 2.6710149762 -0.2793108287
O -0.5774361569 1.2687904025 -0.4175548852
P -1.7101025163 0.1825072632 -0.6743393780
S -3.1645270532 0.7643140576 -1.8494601210
O -2.1022261678 -0.2179066786 0.8192272991
C -3.1110312118 -1.2064676250 1.1027917047
C -4.4723249125 -0.5629818310 1.2806560551
S -0.5943812896 -1.4440431055 -1.3970570722
C 0.5348769041 -1.7597745795 0.0600552501
H -0.1021980756 -1.9169282491 0.9366419323
C 1.3594430838 -2.9969315346 -0.2555150554
Cl 0.2880850369 -4.4101759727 -0.3741505561
N 1.3483525581 -0.6192492917 0.3226721226
C 1.1461086326 0.1947138558 1.4452050158
O 0.3985510298 -0.0824692920 2.3519666817
C 2.0220414343 1.3605171494 1.2517241484
C 2.2341104664 2.4675816524 2.0483921396
C 3.1169815012 3.4389477174 1.5813396603
C 3.7616535515 3.2979272476 0.3617470257
C 3.5493410990 2.1799514551 -0.4423230764
C 2.6727527484 1.2187295946 0.0185453918
C 2.2269343070 -0.0417955556 -0.5975366669
O 2.5150219666 -0.5311271063 -1.6645929784
H -1.7021731388 4.0234751962 1.1636414887
H -2.6128630126 2.5139982196 0.9900853117
H -1.0708466316 2.5130250667 1.8541279390
H 0.0780900929 3.1631852188 -0.3232362327
H -1.5052186340 2.9717980613 -1.1367589942
H -3.1305223998 -1.9453363344 0.2946071460
H -2.7750149375 -1.6817638522 2.0270376558
H -4.7848373346 -0.0806938393 0.3570507639
H -5.1960540720 -1.3280405227 1.5425724334
H -4.4324539201 0.1804918286 2.0716719941
H 1.8743669769 -2.8856208527 -1.2096024861
H 2.0686586895 -3.1889372474 0.5495965725
H 1.7296455486 2.5701838068 2.9956804566
H 3.2994735045 4.3168368425 2.1802175282
H 4.4388825391 4.0669820291 0.0260276846
H 4.0440303521 2.0611577143 -1.3929029310
40
CONF328
C -1.2362095696 3.2703170970 0.1451888278
C -0.8113470783 2.5994936968 -1.1433604340
O -0.5020594266 1.2049683545 -0.9326513569
P -1.6411732587 0.1256320265 -0.6847767727
S -3.3478542819 0.4977577967 -1.5689428798
O -1.6497344064 0.0789176165 0.9120033085
C -2.5217880795 -0.8005599902 1.6476426619
C -3.8051666688 -0.0933189070 2.0351598344
S -0.7492906725 -1.6740955628 -1.2970918807
C 0.6221743785 -1.9098042840 -0.0349470437
H 0.1515928230 -2.3096241600 0.8695833241
C 1.6056006850 -2.9043686499 -0.6304371753
Cl 0.7657417162 -4.4398041859 -0.9465290157
N 1.2398647913 -0.6753408097 0.3103580017
C 1.9010544354 0.1697409004 -0.5861698049
O 2.1217708506 -0.1002791118 -1.7432244452
C 2.2433365346 1.3740682580 0.1889070942
C 2.8899466494 2.5310981476 -0.1944050331
C 3.0459859590 3.5309829779 0.7633854964
C 2.5706612075 3.3682564050 2.0558374574
C 1.9205135014 2.1988012318 2.4446958501
C 1.7631447607 1.2088646337 1.4951678462
C 1.1140940955 -0.1069346959 1.5841982481
O 0.5872676735 -0.6623314355 2.5188281591
H -0.4765431691 3.1348819857 0.9109752876
H -1.3872316956 4.3298134161 -0.0345061602
H -2.1702189466 2.8316503592 0.4930991801
H 0.1160448372 3.0162584398 -1.5387355555
H -1.6027876891 2.6680268883 -1.8963209749
H -2.7339022821 -1.6877131090 1.0415198750
H -1.9377377729 -1.0850883338 2.5268899700
H -4.4180734113 -0.7672103252 2.6248872037
H -3.5809605860 0.7941362911 2.6199553525
H -4.3559042537 0.1993295540 1.1436256604
H 1.9987155674 -2.5389678339 -1.5789360872
H 2.4113355837 -3.1068348915 0.0749832461
H 3.2563828315 2.6471341092 -1.2018910883
H 3.5443159594 4.4477660276 0.4916414042
H 2.7037228668 4.1610698639 2.7744736079
H 1.5456467841 2.0640894418 3.4465943508
40
CONF137
C -1.7005958840 2.5821163864 -1.9876961888
C -1.4494681938 2.7101848669 -0.4985299854
O -1.0376616663 1.4604717412 0.0923273336
P -2.0526071181 0.2416143492 0.2011625634
S -3.9449451046 0.7116058169 0.3614161678
O -1.4022183409 -0.4368163797 1.4814169334
C -2.0972327369 -1.4969241341 2.1738187371
C -1.4391007233 -1.6752749422 3.5260364666
S -1.6221116080 -1.0842933456 -1.4012068287
C 0.1056100194 -1.6698712988 -0.9826675042
H 0.0069047420 -2.4631841376 -0.2338023858
C 0.6832553240 -2.2040839339 -2.2815729733
Cl 2.2989345068 -2.8951743934 -1.9498441663
N 0.8968147950 -0.6414026903 -0.3972893242
C 1.2697575373 0.5466957147 -1.0246494906
O 0.9921692484 0.8359572621 -2.1656776636
C 2.0358990518 1.3017295727 -0.0196004810
C 2.6194706858 2.5498757674 -0.0898157866
C 3.2783741850 3.0175730090 1.0450212206
C 3.3460282512 2.2559892135 2.2017146128
C 2.7577583265 0.9952023234 2.2722391890
C 2.1031006347 0.5324899035 1.1489776373
C 1.3866123744 -0.7286203190 0.9098566891
O 1.2309892675 -1.6898351468 1.6253551541
H -2.5446818880 1.9151442304 -2.1633842749
H -1.9317553260 3.5595200861 -2.3983702241
H -0.8245209811 2.1775843158 -2.4895402588
H -2.3531660820 3.0522494520 0.0150574034
H -0.6196578993 3.3847958982 -0.2832174213
H -3.1514242883 -1.2154008502 2.2681677052
H -2.0260864885 -2.4104467680 1.5762604397
H -1.9373149127 -2.4772031804 4.0604861927
H -0.3903704496 -1.9266364832 3.3897435490
H -1.5124295070 -0.7563247298 4.1001197088
H 0.0528729179 -2.9956442104 -2.6809141139
H 0.8061119875 -1.4041807279 -3.0104905566
H 2.5637027826 3.1341557269 -0.9944509792
H 3.7437449836 3.9901091421 1.0212997298
H 3.8628000964 2.6450732699 3.0645468580
H 2.8056731718 0.3964003951 3.1674845554
40
CONF2
C -3.2713837069 1.4641625770 2.7146071547
C -1.8792839722 0.9149884908 2.4893919389
O -1.8799136189 -0.1295150651 1.4957456317
P -1.9242548389 0.1760902877 -0.0559045130
S -0.9687120780 1.8035520704 -0.6203067099
O -3.4813826233 0.2293764631 -0.3648172868
C -4.0053936722 0.7438766078 -1.6014511513
C -3.6449646800 -0.1403593117 -2.7775069387
S -1.3655488507 -1.7225807223 -0.7813356997
C 0.2466052082 -1.9282961236 0.1167548551
H 0.0079884580 -2.1198375781 1.1690893430
C 0.9499657214 -3.1124868621 -0.5235209612
Cl 2.4666255568 -3.4294136560 0.3662659585
N 1.0247163151 -0.7333761936 0.0763607983
C 1.5210823702 -0.1311047768 -1.0858247020
O 1.3405504907 -0.5597932933 -2.2012463351
C 2.2550619589 1.0599682890 -0.6285049696
C 2.9372700059 2.0213066968 -1.3439896275
C 3.5191748896 3.0648583834 -0.6276999436
C 3.4134006358 3.1372771143 0.7526008505
C 2.7206827185 2.1690649267 1.4753721775
C 2.1478696915 1.1330460117 0.7667537322
C 1.3429472340 -0.0072098492 1.2256367347
O 0.9826657732 -0.3170592064 2.3390576833
H -3.9579572634 0.6556645932 2.9494518530
H -3.2473806179 2.1710658185 3.5378661006
H -3.6190246855 1.9730212916 1.8173905555
H -1.4734175157 0.4320858344 3.3797080673
H -1.1945809599 1.7056588140 2.1623508690
H -5.0828211126 0.7770985275 -1.4352794589
H -3.6169178831 1.7571563521 -1.7472488608
H -3.9488094578 -1.1663627945 -2.5858886468
H -4.1421327482 0.2245296327 -3.6705142914
H -2.5671563736 -0.1218796929 -2.9407587279
H 0.3288107515 -4.0033544688 -0.4601581255
H 1.2086208821 -2.8944423788 -1.5590824337
H 3.0059195071 1.9607714372 -2.4180897057
H 4.0574816710 3.8326678390 -1.1601851406
H 3.8705346738 3.9602139402 1.2785781187
H 2.6269232871 2.2192410542 2.5483884511
40
CONF511
C -1.6374667953 2.9277013623 1.0415690619
C -0.9089993357 2.6634241976 -0.2586225618
O -0.5850008071 1.2638712304 -0.4103167077
P -1.7125010694 0.1749358591 -0.6774096781
S -3.1665388095 0.7541552170 -1.8539522336
O -2.1116342803 -0.2380471546 0.8107980091
C -3.1525459413 -1.1982647176 1.0767151605
C -4.4829477286 -0.5074776581 1.3039679168
S -0.5824382750 -1.4402280138 -1.4043192691
C 0.5387170348 -1.7558696644 0.0586320785
H -0.1034457785 -1.9077006093 0.9324510385
C 1.3607526397 -2.9967252373 -0.2487086572
Cl 0.2863456979 -4.4080223868 -0.3622542893
N 1.3546366376 -0.6170661176 0.3216490910
C 1.1459455920 0.2039010308 1.4378966220
O 0.3913596297 -0.0662447207 2.3409596167
C 2.0262048620 1.3664547762 1.2443737940
C 2.2345055510 2.4778453898 2.0360236612
C 3.1238708647 3.4439889982 1.5704758039
C 3.7784961845 3.2936925454 0.3573034490
C 3.5698184806 2.1714435583 -0.4417411296
C 2.6865976153 1.2154919098 0.0174629947
C 2.2421204374 -0.0474021689 -0.5948409234
O 2.5374525207 -0.5436961660 -1.6566743914
H -1.7225420210 3.9983218126 1.1969858025
H -2.6345616780 2.4927707306 0.9990510060
H -1.0972687148 2.4780979214 1.8714033861
H 0.0624929264 3.1595835456 -0.2927011688
H -1.5159725243 2.9705962009 -1.1160784196
H -3.2159467321 -1.9039417559 0.2417055395
H -2.8206081084 -1.7222129180 1.9757046178
H -5.2325327442 -1.2515981094 1.5531761037
H -4.3977832783 0.2049630312 2.1196323126
H -4.7919953026 0.0191513245 0.4036260626
H 1.8781659829 -2.8916949834 -1.2021654842
H 2.0677867093 -3.1862069679 0.5589324504
H 1.7222185227 2.5877004261 2.9782766576
H 3.3035425471 4.3251531125 2.1653898045
H 4.4606910675 4.0588249894 0.0226660076
H 4.0721836076 2.0454981393 -1.3873574641
40
CONF257
C -1.0916413024 3.6531613688 -0.6203482396
C -1.2346310469 2.3449357570 -1.3729229469
O -1.0635718728 1.2563858222 -0.4454094649
P -2.0625281776 0.0040546762 -0.3645468818
S -3.9260466148 0.4863139115 -0.7163704808
O -1.7264028455 -0.5679103751 1.0725721127
C -2.1764368770 0.1165085477 2.2665771112
C -2.0846338563 -0.8626623590 3.4174695946
S -1.2893939364 -1.5334780003 -1.5642568455
C 0.3113564039 -1.9519864127 -0.6885612173
H 0.0503697263 -2.5831944289 0.1671191384
C 1.1541494412 -2.6989875595 -1.7070293611
Cl 2.6633819726 -3.2384632929 -0.9164282874
N 0.9562160791 -0.7915251656 -0.1766331747
C 1.3642699570 0.3001870684 -0.9423173925
O 1.2523091635 0.3747876720 -2.1449681260
C 1.9128872973 1.2742587193 0.0163855501
C 2.4465950523 2.5302626787 -0.1872098600
C 2.8633915243 3.2429993849 0.9353230526
C 2.7450441080 2.7100220925 2.2099405619
C 2.2073642613 1.4413060095 2.4153271580
C 1.7947895091 0.7348515648 1.3035887478
C 1.1842752403 -0.5987877160 1.1893913399
O 0.9184320230 -1.4114463998 2.0428689100
H -1.1532900307 4.4741182489 -1.3269030093
H -1.8908019793 3.7504245622 0.1099926366
H -0.1342096873 3.6877675280 -0.1074457357
H -0.4663587417 2.2299873492 -2.1421698405
H -2.2243206013 2.2629871817 -1.8337192196
H -1.5269251674 0.9819157211 2.4220483383
H -3.2028694732 0.4599785365 2.1007015413
H -2.3483469869 -0.3562175790 4.3399304417
H -2.7631140482 -1.6952705446 3.2555894592
H -1.0698703009 -1.2471667497 3.4886660969
H 0.6264972645 -3.5800761665 -2.0656810801
H 1.4257926255 -2.0483162321 -2.5373301056
H 2.5337043420 2.9374552237 -1.1819188449
H 3.2824236673 4.2284476784 0.8079178865
H 3.0729966320 3.2870380852 3.0598046281
H 2.1109816073 1.0191144119 3.4027377445
40
CONF152
C -2.5718945948 0.5934333747 3.4123717913
C -2.8475759521 0.9481608342 1.9669429253
O -2.3674485113 -0.1392209609 1.1387528313
P -1.9445687144 0.0799598557 -0.3638557849
S -0.9035116152 1.7065465118 -0.7595806211
O -3.3420282686 0.0554435015 -1.1175657580
C -3.4960978961 0.4231178659 -2.5035866290
C -4.9079205657 0.9383249170 -2.6989431182
S -1.1347817341 -1.8074492626 -0.8189996930
C 0.2716407876 -1.8072392111 0.4002697614
H -0.1775249117 -1.7185903345 1.3959665967
C 0.9989961072 -3.1285057208 0.2317948222
Cl 2.2956503545 -3.2240598400 1.4559113939
N 1.1134880989 -0.6732477660 0.2182556512
C 1.9218341485 -0.4222901593 -0.8941923285
O 2.0232789126 -1.1624954207 -1.8448280674
C 2.5543854546 0.8805447445 -0.6344097831
C 3.4523371919 1.6057621222 -1.3900712741
C 3.8653978999 2.8390420244 -0.8918996590
C 3.3891521481 3.3221671822 0.3171549956
C 2.4800474487 2.5925630898 1.0792384811
C 2.0733273344 1.3697738605 0.5873323410
C 1.1273205262 0.3867452000 1.1313595855
O 0.4789875892 0.3958257033 2.1532977020
H -3.0646599182 -0.3403960360 3.6665591019
H -1.5011643044 0.4849058041 3.5645889909
H -2.9472467969 1.3866537686 4.0504726082
H -2.3251792086 1.8651523340 1.6740147026
H -3.9161182205 1.0608794758 1.7717805087
H -2.7526548206 1.1894674431 -2.7476451429
H -3.3075508346 -0.4675991596 -3.1075020431
H -5.0563226401 1.1771939048 -3.7468489754
H -5.6232611336 0.1790085098 -2.3970327445
H -5.0671442440 1.8318648939 -2.1019106777
H 0.3178568522 -3.9605293222 0.3963102220
H 1.4622716460 -3.1942260393 -0.7519283454
H 3.8123556407 1.2232429627 -2.3316023710
H 4.5654999985 3.4294928214 -1.4612078033
H 3.7238756506 4.2829557497 0.6745546233
H 2.0979860772 2.9628669783 2.0168629292
40
CONF107
C -1.9698691194 3.6379231831 -0.6906268683
C -1.5903055105 2.2913986935 -1.2714169172
O -1.1108132646 1.4272533070 -0.2193045972
P -1.9811607252 0.1765654184 0.2399598926
S -3.8919408589 0.5073580301 0.4868899277
O -1.1453172836 -0.1520558927 1.5472669997
C -1.7445935978 -0.8592683834 2.6511040484
C -1.8109925881 -2.3506872977 2.3920095002
S -1.6079778807 -1.3487314084 -1.1925168549
C 0.2027561168 -1.7740535976 -0.9523526941
H 0.2294183241 -2.5967835518 -0.2298937069
C 0.7119970360 -2.2156091079 -2.3119869736
Cl 2.4039867285 -2.7680533437 -2.1380325701
N 0.9423758825 -0.6981022792 -0.3890893798
C 1.2278063323 0.5146042837 -1.0152991898
O 0.9261575838 0.7900164176 -2.1549873391
C 1.9547152847 1.3146960612 -0.0155675314
C 2.4506321088 2.6000300152 -0.0855995120
C 3.0886552894 3.1068702819 1.0442938024
C 3.2225363945 2.3467785790 2.1962309782
C 2.7224612743 1.0487273544 2.2668754125
C 2.0873292508 0.5476882095 1.1487699694
C 1.4497471905 -0.7548288869 0.9142825017
O 1.3581376517 -1.7250088245 1.6288506322
H -2.2619369073 4.3037356218 -1.4960524377
H -2.8047779842 3.5207878610 -0.0030606154
H -1.1270520671 4.0634402915 -0.1537093772
H -0.7691684595 2.3695283429 -1.9886950125
H -2.4498323467 1.8222889032 -1.7617906398
H -1.0940831576 -0.6296062386 3.4958625893
H -2.7440519089 -0.4472461515 2.8241610297
H -2.2308968715 -2.8455788902 3.2617360548
H -2.4452624748 -2.5520465559 1.5292228200
H -0.8123080773 -2.7401396738 2.2079604697
H 0.1213449041 -3.0499952248 -2.6841395271
H 0.7048075967 -1.3891627509 -3.0213320731
H 2.3437866633 3.1839862496 -0.9857240130
H 3.4848372693 4.1095968092 1.0205884141
H 3.7215565888 2.7667347193 3.0550480627
H 2.8217016399 0.4499129512 3.1579753767
40
CONF313
C -1.1775269759 3.2949130375 -0.1335380883
C -0.8178332736 2.5066499818 -1.3745174310
O -0.5086097720 1.1330225465 -1.0541699797
P -1.6390428759 0.0894195966 -0.6617289423
S -3.3904994326 0.4036884941 -1.4773438377
O -1.5648498270 0.1717113166 0.9323413172
C -2.4368788511 -0.6042731260 1.7768186356
C -3.6405597303 0.2127686467 2.2017649085
S -0.7943022622 -1.7614334470 -1.1833615156
C 0.6437978584 -1.9411067714 0.0163057891
H 0.2222011549 -2.3404837746 0.9449989001
C 1.6218486694 -2.9205412986 -0.6113152550
Cl 0.7995944272 -4.4752878864 -0.8763178368
N 1.2428715358 -0.6874759575 0.3194663491
C 1.8749466007 0.1505126557 -0.6046247348
O 2.0940539335 -0.1431963093 -1.7561804548
C 2.1958227888 1.3815249829 0.1376486760
C 2.8039756538 2.5468449778 -0.2818888453
C 2.9426509315 3.5741752694 0.6491785021
C 2.4889656238 3.4297949836 1.9516645271
C 1.8788390363 2.2517906027 2.3775985470
C 1.7380150671 1.2350721752 1.4541616128
C 1.1279938611 -0.0952227413 1.5839185095
O 0.6392171694 -0.6463902489 2.5416997551
H -1.3307263843 4.3352790851 -0.4016215358
H -2.0967758763 2.8989532557 0.2954155771
H -0.3834483247 3.2219665545 0.6052821316
H 0.0928750457 2.8754741654 -1.8483748611
H -1.6430850679 2.5161611733 -2.0934468618
H -2.7476515555 -1.5075177413 1.2415052122
H -1.8134878044 -0.8790611956 2.6320072822
H -4.2515789342 -0.3786362692 2.8758568969
H -3.3174491669 1.1174844943 2.7086469990
H -4.2336762569 0.4854228131 1.3312785659
H 1.9669055595 -2.5576469470 -1.5792434003
H 2.4610108924 -3.0997179557 0.0605975070
H 3.1541784286 2.6489975571 -1.2965690927
H 3.4095580588 4.4983865620 0.3484083326
H 2.6072780281 4.2438731937 2.6488026209
H 1.5208511826 2.1305627551 3.3872979394
40
CONF495
C -5.8832379052 -1.4017271665 -1.0592043676
C -4.4261850744 -1.6435977939 -0.7223538621
O -3.9064014221 -0.4369538220 -0.1211902220
P -2.5386885883 -0.4531904267 0.6798588695
S -2.3774641091 -1.7825652136 2.1064175742
O -2.4472694314 1.0088739825 1.2505726968
C -2.8086220994 2.2252142864 0.5464854592
C -1.6171273287 2.8142710461 -0.1818900946
S -1.0876849286 -0.6782641443 -0.8719511579
C 0.3674298089 -0.8208319473 0.2631928179
H 0.0428109546 -0.4383604981 1.2404810834
C 0.7612586618 -2.2821767344 0.3536809822
Cl 2.1625224736 -2.4329934728 1.4478280830
N 1.4198853658 0.0268125187 -0.1903512050
C 1.7462432480 1.2183850145 0.4592568749
O 1.1728834277 1.6287087100 1.4430118660
C 2.8548794824 1.8006569288 -0.3115555657
C 3.5784609016 2.9587429951 -0.1114588393
C 4.5858838136 3.2551810258 -1.0271561853
C 4.8512022657 2.4183115122 -2.1002466569
C 4.1199071664 1.2496905105 -2.3036246251
C 3.1224978565 0.9547898806 -1.3969614655
C 2.1887418846 -0.1828724963 -1.3395071470
O 2.0527989049 -1.1164402732 -2.0934550381
H -6.4413876682 -1.1696228463 -0.1565752218
H -5.9729039296 -0.5715825523 -1.7535521047
H -6.2950089282 -2.2963382214 -1.5143672806
H -3.8358748879 -1.8576045443 -1.6169530633
H -4.3085540383 -2.4650107359 -0.0085069306
H -3.6311304261 2.0075343081 -0.1356522430
H -3.1490413863 2.8882174813 1.3434456815
H -0.7725064063 2.8953882510 0.4994462840
H -1.3322367414 2.1907660728 -1.0264999348
H -1.8777275717 3.8033639993 -0.5447834964
H -0.0545125006 -2.8644576695 0.7822508310
H 1.0543216394 -2.6698893093 -0.6213456135
H 3.3648843873 3.6033252693 0.7259358346
H 5.1682573283 4.1532661609 -0.8966948964
H 5.6374179363 2.6748585223 -2.7922207551
H 4.3177515070 0.5929269607 -3.1353022935
40
CONF521
C -1.6640873729 2.8919758341 1.1088945057
C -0.9324096435 2.6608446973 -0.1958558682
O -0.6000769715 1.2668659298 -0.3783326680
P -1.7200350824 0.1781065177 -0.6756176110
S -3.1654913224 0.7720756044 -1.8553690710
O -2.1328746957 -0.2653440793 0.8000669122
C -3.1783580798 -1.2289723811 1.0344400605
C -4.5079445082 -0.5395922618 1.2704755702
S -0.5724260539 -1.4170571572 -1.4192248599
C 0.5380731979 -1.7439993370 0.0488475583
H -0.1099599588 -1.8901488974 0.9193111301
C 1.3513826648 -2.9916599094 -0.2539132984
Cl 0.2666985817 -4.3950073450 -0.3674523651
N 1.3619554405 -0.6118304669 0.3161495361
C 1.1522109694 0.2122593329 1.4298663377
O 0.3901620624 -0.0510655047 2.3287086073
C 2.0423333901 1.3679776502 1.2403135641
C 2.2543051329 2.4787124308 2.0319370939
C 3.1547184759 3.4369079727 1.5712142556
C 3.8163124950 3.2796786975 0.3627022817
C 3.6037287137 2.1582388313 -0.4364130779
C 2.7096543750 1.2101212521 0.0180104366
C 2.2596653307 -0.0503350329 -0.5953541515
O 2.5582710455 -0.5505707361 -1.6544227011
H -1.7528094009 3.9583532225 1.2894815715
H -2.6596659484 2.4550093489 1.0546153072
H -1.1237295699 2.4244135437 1.9286936278
H 0.0362981405 3.1631536121 -0.2172279088
H -1.5397393879 2.9835459161 -1.0473639833
H -3.2384273643 -1.9126577858 0.1811179314
H -2.8544783872 -1.7773625281 1.9216745375
H -4.4257979692 0.1517097025 2.1044320804
H -4.8092853772 0.0105873241 0.3816688510
H -5.2615865739 -1.2871889586 1.4958610016
H 1.8723261296 -2.8924529948 -1.2060625520
H 2.0547313251 -3.1848444645 0.5560805812
H 1.7364864165 2.5940612927 2.9704925551
H 3.3376883565 4.3172807699 2.1663027401
H 4.5071161013 4.0386921801 0.0318179452
H 4.1114048940 2.0269482085 -1.3784583525
40
CONF91
C -0.5674008369 2.2547718024 -2.2077254659
C -1.0556980122 2.4155627174 -0.7818933615
O -1.1075070368 1.1646169415 -0.0752291450
P -2.1334265144 0.0032976505 -0.4988716425
S -3.8088817893 0.6634828574 -1.2647433975
O -2.2729987130 -0.8511980790 0.8267387941
C -3.2584454104 -0.5473638063 1.8361270549
C -2.8533454861 0.6525452742 2.6652639839
S -1.0006960970 -1.3613031819 -1.6396370727
C 0.2715137793 -1.8474056417 -0.3626437459
H -0.2756763889 -2.1982913853 0.5175364678
C 1.1007072697 -2.9545925778 -0.9858623322
Cl 2.2821098349 -3.5322702408 0.2240333487
N 1.0454174728 -0.7204284456 0.0389614742
C 1.8743636001 0.0204964576 -0.8033393110
O 2.1013610874 -0.2519841930 -1.9598056956
C 2.3528522142 1.1540682089 0.0067048337
C 3.1892391579 2.2007930894 -0.3239844747
C 3.4503622439 3.1516813515 0.6600722268
C 2.8911247991 3.0488493749 1.9247789078
C 2.0471457952 1.9915768510 2.2585797586
C 1.7864074624 1.0504001470 1.2835494629
C 0.9381893376 -0.1515738639 1.3123690877
O 0.2747056534 -0.6152779556 2.2092537306
H -1.2740244268 1.6461270862 -2.7720819165
H -0.4958408337 3.2321537914 -2.6736483089
H 0.4061993686 1.7720534504 -2.2396880213
H -2.0587394737 2.8532731762 -0.7775472892
H -0.3772291984 3.0277942853 -0.1853060362
H -4.2200482629 -0.3797423128 1.3398192336
H -3.3014057177 -1.4552254392 2.4390532559
H -3.5470631220 0.7694731744 3.4916700745
H -1.8475421481 0.5036749709 3.0513928480
H -2.8702959838 1.5533462523 2.0541857246
H 0.4673401798 -3.7937627700 -1.2646965571
H 1.6571372235 -2.5875922859 -1.8473755412
H 3.6185022237 2.2716970751 -1.3105044253
H 4.0987304800 3.9823558509 0.4314437089
H 3.1109954235 3.8008996545 2.6656663738
H 1.6080501652 1.9052188180 3.2394301173
40
CONF103
C -1.3173125834 2.8108267996 -2.7677823602
C -1.0841850806 1.3326346572 -2.5321047510
O -0.8988442498 1.0955513975 -1.1206772714
P -1.9656794047 0.2497428960 -0.2969336932
S -3.8425848590 0.6470257866 -0.6716642257
O -1.4313751151 0.6452962702 1.1431315648
C -2.2948659139 0.5917338203 2.2958459507
C -2.4530452276 -0.8234272986 2.8136994098
S -1.4885218303 -1.7924883088 -0.6434049772
C 0.1907410021 -2.0100403983 0.1618957339
H -0.0018511050 -2.3242780031 1.1931741149
C 0.8932242127 -3.1002156584 -0.6261873216
Cl 2.4561490884 -3.4620068354 0.1639531103
N 0.9216731542 -0.7918942316 0.2244651938
C 1.1776388002 -0.1452312261 1.4391587828
O 0.8654902177 -0.5930340522 2.5172287539
C 1.8842841288 1.0938938613 1.0871942290
C 2.3507755020 2.1196374471 1.8839820987
C 2.9751317248 3.1928433122 1.2527809136
C 3.1241800584 3.2286171631 -0.1253349127
C 2.6563759877 2.1918397640 -0.9295326879
C 2.0374594805 1.1291976850 -0.3045048486
C 1.4280895107 -0.0874374613 -0.8669851554
O 1.3604586762 -0.4577026868 -2.0177360614
H -0.4982992416 3.3887302246 -2.3494002168
H -1.3848130093 2.9949550092 -3.8349205211
H -2.2462280091 3.1178283716 -2.2922982425
H -0.1715897757 0.9778395911 -3.0184090609
H -1.9340304800 0.7421743241 -2.8900126293
H -1.7981058209 1.2304745361 3.0271556948
H -3.2647862287 1.0191193809 2.0216372443
H -2.9274155096 -1.4476334586 2.0570615619
H -1.4794663160 -1.2361974547 3.0679675900
H -3.0764793625 -0.8105027813 3.7018785394
H 0.2969439308 -4.0101860119 -0.6268795893
H 1.1039581489 -2.7747165784 -1.6439591983
H 2.2300406355 2.0831908299 2.9547585788
H 3.3472373367 4.0108558438 1.8488828903
H 3.6101887320 4.0743962600 -0.5851701387
H 2.7689811332 2.2110986534 -2.0017589202
40
CONF622
C -5.3068510994 -1.8498728610 1.3632086077
C -4.8000562864 -1.9894304035 -0.0573361112
O -3.3731208239 -1.7859847210 -0.1563738709
P -2.6229938226 -0.4526542415 0.2499477621
S -2.2373659948 -0.1635162647 2.1576674200
O -3.5567906735 0.6543371001 -0.4106273343
C -3.4614620366 2.0460411947 -0.0657735539
C -2.1790946486 2.6740846964 -0.5729528830
S -0.9469690826 -0.6880680368 -1.0271766407
C 0.3928198442 -0.7394879614 0.2539582196
H -0.0080594529 -0.2122554636 1.1335992385
C 0.6935470294 -2.1869203719 0.5860130074
Cl 1.9566339098 -2.2397770808 1.8445732096
N 1.5218984239 0.0014184841 -0.2007670423
C 1.6964549162 1.3403149426 0.1626467707
O 0.9300341031 1.9461106450 0.8758559201
C 2.9293710513 1.7788698934 -0.5061364938
C 3.5905518356 2.9899384177 -0.4724069837
C 4.7551596095 3.1089406629 -1.2277331813
C 5.2315213977 2.0504784209 -1.9861224670
C 4.5628318705 0.8284944906 -2.0221957679
C 3.4098083128 0.7092196769 -1.2737554094
C 2.4890977489 -0.4303722616 -1.1123486263
O 2.5097517820 -1.5178406476 -1.6380260418
H -5.1617528797 -0.8296243560 1.7160183178
H -6.3652292984 -2.0886995093 1.3943834459
H -4.7665678394 -2.5216270758 2.0261585502
H -5.2945821329 -1.2773451670 -0.7212257163
H -4.9358299714 -3.0049387096 -0.4329104532
H -4.3392139784 2.4916092316 -0.5361454957
H -3.5302806371 2.1414599041 1.0226437189
H -2.2286514326 3.7499433473 -0.4389324612
H -1.3233012550 2.2971865991 -0.0124984663
H -2.0395882096 2.4474105945 -1.6272212134
H -0.1962098958 -2.6674750272 0.9919573557
H 1.0681728287 -2.7249721540 -0.2836447598
H 3.2115157943 3.8068617206 0.1202102094
H 5.2939924205 4.0429571077 -1.2212969887
H 6.1357381252 2.1731954518 -2.5607107129
H 4.9242644750 0.0000552804 -2.6097973800
40
CONF81
C -1.0530537738 0.5292782498 -3.4698305461
C -1.0510146677 1.6334842383 -2.4315939806
O -0.8401087669 1.1229351913 -1.1000947540
P -1.9578796761 0.2605107345 -0.3717458071
S -3.8024465978 0.6446787758 -0.8970220847
O -1.5250032981 0.6382516859 1.1101420355
C -2.2925138461 0.1780513733 2.2428422638
C -3.2487714980 1.2562094790 2.7109202636
S -1.4455449631 -1.7900385705 -0.5932139336
C 0.1549646256 -1.9401161653 0.3683598581
H -0.1198022176 -2.1053353616 1.4159149450
C 0.8750528316 -3.1444046873 -0.2108325900
Cl 2.3593957576 -3.4371400715 0.7430261614
N 0.9249790457 -0.7443379910 0.3220658913
C 1.1481599850 0.0382370368 1.4597860111
O 0.7761598090 -0.2667716712 2.5694054892
C 1.9148446515 1.2026235474 0.9960515723
C 2.3813815978 2.3038563171 1.6845862875
C 3.0815617029 3.2667178887 0.9613138458
C 3.3037842018 3.1231933742 -0.3998002349
C 2.8343973658 2.0107953628 -1.0947671060
C 2.1394798068 1.0579953883 -0.3789777410
C 1.5109431317 -0.1982867807 -0.8197016553
O 1.4783239369 -0.7049001660 -1.9172379615
H -0.1362325995 -0.0525594866 -3.4078569753
H -1.9021650704 -0.1333091845 -3.3022573371
H -1.1362035109 0.9665387919 -4.4594190678
H -2.0010552158 2.1766222722 -2.4459106200
H -0.2220823760 2.3271077408 -2.5788000338
H -2.8355619072 -0.7324226951 1.9678533208
H -1.5447186636 -0.0547972198 3.0060094523
H -3.7657005386 0.9118237149 3.6007243714
H -2.7002688926 2.1652098358 2.9402016135
H -3.9793635574 1.4713572146 1.9340176392
H 0.2484266195 -4.0308976572 -0.1404102125
H 1.1731876588 -2.9627300421 -1.2424622800
H 2.2034265670 2.4068444080 2.7429577651
H 3.4562656774 4.1396748644 1.4716905955
H 3.8492600798 3.8860091466 -0.9322826796
H 3.0038617031 1.8899454733 -2.1528370321
40
CONF144
C -2.6658352735 -0.1018679715 3.3997827164
C -3.0489583450 -0.2343508309 1.9406907236
O -2.1281458004 0.5866280627 1.1691885189
P -1.8658982903 0.3837098811 -0.3641767298
S -0.7023299081 1.7732276147 -1.1064288302
O -3.3320518239 0.3619540178 -0.9731877692
C -3.5548519179 0.2868822754 -2.3972770188
C -4.9987153065 0.6628143537 -2.6594601305
S -1.2921413746 -1.6575906907 -0.6233722379
C 0.1742381927 -1.6913098018 0.5168225129
H -0.2035393368 -1.5615630317 1.5375870757
C 0.8295397874 -3.0496305527 0.3395151284
Cl 2.1862111853 -3.1841462590 1.4949691541
N 1.0605222452 -0.6044783288 0.2675540949
C 1.7951131527 -0.4021839397 -0.9042768836
O 1.7679643538 -1.1428661472 -1.8594230543
C 2.5406428801 0.8478814662 -0.6890179916
C 3.4191944481 1.5179115120 -1.5141744921
C 3.9592123312 2.7130431093 -1.0448819278
C 3.6229039225 3.2125765987 0.2036460478
C 2.7324145202 2.5384502444 1.0359095719
C 2.2002166291 1.3529959701 0.5731787464
C 1.2325465190 0.4347463100 1.1878913706
O 0.6673207322 0.4775617182 2.2566493599
H -3.2791270157 -0.7714684450 3.9939446698
H -1.6161559931 -0.3509344048 3.5367426998
H -2.8154188688 0.9203401716 3.7343273306
H -4.0574074925 0.1358946256 1.7499537708
H -2.9732017312 -1.2679276527 1.5907511100
H -2.8616173599 0.9735139644 -2.8940365637
H -3.3398138474 -0.7350512690 -2.7208419170
H -5.1921184459 0.6062071413 -3.7254914673
H -5.6609421218 -0.0202142816 -2.1358960007
H -5.1886154765 1.6748754779 -2.3134117400
H 0.1207231240 -3.8457251000 0.5573704039
H 1.2346601779 -3.1557936240 -0.6661065127
H 3.6680236972 1.1242777653 -2.4864948343
H 4.6476420773 3.2607385890 -1.6685748827
H 4.0533292318 4.1433510582 0.5372883736
H 2.4582276269 2.9227397112 2.0052173326
40
CONF287
C -2.6854819614 0.5341101141 3.1464449876
C -2.7796539874 1.0604331092 1.7299725144
O -2.3833962406 0.0009101113 0.8309063297
P -1.8313920764 0.2953035519 -0.6382008175
S -0.7277708664 1.9019294633 -0.8243487849
O -3.0840052707 0.4252031799 -1.5996518733
C -4.1438424503 -0.5672634558 -1.6411764309
C -5.4650660378 0.1561194065 -1.8057503856
S -1.0710225838 -1.6117260124 -1.0967715968
C 0.2101552370 -1.7279211591 0.2450642352
H -0.3215286560 -1.6546206781 1.2002739637
C 0.8899301137 -3.0759729509 0.0859709314
Cl 2.0687472062 -3.2792142209 1.4125934444
N 1.1171678023 -0.6308543458 0.1850261609
C 2.0010682603 -0.3608467105 -0.8625481979
O 2.1215209868 -1.0527271749 -1.8473653447
C 2.6812145146 0.8898587905 -0.4913863396
C 3.6542014334 1.6099612338 -1.1529720321
C 4.0980760204 2.7892682783 -0.5596460254
C 3.5791751014 3.2252966068 0.6496840357
C 2.5948254745 2.5005306410 1.3170202726
C 2.1571121491 1.3312829110 0.7307962739
C 1.1348530370 0.3694403596 1.1633305476
O 0.4329207512 0.3521938762 2.1480365960
H -3.3035325107 -0.3520826001 3.2573720152
H -1.6531904806 0.2833318490 3.3749430623
H -3.0270377335 1.3019931957 3.8326120297
H -2.1134371366 1.9156640060 1.5761328167
H -3.8013047091 1.3530260837 1.4739257590
H -3.9350438928 -1.2184062655 -2.4921663140
H -4.1193362464 -1.1549742841 -0.7200826042
H -6.2621007434 -0.5753430828 -1.8918011224
H -5.6569779387 0.7972407332 -0.9494264307
H -5.4411911871 0.7704363178 -2.7011919786
H 0.1609242388 -3.8802953230 0.1560579427
H 1.4346863817 -3.1268355942 -0.8560380535
H 4.0473726752 1.2647370838 -2.0956897870
H 4.8566911824 3.3746154015 -1.0543997326
H 3.9397551286 4.1451683784 1.0817609661
H 2.1799735306 2.8348222726 2.2541599905
40
CONF95
C -3.6900534710 1.5453554420 2.0083779464
C -2.4448673475 0.7078845221 2.2093788826
O -2.2484609496 -0.2173350709 1.1220572497
P -1.8560111787 0.2715828677 -0.3474423964
S -0.7971979956 1.9147160696 -0.4602906717
O -3.1942667655 0.4534791508 -1.1725283494
C -4.2261116911 -0.5666270883 -1.2219959749
C -5.5518331202 0.1251174172 -1.4648525074
S -1.0965731303 -1.5452406048 -1.1059205045
C 0.3006208544 -1.7805350252 0.0951866587
H -0.1432793820 -1.8105637066 1.0967115277
C 0.9692407494 -3.0965450702 -0.2576454429
Cl 2.2593403535 -3.4177592169 0.9351680484
N 1.1927436683 -0.6695267541 0.0671418801
C 1.2563630811 0.2509616455 1.1185265234
O 0.6134026166 0.1447281320 2.1388338075
C 2.2391276521 1.2613051764 0.7050365274
C 2.7012958431 2.3853206973 1.3574125842
C 3.6344597848 3.1769499580 0.6925539008
C 4.0806811576 2.8492567364 -0.5784790903
C 3.6123100478 1.7157165854 -1.2383143882
C 2.6900527154 0.9292451014 -0.5793735835
C 2.0030605013 -0.2987592459 -1.0091302573
O 2.0688482974 -0.9043278923 -2.0539100175
H -3.5851118355 2.1470679668 1.1054095012
H -4.5649278429 0.9070890957 1.9134991528
H -3.8186332686 2.2067268189 2.8592974135
H -2.5160082350 0.0661293167 3.0883933652
H -1.5549679249 1.3384414422 2.2930362621
H -3.9736093102 -1.2473269173 -2.0378590243
H -4.2244992857 -1.1176502873 -0.2782223041
H -6.3331278049 -0.6235638700 -1.5468160101
H -5.7838585919 0.7999805071 -0.6455967084
H -5.5053463759 0.6994985571 -2.3854545574
H 0.2518442303 -3.9126591895 -0.2064623026
H 1.4305181918 -3.0461053380 -1.2432258745
H 2.3435322448 2.6354378971 2.3430554000
H 4.0123302664 4.0635975586 1.1762012227
H 4.8008589548 3.4845068327 -1.0690717788
H 3.9491301420 1.4541551054 -2.2285749201
40
CONF83
C -1.6064034093 1.4626233150 -2.9693615639
C -1.4411009877 2.2234995072 -1.6690357272
O -1.0083006883 1.3675237618 -0.5928238074
P -1.9827657745 0.2697698422 0.0138175526
S -3.8901089429 0.6973171614 -0.0508093028
O -1.2974947487 0.2074932005 1.4468384204
C -1.8909308276 -0.5637415558 2.5131816057
C -2.6827472337 0.3377199063 3.4384442848
S -1.5277240366 -1.5900751383 -0.9089821974
C 0.2175313143 -1.9598027215 -0.3330403491
H 0.1247703809 -2.4939013874 0.6190714246
C 0.8301224020 -2.8425935492 -1.4048886649
Cl 2.4549357558 -3.3572148603 -0.8626939519
N 0.9639476919 -0.7762898630 -0.0766595618
C 1.3690321214 0.1577086475 -1.0303303498
O 1.1817270367 0.0502577486 -2.2200755394
C 2.0430330459 1.2266376722 -0.2744486924
C 2.6128706831 2.4065047614 -0.7060740613
C 3.1676601860 3.2448110854 0.2584038008
C 3.1494623157 2.9051914046 1.6026440653
C 2.5761670839 1.7129327150 2.0385935152
C 2.0245616182 0.8835527329 1.0834600818
C 1.3475195372 -0.4128551463 1.2187322674
O 1.1491070897 -1.0979011117 2.1956618734
H -1.8591475619 2.1580247975 -3.7630582725
H -0.6853205837 0.9433212216 -3.2239171031
H -2.4082548486 0.7309401307 -2.8700462297
H -2.3844788157 2.6945897602 -1.3758483596
H -0.6535275981 2.9750625186 -1.7370724275
H -2.5304265322 -1.3431095371 2.0857155863
H -1.0432532441 -1.0245588168 3.0279434293
H -3.0632963041 -0.2491058302 4.2680941234
H -2.0458997961 1.1313176618 3.8183983452
H -3.5184554041 0.7818345605 2.9016890240
H 0.2252693648 -3.7347964288 -1.5519856131
H 0.9495911175 -2.2976380982 -2.3402059894
H 2.6243206032 2.6619153772 -1.7536596749
H 3.6186493334 4.1751916116 -0.0481531469
H 3.5859910953 3.5752958040 2.3260743706
H 2.5569208390 1.4399360557 3.0814521058
40
CONF225
C -1.4483318140 2.9920637026 1.2205586644
C -0.8439714656 2.7430241149 -0.1452974785
O -0.5889360379 1.3410713489 -0.3757941774
P -1.7741777932 0.2916298899 -0.5653098391
S -3.3360921139 0.9608418179 -1.5376897609
O -2.0615546568 -0.1559510751 0.9384592174
C -3.2922481333 -0.7933097912 1.3175858468
C -3.4037129513 -2.1978328740 0.7586333761
S -0.7065082078 -1.2868191102 -1.4504071786
C 0.4585271407 -1.7107960546 -0.0538449944
H -0.1536296549 -1.8970969887 0.8347081540
C 1.2384167657 -2.9495262287 -0.4630724655
Cl 0.1287168502 -4.3297466832 -0.6083712462
N 1.3124893507 -0.6081924522 0.2440670878
C 1.1785124279 0.1375613747 1.4219305758
O 0.4645644178 -0.1778872198 2.3433223383
C 2.0723079468 1.2949833811 1.2622224030
C 2.3439270565 2.3446522378 2.1163472676
C 3.2271178259 3.3259761371 1.6716512581
C 3.8144182648 3.2494842814 0.4178094835
C 3.5428266205 2.1885532687 -0.4437479168
C 2.6657745026 1.2175480194 -0.0048601453
C 2.1650185265 0.0064046675 -0.6762192966
O 2.3975270553 -0.4227236721 -1.7820576829
H -0.8656511561 2.4864557105 1.9869450804
H -1.4628916574 4.0591204400 1.4177339580
H -2.4679513365 2.6114237606 1.2498705489
H 0.1400132076 3.2045355451 -0.2461571608
H -1.5081440779 3.1050899785 -0.9363507550
H -3.2626602901 -0.7916881961 2.4079932595
H -4.1233253094 -0.1758931581 0.9615329826
H -4.3261972440 -2.6503929634 1.1080170517
H -3.4193991779 -2.1634751251 -0.3308980448
H -2.5642275381 -2.8106302886 1.0784123439
H 1.7184834832 -2.8018977036 -1.4303672741
H 1.9736880989 -3.1984779160 0.3021499108
H 1.8840349819 2.3965347098 3.0901740436
H 3.4552844378 4.1603740026 2.3153450023
H 4.4930805383 4.0250201929 0.1004393149
H 3.9931120326 2.1203960150 -1.4209938882
40
CONF135
C -0.9558128175 2.4350566326 -2.2416473421
C -1.1437911812 2.5746597083 -0.7443571385
O -1.0081632368 1.3184116515 -0.0561040315
P -2.0623075358 0.1238055296 -0.2740897108
S -3.8682951496 0.7630420686 -0.6779074118
O -1.8629169740 -0.7202639845 1.0515606947
C -2.3527124092 -0.2732791906 2.3367664466
C -3.7107126009 -0.8770041764 2.6308894389
S -1.1946296381 -1.2315438280 -1.6264080378
C 0.2770968621 -1.8121111272 -0.6341079444
H -0.1112775165 -2.3727321894 0.2218400874
C 1.0870720276 -2.6955391203 -1.5658049072
Cl 2.4673463095 -3.3732692852 -0.6541156359
N 1.0237822627 -0.7131072485 -0.1183685355
C 1.6257772021 0.2740598119 -0.8983666786
O 1.6274341097 0.2866066650 -2.1076843976
C 2.1987571528 1.2401168253 0.0529635500
C 2.8911923178 2.4129475819 -0.1684834227
C 3.3016380827 3.1384046299 0.9478883887
C 3.0240223531 2.6975892070 2.2329162440
C 2.3236418885 1.5138322081 2.4559971115
C 1.9160671392 0.7953132271 1.3505051414
C 1.1594896759 -0.4628651635 1.2495956441
O 0.7263636243 -1.1819179841 2.1195838384
H 0.0005352607 1.9745741267 -2.4772468481
H -1.7500460482 1.8130496241 -2.6546243405
H -1.0036380148 3.4168385382 -2.7011692916
H -2.1373454273 2.9784184585 -0.5262069603
H -0.3754886752 3.2046632762 -0.2932756518
H -1.5948047053 -0.6189362910 3.0436624386
H -2.3936736808 0.8191443908 2.3444860637
H -4.0253268384 -0.5789815829 3.6258570563
H -4.4426315419 -0.5278307870 1.9055706750
H -3.6554261128 -1.9607004962 2.5798563960
H 0.4821329056 -3.5241636571 -1.9271856860
H 1.4871886985 -2.1186147218 -2.3985649489
H 3.1016957260 2.7473882076 -1.1716950998
H 3.8444839766 4.0595231857 0.8075927010
H 3.3543511497 3.2808528523 3.0776341964
H 2.1030783513 1.1647581885 3.4519487342
40
CONF96
C -3.7381651008 1.5450683167 1.9153517180
C -2.4963897173 0.7113354513 2.1501645350
O -2.2729653920 -0.2198577826 1.0731695269
P -1.8479862799 0.2613206458 -0.3898463323
S -0.7923624192 1.9074455112 -0.4882628160
O -3.1671811273 0.4341586145 -1.2468415161
C -4.1946366913 -0.5892743456 -1.3153970129
C -5.5123086981 0.0962307021 -1.6133778474
S -1.0652578525 -1.5576234717 -1.1191870625
C 0.3056572725 -1.7798615215 0.1143089325
H -0.1604307487 -1.8059030636 1.1058148047
C 0.9876511781 -3.0949600077 -0.2154549598
Cl 2.2515281081 -3.4037459507 1.0084068198
N 1.1934432969 -0.6651384294 0.0994944738
C 2.0253572079 -0.2966589089 -0.9609776583
O 2.1170786977 -0.9081168314 -2.0003581087
C 2.6967469807 0.9372878218 -0.5236624138
C 3.6288672304 1.7248481072 -1.1672439782
C 4.0767812342 2.8648162722 -0.5042968531
C 3.6015512834 3.1974888959 0.7548730893
C 2.6584716585 2.4047202329 1.4041922129
C 2.2163624269 1.2744910599 0.7486690923
C 1.2296035244 0.2617554033 1.1465210445
O 0.5648504127 0.1584137259 2.1530828405
H -3.6133460369 2.1417595515 1.0115756508
H -4.6094408145 0.9045742531 1.8037720228
H -3.8877120467 2.2110864781 2.7592130857
H -2.5866595730 0.0746097204 3.0310880324
H -1.6099092397 1.3442408529 2.2507462137
H -3.9138545073 -1.2820966030 -2.1116100655
H -4.2237199643 -1.1254915567 -0.3635712395
H -5.7722648373 0.7836316821 -0.8131642601
H -5.4356934394 0.6559931231 -2.5409424357
H -6.2895986670 -0.6549117258 -1.7095054144
H 0.2727474401 -3.9138892564 -0.1758925869
H 1.4711448551 -3.0481784753 -1.1904970512
H 3.9882343657 1.4593911997 -2.1485011367
H 4.8038977877 3.5011643408 -0.9830876619
H 3.9641947795 4.0889829808 1.2412589802
H 2.2781188280 2.6587435089 2.3803295333
40
CONF219
C -1.7107041895 2.6555099986 1.6515420043
C -1.0066154751 2.6828233602 0.3111054695
O -0.6670462959 1.3568091850 -0.1479370651
P -1.7804106712 0.3218036419 -0.6271446996
S -3.2654306365 1.1036731777 -1.6356918166
O -2.1986319494 -0.3830004553 0.7411915480
C -3.4321081749 -1.1094778680 0.8686170002
C -3.4269348830 -2.3893867817 0.0565079230
S -0.5517227067 -1.0542574228 -1.6340401628
C 0.4951748768 -1.6343773249 -0.2020255304
H -0.1866431378 -1.8827304651 0.6181072553
C 1.2828841379 -2.8506721029 -0.6597838273
Cl 0.1670595632 -4.1950131599 -0.9820556950
N 1.3409446972 -0.5807804129 0.2555315706
C 2.2805893160 0.0825963926 -0.5371616059
O 2.6052753473 -0.2684006076 -1.6472967928
C 2.7358474133 1.2303396700 0.2653240731
C 3.6630716940 2.2120498210 -0.0196553506
C 3.8711568487 3.2007998274 0.9397646705
C 3.1735334403 3.1978624413 2.1381854345
C 2.2397793272 2.2053430392 2.4279142252
C 2.0319894862 1.2264942173 1.4771628243
C 1.1137299699 0.0771396425 1.4706692532
O 0.3195109919 -0.2941863116 2.3013671834
H -1.7827094844 3.6661496073 2.0402761558
H -2.7131353464 2.2467901469 1.5368219241
H -1.1595234341 2.0319289896 2.3516202079
H -0.0422681984 3.1910668750 0.3679475431
H -1.6338710039 3.1580914029 -0.4497464252
H -3.5106696474 -1.3073798380 1.9383893355
H -4.2501363170 -0.4579908587 0.5446263683
H -2.5923009452 -3.0265373387 0.3396433497
H -4.3556127705 -2.9250378910 0.2253061873
H -3.3446904547 -2.1544404498 -1.0049403257
H 1.8256297168 -2.6366831530 -1.5803891986
H 1.9649717604 -3.1721679196 0.1274123449
H 4.1988826330 2.2061329929 -0.9552044124
H 4.5871752885 3.9827992363 0.7433228308
H 3.3542387906 3.9782312745 2.8600229982
H 1.6935759410 2.1963194841 3.3573900711
40
CONF169
C -1.1054145057 3.3534476743 0.3529480674
C -0.9174202430 2.7032933138 -1.0013041537
O -0.6248927529 1.2944075317 -0.8858440028
P -1.7334284400 0.2345421038 -0.4645533583
S -3.5648785693 0.6639467697 -1.0057324997
O -1.5077534279 0.1679252649 1.1169192836
C -2.5015190674 -0.3678945641 2.0067811668
C -2.4224879379 -1.8788727322 2.0913050577
S -0.9674416812 -1.5279020044 -1.3092340764
C 0.5836650842 -1.8705119471 -0.3037666736
H 0.2545466913 -2.4052255848 0.5931472706
C 1.4827818240 -2.7417589213 -1.1654063557
Cl 0.6184918288 -4.2411601028 -1.5756246829
N 1.2218641650 -0.6720071929 0.1188299580
C 1.7797723183 0.2904308143 -0.7280887381
O 1.8933239477 0.1669810186 -1.9249114544
C 2.1854859134 1.3998294442 0.1524103454
C 2.7668244436 2.6147227750 -0.1476380523
C 3.0098912585 3.4923280135 0.9070077047
C 2.6837155843 3.1555866762 2.2121534576
C 2.1012884375 1.9271078640 2.5168139111
C 1.8558298440 1.0595192367 1.4712628034
C 1.2421211253 -0.2757908494 1.4623929805
O 0.8425962180 -0.9625686825 2.3717358624
H -0.2438078294 3.1639421994 0.9881390374
H -1.2296254286 4.4233669466 0.2198677710
H -1.9954584227 2.9508742640 0.8339838249
H -0.0530088917 3.1040303883 -1.5327645526
H -1.8170753398 2.8178665890 -1.6140522917
H -2.2755483742 0.0941664475 2.9687461889
H -3.4878324098 -0.0443619820 1.6570686018
H -1.4333996619 -2.1783069384 2.4301906838
H -3.1639514162 -2.2362464207 2.7985579259
H -2.6227133778 -2.3222296486 1.1163249996
H 1.7345416410 -2.2375601580 -2.0981224248
H 2.3824162553 -3.0174883966 -0.6155075299
H 3.0184679864 2.8669289564 -1.1652925821
H 3.4581664746 4.4512735808 0.7019004249
H 2.8815445272 3.8566391859 3.0072038215
H 1.8431468239 1.6562404887 3.5279090056
40
CONF23
C -3.6176958769 1.5129341213 2.2937634046
C -2.3945982406 0.6260466008 2.3944939353
O -2.2540686495 -0.2201753070 1.2373267109
P -1.9156871013 0.3655044656 -0.2117097548
S -0.8261982027 1.9928046458 -0.2529733701
O -3.2873959609 0.6456525903 -0.9498860973
C -4.3491929945 -0.3362197196 -1.0588916278
C -4.3747289571 -0.9362335659 -2.4499408683
S -1.2106013274 -1.4060452646 -1.1100450616
C 0.2224270881 -1.7356611550 0.0215242098
H -0.1840481024 -1.8198814018 1.0357449179
C 0.8539167869 -3.0380677143 -0.4352916124
Cl 2.1833213306 -3.4517656545 0.6845355177
N 1.1336251472 -0.6392157471 0.0267770237
C 1.9048052281 -0.2136276098 -1.0576809824
O 1.9150046973 -0.7523648258 -2.1403868058
C 2.6323783239 0.9731812111 -0.5813372586
C 3.5391976995 1.7863584360 -1.2291407828
C 4.0560057404 2.8677394977 -0.5198536704
C 3.6713666021 3.1193692172 0.7881129653
C 2.7538547668 2.3007381519 1.4419507500
C 2.2434968589 1.2284896248 0.7402960207
C 1.2608119820 0.2089392150 1.1313269101
O 0.6618181226 0.0464034560 2.1710397504
H -4.5139025845 0.9107507797 2.1680029033
H -3.7059428471 2.1051896271 3.1990080157
H -3.5160182307 2.1839526625 1.4407627985
H -2.4635737091 -0.0778001594 3.2249251652
H -1.4833658618 1.2220011922 2.5003268469
H -4.2059512877 -1.1049177612 -0.2957195420
H -5.2626150314 0.2252863433 -0.8549992651
H -4.4714149772 -0.1485298543 -3.1917780783
H -3.4568046935 -1.4878229334 -2.6428089074
H -5.2206578821 -1.6114746822 -2.5300717617
H 0.1248052028 -3.8448614184 -0.4052803348
H 1.2781142048 -2.9349762153 -1.4333807623
H 3.8277661833 1.5841804520 -2.2481235186
H 4.7654280185 3.5224824720 -1.0003866383
H 4.0857151770 3.9671228945 1.3101175011
H 2.4436552709 2.4922874906 2.4564388796
40
CONF463
C -3.3874286223 -3.3803931144 -1.3159296738
C -4.0697187106 -2.0759970538 -0.9558685309
O -3.6096996979 -1.6226707309 0.3456803834
P -2.7377593206 -0.3266396689 0.5467010186
S -2.2836628730 -0.0497442600 2.4275778103
O -3.6664962261 0.7865301672 -0.1166081733
C -3.5071200146 2.1921997511 0.1398887992
C -2.1904624897 2.7352913649 -0.3787317529
S -1.1173280389 -0.5516384814 -0.8356742806
C 0.2676870056 -0.6534926408 0.3835007248
H -0.0793225007 -0.1255270941 1.2847550280
C 0.5464320427 -2.1114886429 0.6898094324
Cl 1.8608681769 -2.2058516238 1.8951088902
N 1.3966884793 0.0606712998 -0.1142044027
C 1.6648659024 1.3696877659 0.2960477018
O 0.9771947963 1.9806987241 1.0816053582
C 2.8760473548 1.7751479566 -0.4317050581
C 3.6018633747 2.9481688545 -0.3879014073
C 4.7226895768 3.0428707246 -1.2099734714
C 5.0938468308 1.9982879324 -2.0427625218
C 4.3598749655 0.8147708600 -2.0888977141
C 3.2508024871 0.7191090924 -1.2736006623
C 2.2840669790 -0.3794949444 -1.0999357267
O 2.2129159724 -1.4436049772 -1.6671766194
H -3.8175956249 -3.7627862444 -2.2360150760
H -2.3212380639 -3.2247998736 -1.4610244864
H -3.5347190171 -4.1075151756 -0.5223223391
H -5.1471434368 -2.2066529517 -0.8457654717
H -3.8664769103 -1.3014149509 -1.6981028293
H -4.3564383134 2.6442072514 -0.3747301810
H -3.5924225483 2.3590061316 1.2179194441
H -1.3607725349 2.3631918633 0.2226597203
H -2.0405364958 2.4407748184 -1.4147906409
H -2.2007637539 3.8185233593 -0.3114082311
H -0.3357485685 -2.5746953107 1.1313937023
H 0.8733527515 -2.6495607143 -0.1991521527
H 3.3043271199 3.7546660008 0.2627381109
H 5.3103174770 3.9469166038 -1.1969963215
H 5.9659927902 2.1020298838 -2.6683690017
H 4.6394252578 -0.0023525396 -2.7341527751
40
CONF146
C -2.7290742369 -0.4162095104 3.4060928943
C -3.0928836612 -0.4277981432 1.9362830111
O -2.1728141932 0.4659106940 1.2497555961
P -1.8879360076 0.3948962797 -0.2908819899
S -0.7381271127 1.8565848403 -0.9055354107
O -3.3465368857 0.3997376044 -0.9182456965
C -3.5535924789 0.4443082978 -2.3459015852
C -5.0044214605 0.8049239546 -2.5907022943
S -1.2728289263 -1.6070735016 -0.7115867027
C 0.1942363580 -1.6930852824 0.4248051531
H -0.1827056957 -1.5907792275 1.4490966269
C 0.8366087200 -3.0510384649 0.2057181394
Cl 2.1886939351 -3.2349397942 1.3598111170
N 1.0884234658 -0.6058396206 0.2089945411
C 1.2345054357 0.4222908271 1.1472698411
O 0.6509757594 0.4429439729 2.2069157888
C 2.2084412712 1.3550757811 0.5651499195
C 2.7260832443 2.5353530531 1.0564680334
C 3.6292540034 3.2261775361 0.2521230620
C 3.9923524718 2.7472787330 -0.9970428165
C 3.4674462870 1.5570592726 -1.4948369474
C 2.5757767464 0.8704750651 -0.6974902521
C 1.8412619059 -0.3799238011 -0.9461894549
O 1.8338199018 -1.1024978139 -1.9156368708
H -1.6853879444 -0.6910799921 3.5385156438
H -2.8699966592 0.5790781085 3.8171058123
H -3.3605554147 -1.1209481794 3.9372708750
H -4.1031289363 -0.0526787075 1.7656553346
H -3.0015738622 -1.4269247658 1.5005628491
H -2.8740142387 1.1893942875 -2.7721968606
H -3.3087317921 -0.5393527666 -2.7554032585
H -5.6531563647 0.0600253781 -2.1397296727
H -5.2249560010 1.7758425115 -2.1563068593
H -5.1857109114 0.8409582841 -3.6597294307
H 0.1198373395 -3.8468505944 0.3967655333
H 1.2438016479 -3.1292288714 -0.8016051608
H 2.4306692795 2.9034015162 2.0258016221
H 4.0486338165 4.1536051026 0.6083866041
H 4.6904311970 3.3074986692 -1.5984829897
H 3.7381390446 1.1790690919 -2.4675536127
40
CONF537
C -1.7396917868 2.7902380852 1.2936599897
C -0.9971172067 2.6526560422 -0.0182395906
O -0.6424531453 1.2779911792 -0.2858517116
P -1.7417190235 0.1943096501 -0.6658664624
S -3.1635563056 0.8345331293 -1.8502189458
O -2.1878750493 -0.3327738335 0.7724924099
C -3.2198408722 -1.3278556930 0.9211554426
C -4.5716292008 -0.6792491906 1.1462983012
S -0.5511264462 -1.3458071233 -1.4565349855
C 0.5333840053 -1.7086225042 0.0212290045
H -0.1277447223 -1.8403151716 0.8841652973
C 1.3187419735 -2.9754278006 -0.2752382446
Cl 0.2018204305 -4.3528368282 -0.3921367732
N 1.3813204062 -0.5970356451 0.3007400077
C 1.1779267487 0.2300655819 1.4132321331
O 0.4031080741 -0.0190473630 2.3053268891
C 2.0932592132 1.3675763054 1.2330649553
C 2.3199142415 2.4737691840 2.0270661389
C 3.2465839242 3.4118631309 1.5770865094
C 3.9190483524 3.2399455145 0.3765992451
C 3.6912836799 2.1234198939 -0.4251336253
C 2.7712615656 1.1952664128 0.0185611992
C 2.3017220463 -0.0555099761 -0.6000290477
O 2.6022239331 -0.5628984261 -1.6551351571
H -1.8415833405 3.8415196198 1.5428413685
H -2.7298001693 2.3467632172 1.2047802459
H -1.1985933692 2.2758047838 2.0845486931
H -0.0359088920 3.1694089967 -0.0007302918
H -1.6035840749 3.0193046628 -0.8524574399
H -3.2362678083 -1.9674228545 0.0323622347
H -2.9141977966 -1.9157601640 1.7892933506
H -4.5336565960 -0.0318493268 2.0178141043
H -4.8548966046 -0.0886360574 0.2777708254
H -5.3156079126 -1.4531532451 1.3052825990
H 1.8474318057 -2.8902340314 -1.2244571316
H 2.0127533610 -3.1837349169 0.5390826687
H 1.7931648036 2.6008880076 2.9590860085
H 3.4417063793 4.2882087641 2.1742872431
H 4.6303737927 3.9834703467 0.0541375582
H 4.2070662352 1.9807713591 -1.3610974970
40
CONF291
C -2.3572544613 3.1728625033 0.9926045235
C -1.1313208610 2.2885555901 1.0642771507
O -1.0107045855 1.3936835412 -0.0649304475
P -2.1373973311 0.3571304770 -0.5064925772
S -3.7268474003 1.0429433683 -1.4227659906
O -2.4313090818 -0.3999263814 0.8657870407
C -3.6287167802 -1.1734395812 1.0525386085
C -3.5605016604 -2.4994203200 0.3219054147
S -0.9704475273 -0.9215640510 -1.7075592489
C 0.2078003007 -1.5774139439 -0.4258166760
H -0.3765672565 -1.7938772050 0.4751628471
C 0.8331697008 -2.8331655949 -1.0033940201
Cl 1.9042861002 -3.5588306594 0.2300045439
N 1.1668842048 -0.5851948171 -0.0678329275
C 1.1740980721 0.0136575649 1.1923006621
O 0.4321535115 -0.3008941298 2.0945309869
C 2.2269538584 1.0399077175 1.1396816851
C 2.6755223833 1.9193474650 2.1043320951
C 3.6989948208 2.7960143362 1.7510320742
C 4.2473016074 2.7851336650 0.4774673761
C 3.7947968123 1.8974277134 -0.4965548617
C 2.7806944748 1.0292559714 -0.1474672860
C 2.0910770736 -0.0052025416 -0.9385876189
O 2.2413624012 -0.3287159324 -2.0935158779
H -2.3806235657 3.7119731986 0.0482600803
H -3.2626241375 2.5729141670 1.0686930474
H -2.3318666492 3.8830377628 1.8131336919
H -1.1338969843 1.6839061831 1.9750099614
H -0.2130729759 2.8780760982 1.0152358643
H -3.6921784742 -1.3078326478 2.1331642066
H -4.4793418003 -0.5836145478 0.6954874515
H -2.7003759806 -3.0756170950 0.6533820563
H -4.4653492215 -3.0641138151 0.5223043351
H -3.4831250248 -2.3263763977 -0.7510600469
H 0.0660170206 -3.5622727781 -1.2539281235
H 1.4401174393 -2.5975652854 -1.8765404370
H 2.2433176578 1.9205860095 3.0920517851
H 4.0696567539 3.4956295990 2.4830660441
H 5.0385370312 3.4759227518 0.2334573663
H 4.2140057410 1.8814123893 -1.4897455628
40
CONF7
C -4.0652806462 0.1536858101 2.7068944027
C -2.7270998630 -0.4641740125 2.3585321018
O -1.9305091223 0.4441635201 1.5555603402
P -1.8907878410 0.4509588044 -0.0178660196
S -0.7907708677 1.9232025438 -0.6942500773
O -3.4220643378 0.5376558154 -0.4347467032
C -3.8375127878 0.9398166185 -1.7528680821
C -3.4106000111 -0.0526602684 -2.8143523342
S -1.4018678676 -1.5551499948 -0.5591725320
C 0.1832874627 -1.7269048555 0.3884396251
H -0.0634497958 -1.6936361068 1.4562638553
C 0.7776912662 -3.0691758547 -0.0006345240
Cl 2.2593805615 -3.3407146006 0.9617869201
N 1.0633045287 -0.6331827407 0.1386929603
C 1.6469223877 -0.3223959743 -1.0926955008
O 1.4708712313 -0.9561693782 -2.1069669358
C 2.4534542815 0.8843928476 -0.8516074416
C 3.2418332732 1.6195119652 -1.7117274188
C 3.8753685573 2.7487280438 -1.1982088226
C 3.7155197863 3.1224619401 0.1270051360
C 2.9155147783 2.3830647483 0.9950124659
C 2.2914038058 1.2623241021 0.4881365004
C 1.3798212268 0.3035187555 1.1271811417
O 0.9523043661 0.2500034091 2.2582749976
H -4.5986313335 -0.5145606451 3.3758459998
H -3.9165132863 1.1108657267 3.1990302985
H -4.6545457491 0.3082582623 1.8072072108
H -2.8586205187 -1.4013050639 1.8103325723
H -2.1190964194 -0.6305683010 3.2503684128
H -4.9234812731 1.0048969638 -1.6745421166
H -3.4175099168 1.9290532017 -1.9589201870
H -3.8443322041 0.2318136664 -3.7675877777
H -2.3249806394 -0.0533205539 -2.9094128169
H -3.7387578792 -1.0552062064 -2.5513146082
H 0.0796573141 -3.8735471236 0.2214606145
H 1.0565838706 -3.0780763409 -1.0536527115
H 3.3532141515 1.3242185190 -2.7425747470
H 4.4972355691 3.3447459399 -1.8469885346
H 4.2145553219 4.0050009852 0.4944600562
H 2.7779529317 2.6699829554 2.0251700418
40
CONF121
C -1.3580952905 3.1606216211 -1.7002926121
C -1.4772358500 1.6646050822 -1.9164675877
O -1.1516964490 0.9915238072 -0.6854399482
P -2.0492071858 -0.1830255938 -0.0723323001
S -3.9745853116 0.0980261246 -0.2689136790
O -1.4741349099 -0.2878067105 1.3983860192
C -2.0305439284 0.4607827237 2.5017608212
C -1.8216291713 1.9503384471 2.3352502462
S -1.3353954502 -1.9900890794 -0.8918432642
C 0.3693941642 -2.1301487061 -0.1322823732
H 0.2341449320 -2.5360710151 0.8757407563
C 1.1431252509 -3.0829946410 -1.0255524913
Cl 2.7496267493 -3.3733229371 -0.2986576798
N 0.9950946908 -0.8599627968 0.0061769010
C 1.2774167042 0.0128183732 -1.0438724072
O 1.0808516933 -0.2329296549 -2.2125119276
C 1.8290031877 1.2246683875 -0.4144708234
C 2.2589449510 2.4098454737 -0.9750730296
C 2.7020565489 3.4084375066 -0.1102645172
C 2.7119706914 3.2175957397 1.2631640934
C 2.2822171186 2.0192172595 1.8288038022
C 1.8413152147 1.0302397877 0.9724542342
C 1.3149650182 -0.3145691179 1.2537402631
O 1.1746642725 -0.8956022583 2.3039008172
H -0.3727134614 3.4037847897 -1.3125555530
H -1.5095544148 3.6665194688 -2.6480007387
H -2.1110156269 3.4978938811 -0.9929044758
H -0.7710136540 1.3057025067 -2.6704755773
H -2.4943101646 1.3891823996 -2.2134197316
H -3.0958152414 0.2230402018 2.5742359642
H -1.4965666974 0.0658611367 3.3678135824
H -0.7685713550 2.1683546259 2.1730653808
H -2.3937284174 2.3069592556 1.4800810597
H -2.1648370097 2.4617013878 3.2289881841
H 0.6281182161 -4.0383768104 -1.0996131467
H 1.2966672622 -2.6503695834 -2.0133804708
H 2.2477365719 2.5491482138 -2.0443828793
H 3.0404418908 4.3473663269 -0.5187171626
H 3.0569643420 4.0103435504 1.9075753201
H 2.2863374508 1.8612337296 2.8955412733
40
CONF193
C -2.9326591222 -1.0876279253 2.6123362462
C -3.4084467584 -0.0328761398 1.6327321258
O -2.2985798856 0.5755211877 0.9269827802
P -1.8606929303 0.1803654921 -0.5469150601
S -0.7064153652 1.5658234095 -1.3099334210
O -3.1905482583 -0.1238190874 -1.3703135483
C -3.7722651187 0.8452993970 -2.2650462913
C -4.4809891638 1.9457331080 -1.5007930490
S -1.1890153876 -1.8231950997 -0.4988982447
C 0.1914202700 -1.6181539191 0.7346057318
H -0.2614202338 -1.3014013298 1.6812892270
C 0.8649943303 -2.9720358227 0.8678458512
Cl 2.1301707301 -2.8587597819 2.1241078409
N 1.0889758646 -0.5807514187 0.3495624603
C 1.9352132217 -0.5931240992 -0.7611483780
O 2.0217837873 -1.5117376119 -1.5431415907
C 2.6297595460 0.7043306487 -0.7406474679
C 3.5795204994 1.2238584458 -1.5954585893
C 4.0447867560 2.5107427714 -1.3360456024
C 3.5683463360 3.2441396784 -0.2604621593
C 2.6068817733 2.7217553858 0.6011847583
C 2.1481718009 1.4461849504 0.3463109912
C 1.1400023261 0.6350751284 1.0421556497
O 0.4702499709 0.8715785619 2.0214870598
H -2.1337059099 -0.6835852609 3.2300440250
H -3.7626694450 -1.3722872718 3.2515914321
H -2.5761038600 -1.9706417657 2.0874199061
H -3.8762720677 0.8032833201 2.1551786334
H -4.1037476796 -0.4556041909 0.9034623651
H -2.9792774356 1.2627941867 -2.8929061198
H -4.4619628376 0.2614012173 -2.8756750405
H -4.9273054247 2.6414345727 -2.2042570168
H -5.2577751330 1.5298836507 -0.8645064352
H -3.7620395745 2.4822609645 -0.8815853004
H 0.1466856980 -3.7264516272 1.1808927733
H 1.3463896114 -3.2595592895 -0.0659132546
H 3.9388328822 0.6471342093 -2.4325413170
H 4.7861174691 2.9443346661 -1.9881931864
H 3.9441099054 4.2401227816 -0.0880659528
H 2.2235794026 3.2866091903 1.4356155820
40
CONF178
C -4.6202039347 -1.0421735543 1.9568628840
C -4.5045523322 -0.6419411142 0.5017176417
O -3.5079735889 0.3766351412 0.2808948650
P -1.9940102497 0.2744516325 0.7459813562
S -1.5654220521 0.6689979012 2.6122871701
O -1.3006771453 1.3428984828 -0.1953242451
C -1.5633923713 1.4671729134 -1.6181814410
C -0.9668557537 2.7798698866 -2.0817672782
S -1.4057433479 -1.6473336012 0.0265778723
C 0.3159815631 -1.5502760222 0.6733867823
H 0.2552487712 -1.2051997983 1.7146420709
C 0.9210193148 -2.9395912977 0.5767195896
Cl 2.5711050892 -2.8944891870 1.2652459394
N 1.0603107352 -0.5669394335 -0.0525875377
C 1.2606123849 -0.5893400556 -1.4330365108
O 0.8530377290 -1.4587292710 -2.1685180148
C 2.0160852668 0.6360530596 -1.7438808291
C 2.4640079738 1.1309434858 -2.9520104224
C 3.1484181168 2.3442961643 -2.9360919681
C 3.3719813241 3.0281716735 -1.7504930303
C 2.9212326388 2.5276317489 -0.5304202267
C 2.2412035987 1.3269581068 -0.5457288415
C 1.6404541133 0.5526062634 0.5532577146
O 1.6271714422 0.7640015991 1.7426057402
H -3.6935244661 -1.5050154541 2.2929643257
H -4.8100615901 -0.1693663374 2.5769165456
H -5.4336949152 -1.7510570807 2.0721635829
H -5.4248724372 -0.1807983094 0.1391898046
H -4.2482641700 -1.5052461979 -0.1185250449
H -1.1088537025 0.6120593082 -2.1275278858
H -2.6430496338 1.4444212798 -1.7730096234
H 0.1023734794 2.7999633153 -1.8893505326
H -1.1426698101 2.8916066178 -3.1466588312
H -1.4312507336 3.6051284343 -1.5498010861
H 0.3352825096 -3.6515102793 1.1542966953
H 1.0007220240 -3.2562246583 -0.4627345127
H 2.2839502078 0.5916185190 -3.8678659258
H 3.5094266114 2.7583763765 -3.8638147973
H 3.9035386539 3.9661374388 -1.7693897042
H 3.0871951124 3.0517132482 0.3970867786
40
CONF3
C -3.3297095267 1.6837117141 2.4699042243
C -1.9310354684 1.1266355947 2.3161390833
O -1.9090436884 0.0021096308 1.4142313696
P -1.9119503144 0.1754421570 -0.1584647985
S -0.9339618718 1.7476432320 -0.8313225860
O -3.4601509614 0.2086544762 -0.5115498449
C -3.9486468228 0.6172816717 -1.8011789711
C -3.5624861849 -0.3658199112 -2.8871023481
S -1.3459553156 -1.7802467107 -0.7045287267
C 0.2318583225 -1.9221736955 0.2640837000
H -0.0452463352 -2.0476229972 1.3169347313
C 0.9607431085 -3.1416860252 -0.2732721634
Cl 2.4439414607 -3.3953508654 0.6903046811
N 1.0088266238 -0.7289621290 0.1766990480
C 1.2963190953 0.0622823936 1.2904139801
O 0.9053828837 -0.1825140941 2.4096847548
C 2.1150648410 1.1742670002 0.7886051415
C 2.6674556857 2.2510189132 1.4514112826
C 3.3829175113 3.1749115638 0.6937322983
C 3.5305647812 3.0204273835 -0.6759889698
C 2.9693419854 1.9358549496 -1.3463009114
C 2.2642196531 1.0186050592 -0.5959972024
C 1.5434710611 -0.1984005093 -1.0035914377
O 1.4007801535 -0.6965066570 -2.0954431467
H -3.3236727362 2.4583321442 3.2301455594
H -3.6644107554 2.1117158634 1.5268063993
H -4.0159560022 0.8936094848 2.7614180787
H -1.5390402785 0.7229883177 3.2511599476
H -1.2445480913 1.8913675784 1.9351890136
H -5.0298466206 0.6683916418 -1.6671845054
H -3.5506001872 1.6129711777 -2.0226342673
H -3.8779804992 -1.3703888741 -2.6168813815
H -4.0330621785 -0.0766675234 -3.8213063397
H -2.4805466818 -0.3657577509 -3.0216927786
H 0.3392591422 -4.0293331149 -0.1765834496
H 1.2573465961 -2.9886056217 -1.3103016474
H 2.5414203600 2.3646549142 2.5162496495
H 3.8249941979 4.0279105337 1.1834287213
H 4.0859896116 3.7553148797 -1.2366012384
H 3.0703040081 1.8115384255 -2.4123200922
40
CONF54
C -0.9322276156 1.7305971451 -2.9949281716
C -0.9488373217 2.3895854401 -1.6299247324
O -0.8349226451 1.4315574324 -0.5594854230
P -2.0115499443 0.4007169221 -0.2441118235
S -3.8115631900 1.0104444381 -0.7069787379
O -1.7147671736 0.2340528970 1.3078457713
C -2.7458322488 -0.1711553171 2.2288017707
C -3.1243397201 -1.6297749356 2.0659419424
S -1.4003461580 -1.4348529962 -1.1213214763
C 0.0815048748 -1.8404784951 -0.0662727552
H -0.2870775844 -2.1350927629 0.9216031941
C 0.7868893372 -2.9916189749 -0.7612305044
Cl 2.1665757586 -3.5139417928 0.2506112551
N 0.9216752958 -0.7056803781 0.1275236134
C 1.1698415741 -0.1585749621 1.3901103379
O 0.7544153603 -0.6274791025 2.4233779233
C 2.0194883427 1.0187668953 1.1495813343
C 2.5508019761 1.9403390389 2.0286032204
C 3.3223351373 2.9705638856 1.4949620816
C 3.5495303757 3.0673562118 0.1305921229
C 3.0139724490 2.1372414697 -0.7574199292
C 2.2503572774 1.1172149822 -0.2283680621
C 1.5475882987 0.0074632132 -0.8924069484
O 1.4824510608 -0.2759135850 -2.0667400447
H -0.0479661665 1.1082398679 -3.1126444352
H -1.8168116426 1.1050287240 -3.1136191292
H -0.9367317892 2.4974146190 -3.7626479734
H -1.8758662467 2.9539456190 -1.4894931994
H -0.0885222409 3.0448248781 -1.4844120769
H -2.3081059379 0.0237403912 3.2088738976
H -3.6182120070 0.4706408154 2.0710272207
H -3.5091097817 -1.8051422635 1.0614620937
H -2.2630305930 -2.2702378088 2.2384038284
H -3.8974964570 -1.8775903510 2.7863573188
H 0.1130598378 -3.8379594193 -0.8755504791
H 1.1809486268 -2.6794375011 -1.7274113543
H 2.3685681950 1.8586792763 3.0880992369
H 3.7494052182 3.7061657839 2.1578598063
H 4.1508390432 3.8765457141 -0.2522483624
H 3.1847316013 2.2031805873 -1.8201218331
40
CONF112
C -2.3091996287 3.4094233787 -1.0809160054
C -1.7207628229 2.0739496395 -1.4864877776
O -1.1741236293 1.4019339319 -0.3314789201
P -1.9692429244 0.1774068089 0.3022509049
S -3.8745884280 0.4639580959 0.6339844465
O -1.0483242701 0.0083674056 1.5827974154
C -1.5683292398 -0.5783638148 2.7925041609
C -1.6642953962 -2.0868436802 2.6877758817
S -1.6268544866 -1.4643894828 -1.0026264890
C 0.2089669802 -1.8258098262 -0.8498943654
H 0.2953924048 -2.6181141549 -0.0984113982
C 0.6552362218 -2.3098826538 -2.2168334452
Cl 2.3692790858 -2.8103068226 -2.1152864995
N 0.9478394949 -0.7109361163 -0.3681496523
C 1.2081813267 0.4691786952 -1.0646370187
O 0.8776069053 0.6830166623 -2.2092540761
C 1.9562848044 1.3242729165 -0.1279339963
C 2.4432865636 2.6061164367 -0.2788788317
C 3.1124562503 3.1728450245 0.8035700038
C 3.2852329928 2.4738073076 1.9885452686
C 2.7946511662 1.1792231930 2.1408783299
C 2.1287954734 0.6190398520 1.0697019927
C 1.4949277490 -0.6972674977 0.9206323594
O 1.4333445901 -1.6308679250 1.6854819953
H -3.1499645124 3.2544210818 -0.4079456790
H -1.5587032945 4.0099332860 -0.5753200575
H -2.6545982608 3.9303334110 -1.9679192141
H -0.8837681723 2.1876495956 -2.1800396203
H -2.4821452818 1.4361742434 -1.9488090781
H -0.8554874773 -0.2750147882 3.5601471166
H -2.5497594031 -0.1382825203 2.9960874061
H -0.6853326895 -2.5079551670 2.4704669795
H -2.0235837410 -2.4883949654 3.6297152117
H -2.3616480436 -2.3611549986 1.8965622770
H 0.0690379289 -3.1744984975 -2.5208097686
H 0.5866784375 -1.5148040564 -2.9579941363
H 2.3068957520 3.1423812514 -1.2042676278
H 3.5027632498 4.1743359461 0.7161339572
H 3.8080478169 2.9392592120 2.8088964027
H 2.9247844794 0.6270400497 3.0577683875
40
CONF595
C -4.2602089040 -1.4981580220 2.0756692805
C -4.4453556425 -0.1744723870 1.3634499888
O -3.4949061768 0.0009561328 0.2949731702
P -1.9390589378 0.1704677933 0.5740742588
S -1.5109297636 1.3009014001 2.1269168252
O -1.4319367010 0.7531727942 -0.8176140262
C -1.8690224152 2.0706123428 -1.2351340126
C -0.9040925040 2.5921361592 -2.2787031725
S -1.1444094583 -1.7675203792 0.5179735631
C 0.5174639769 -1.3025073327 1.1619325640
H 0.3514341204 -0.7269454675 2.0860722958
C 1.3154368843 -2.5470047786 1.5168131357
Cl 1.6837032220 -3.5324591115 0.0683526419
N 1.1921961802 -0.4189811634 0.2523963325
C 1.2009463932 -0.4965582232 -1.1422658686
O 0.6441979197 -1.3430601870 -1.7995565384
C 1.9933003038 0.6622729329 -1.5949846566
C 2.3336849838 1.0682971891 -2.8688573012
C 3.0827898886 2.2362534756 -2.9940822401
C 3.4712259842 2.9641330453 -1.8793925694
C 3.1315064354 2.5518661078 -0.5927643649
C 2.3903658894 1.3937037719 -0.4691545629
C 1.8841623220 0.7018305510 0.7260976714
O 2.0101757915 0.9690503555 1.8979066605
H -3.3119748597 -1.5006496350 2.6116416773
H -5.0680164294 -1.6402260443 2.7862950539
H -4.2588032045 -2.3158881179 1.3593458639
H -4.3317307635 0.6592232520 2.0635586724
H -5.4126413247 -0.1139838793 0.8632557631
H -2.8787136972 1.9685016322 -1.6388576370
H -1.8972512142 2.7211180849 -0.3535929702
H 0.0750824122 2.7640716101 -1.8400081182
H -0.8075019657 1.8686064602 -3.0833735137
H -1.2867216359 3.5264030387 -2.6764056103
H 2.2667364469 -2.2586496521 1.9632621384
H 0.7407544564 -3.1735240851 2.1958901446
H 2.0252500836 0.4952946379 -3.7284451563
H 3.3629525419 2.5795100234 -3.9770244785
H 4.0478421503 3.8661222906 -2.0080646149
H 3.4281415023 3.1091837180 0.2811687343
40
CONF125
C -2.5065484245 0.3762817919 3.4076102701
C -2.6718030232 1.0168129251 2.0456336455
O -2.3512529652 0.0264481282 1.0442732732
P -1.9155452487 0.4344067358 -0.4386579160
S -0.7831301152 2.0270531665 -0.5763100763
O -3.2443998364 0.6935921739 -1.2624864021
C -4.3245008317 -0.2711358508 -1.3511039816
C -4.2811454364 -0.9956865729 -2.6810113540
S -1.2329727460 -1.4404522361 -1.0974554655
C 0.1265446201 -1.6854813643 0.1428394285
H -0.3394341789 -1.6758597967 1.1343724697
C 0.7600505995 -3.0307266353 -0.1634218246
Cl 2.0157404182 -3.3626604513 1.0639597750
N 1.0566890265 -0.6061413853 0.1063511974
C 1.8718661325 -0.2715038761 -0.9774603680
O 1.9015282076 -0.8825369504 -2.0208966757
C 2.6135416403 0.9276445506 -0.5571152839
C 3.5577781361 1.6770445405 -1.2276851102
C 4.0781434609 2.7915418931 -0.5743059781
C 3.6603798465 3.1371211168 0.7015867502
C 2.7048246929 2.3829474216 1.3781430863
C 2.1914731338 1.2776864091 0.7322335462
C 1.1747897825 0.3071586850 1.1592700507
O 0.5457830570 0.2243934164 2.1891242366
H -3.1386739812 -0.5034632029 3.4856383318
H -1.4688625925 0.0873852728 3.5513153135
H -2.7872850932 1.0929128132 4.1722693591
H -1.9959493586 1.8693203711 1.9207890244
H -3.6995567159 1.3479230422 1.8745286047
H -4.2501734817 -0.9699626537 -0.5142774933
H -5.2323180398 0.3273297262 -1.2569203778
H -3.3688728765 -1.5829752101 -2.7643199726
H -5.1389505756 -1.6567010304 -2.7530658000
H -4.3104484899 -0.2776306366 -3.4956796561
H 0.0166519316 -3.8229926772 -0.1079951884
H 1.2424573438 -3.0188827925 -1.1401193229
H 3.8720049540 1.4026432139 -2.2218820417
H 4.8167560995 3.3978745748 -1.0740302295
H 4.0785076269 4.0085551271 1.1797702388
H 2.3683597471 2.6474054886 2.3675889737
40
CONF382
C -0.7134334743 2.8010274895 -2.6952493264
C -0.7319668227 1.2947968983 -2.5287354251
O -0.6469349001 0.9805236650 -1.1241326346
P -1.7085073331 0.0565976224 -0.3900638651
S -3.5471776007 0.1983762803 -1.0418927509
O -1.3889707588 0.5826545510 1.0738273853
C -2.1692293419 0.1341379513 2.2017351683
C -3.2222081089 1.1637464233 2.5573225083
S -1.0220494939 -1.9448854708 -0.4716701003
C 0.6084527379 -1.9131647917 0.4686422446
H 0.3548472286 -2.1338615632 1.5111535128
C 1.4864968704 -3.0011438468 -0.1269446390
Cl 0.6650190192 -4.5696016691 0.0511631182
N 1.2249563664 -0.6320366742 0.4390517227
C 1.2619236799 0.1997414076 1.5671518826
O 0.8958594819 -0.1462879913 2.6658381040
C 1.8453102515 1.4660423456 1.1069395123
C 2.0980764260 2.6384877963 1.7900605378
C 2.6502967692 3.6965229895 1.0718198720
C 2.9388462612 3.5754491585 -0.2790694158
C 2.6844071556 2.3919901570 -0.9688860275
C 2.1342971278 1.3448183832 -0.2586445940
C 1.7206769855 0.0033496370 -0.7014362140
O 1.7766239659 -0.5043950041 -1.7983564611
H -1.5967715660 3.2345067134 -2.2330934465
H 0.1725527195 3.2170161736 -2.2239447157
H -0.7094097530 3.0400714181 -3.7535849528
H 0.1308903650 0.8205630930 -3.0050701965
H -1.6533047988 0.8664953412 -2.9377086121
H -2.6300960360 -0.8308679900 1.9644399606
H -1.4419884518 0.0033882937 3.0080410830
H -3.7559792638 0.8368041347 3.4437392609
H -2.7526327896 2.1238037291 2.7503964633
H -3.9273219516 1.2742210148 1.7359844490
H 1.6509669370 -2.8317136354 -1.1907441362
H 2.4334040759 -3.0596826129 0.4093334314
H 1.8692176382 2.7233842367 2.8401411999
H 2.8544180916 4.6269318473 1.5773410940
H 3.3648716124 4.4129097581 -0.8084310766
H 2.9049824664 2.2893108287 -2.0194736355
40
CONF32
C -3.2230503536 0.2645518283 3.4987811376
C -2.6043328698 0.9355617342 2.2915642698
O -2.2635195723 -0.1049518891 1.3428129575
P -1.9882017782 0.2181491491 -0.1781713015
S -0.9397083459 1.8455269350 -0.5575154438
O -3.4616215548 0.3011893976 -0.7672369131
C -3.7425957012 0.8584601682 -2.0632039969
C -3.1842153946 -0.0033344350 -3.1767252654
S -1.2876659034 -1.6652620723 -0.8025061363
C 0.1865698321 -1.7733676178 0.3247483917
H -0.1944387926 -1.7114983130 1.3503554114
C 0.8512017329 -3.1109276092 0.0570897183
Cl 2.2131674571 -3.3084874447 1.1960776240
N 1.0587282839 -0.6621800367 0.1347222691
C 1.8065982429 -0.3981181370 -1.0165472438
O 1.8222079098 -1.1049911840 -1.9971376077
C 2.4997845528 0.8723592773 -0.7525232898
C 3.3782736896 1.5916593332 -1.5362835028
C 3.8644048320 2.7918420321 -1.0237938061
C 3.4774097618 3.2485921862 0.2267081559
C 2.5876237931 2.5252340353 1.0169593207
C 2.1078348200 1.3352978413 0.5104909598
C 1.1574055444 0.3678511737 1.0757660442
O 0.5639268178 0.3690975125 2.1317289754
H -3.4985678114 1.0232438315 4.2239214275
H -4.1072290863 -0.2924486706 3.2022456670
H -2.5069723747 -0.4176613631 3.9476292085
H -1.6809809250 1.4611941984 2.5509840324
H -3.2983082942 1.6332588770 1.8157925340
H -4.8314873780 0.9089737304 -2.0963336988
H -3.3184656859 1.8668872814 -2.1057912023
H -2.0949172920 -0.0048000607 -3.1339725880
H -3.5366494348 -1.0266220883 -3.0758965336
H -3.4980411258 0.3961142925 -4.1356955067
H 0.1490727729 -3.9241399082 0.2274334633
H 1.2531053825 -3.1500676422 -0.9546021449
H 3.6687683032 1.2294740196 -2.5093253010
H 4.5513394180 3.3772439193 -1.6139459126
H 3.8671630337 4.1841870204 0.5949693504
H 2.2746894500 2.8763090665 1.9870467822
40
CONF153
C -4.1295579848 -2.2982551783 -0.1477734235
C -4.3777406927 -0.8052132344 -0.0783321455
O -3.2457366891 -0.0480082566 -0.5390814167
P -1.8794124103 0.0095126022 0.2720168535
S -2.0870104895 0.0838181167 2.2229109662
O -1.1481701357 1.2414207491 -0.4216758745
C -1.3093629602 2.5938501031 0.0558050067
C -2.7365843231 3.0809261462 -0.0702183548
S -0.7552185153 -1.5657732984 -0.5503576755
C 0.7337943691 -1.3751810250 0.5386342159
H 0.3636941076 -1.0640876054 1.5252482585
C 1.4735418746 -2.6996991397 0.6222688033
Cl 0.4788469416 -3.8713534151 1.5163969283
N 1.5549817010 -0.3188904990 0.0347595958
C 1.5522184775 0.9561961973 0.6044163501
O 0.9959210587 1.2302050961 1.6437021825
C 2.3335704880 1.8047057739 -0.3073146810
C 2.6700160462 3.1408622644 -0.2254492755
C 3.4201132360 3.6809888654 -1.2679349956
C 3.8156085403 2.9045430925 -2.3466969765
C 3.4772726235 1.5553760743 -2.4290076269
C 2.7325811778 1.0196818885 -1.3977915625
C 2.2120486918 -0.3436837460 -1.2015375459
O 2.2938333310 -1.3177048829 -1.9099680332
H -5.0455130935 -2.8279161403 0.0935771618
H -3.7986145718 -2.5807785322 -1.1440815736
H -3.3592329268 -2.5814314176 0.5688052964
H -4.6020792273 -0.5017283536 0.9495049536
H -5.1860298556 -0.4991383292 -0.7436910920
H -0.9727264316 2.6287915659 1.0974192346
H -0.6272409478 3.1697914999 -0.5722158859
H -3.3810984980 2.5171912463 0.6031365543
H -2.7806299099 4.1318813465 0.1977538365
H -3.0893050513 2.9485953598 -1.0897740315
H 1.6609683869 -3.1055701289 -0.3712760509
H 2.4057205975 -2.5735946006 1.1728564872
H 2.3579547064 3.7358758271 0.6178678160
H 3.6956012221 4.7229308134 -1.2332362149
H 4.3946058651 3.3517066443 -3.1388751082
H 3.7785967320 0.9434500844 -3.2637964145
40
CONF370
C -4.2753499583 -2.8617945516 -0.8150537312
C -4.2922080199 -1.4617839590 -1.3904044080
O -3.9504634465 -0.4552302941 -0.4170842433
P -2.6454309573 -0.4586171191 0.4861976016
S -2.5848427513 -1.6148396175 2.0629476301
O -2.5665947501 1.0450399704 0.9462612889
C -2.6397771976 2.1692834432 0.0331516353
C -2.0151516743 3.3637797302 0.7239084710
S -1.0754658382 -0.7480390345 -0.9331339900
C 0.2878799041 -0.7471912323 0.3185677656
H -0.1120483267 -0.2654220981 1.2212142820
C 0.6835749224 -2.1835158730 0.5996208304
Cl 2.0139944402 -2.1894806271 1.7886752020
N 1.3649796632 0.0618647910 -0.1485193949
C 1.6156208661 1.3338482660 0.3693301785
O 0.9507570502 1.8498757355 1.2388983272
C 2.7818214380 1.8414349415 -0.3680488378
C 3.4702195935 3.0321143034 -0.2526820846
C 4.5536248021 3.2345924492 -1.1050130524
C 4.9257568584 2.2761871378 -2.0352621474
C 4.2299973546 1.0745980594 -2.1531555520
C 3.1575357262 0.8724864921 -1.3088618468
C 2.2361469927 -0.2706125787 -1.1911375362
O 2.1793850840 -1.2923220257 -1.8323556732
H -3.2638669546 -3.1312219352 -0.5145288144
H -4.9198749549 -2.9212276582 0.0587697795
H -4.6207132487 -3.5649038318 -1.5660261368
H -5.2937388413 -1.1737623230 -1.7144707503
H -3.5902281902 -1.3773830596 -2.2244714500
H -2.1037978771 1.9093074879 -0.8849633382
H -3.6925441498 2.3392013179 -0.1993927242
H -2.0319992487 4.2159478579 0.0523985473
H -2.5690450324 3.6026953584 1.6270124358
H -0.9870196419 3.1397561213 1.0004139926
H -0.1538376331 -2.7227960762 1.0428701875
H 1.0403541191 -2.6767714388 -0.3039313715
H 3.1735326555 3.7715090775 0.4736843058
H 5.1112464881 4.1550927335 -1.0380480977
H 5.7689730569 2.4620961573 -2.6811646149
H 4.5109440821 0.3234744024 -2.8735977903
40
CONF453
C -2.2465986390 -3.5670065774 -1.3983180264
C -3.3992176423 -2.6454532644 -1.0515248617
O -3.1488768844 -1.9769658767 0.2147698997
P -2.7932826027 -0.4440779597 0.3334521729
S -2.6449517711 0.1138783650 2.2018052238
O -3.9628430661 0.2282754386 -0.5102106319
C -4.3091376293 1.6201274883 -0.3843950853
C -3.1813542808 2.5399696864 -0.8056536874
S -1.0700566881 -0.1676267570 -0.8966154368
C 0.1824763551 -0.2791569445 0.4565774410
H -0.1864604737 0.3438920307 1.2835251961
C 0.3201781861 -1.7280108992 0.8837292862
Cl 1.5094245958 -1.8275031196 2.2111345865
N 1.4085310540 0.2921111601 0.0059030014
C 1.8973532060 1.5047790392 0.4982799135
O 1.3379085625 2.1645625272 1.3428585187
C 3.1565863015 1.7437445030 -0.2249604307
C 4.0666957293 2.7763781369 -0.1263886900
C 5.1838712116 2.7326656420 -0.9579196367
C 5.3742910500 1.6903637706 -1.8520808867
C 4.4558398668 0.6473918186 -1.9521988967
C 3.3495245136 0.6893677844 -1.1285884571
C 2.2181443078 -0.2441011193 -0.9978942812
O 1.9737232117 -1.2630544039 -1.5997852943
H -2.5142746715 -4.1495840406 -2.2741159893
H -1.3478029258 -2.9957192635 -1.6176193038
H -2.0460033512 -4.2413858461 -0.5703806493
H -4.3204101026 -3.2067764882 -0.8889771097
H -3.5571658254 -1.8943465007 -1.8271877767
H -5.1798182506 1.7279345653 -1.0327793875
H -4.5917217382 1.8110971628 0.6551984878
H -2.8233882814 2.2737489128 -1.7971780997
H -3.5403000045 3.5641799677 -0.8142455194
H -2.3541410165 2.4663807793 -0.1000306314
H -0.6293282196 -2.1022672417 1.2683792887
H 0.6853554782 -2.3462882920 0.0641648477
H 3.9091556682 3.5826848756 0.5717388788
H 5.9120865953 3.5260735454 -0.9032595058
H 6.2487877707 1.6849431578 -2.4829440914
H 4.5948590479 -0.1672971504 -2.6443682242
40
CONF485
C -1.6530561271 1.5526397182 2.6880081948
C -2.6039918865 0.3727157778 2.7121275956
O -2.3790973534 -0.5243640493 1.6091173734
P -2.8380785176 -0.1486773989 0.1348330040
S -4.4170113636 0.9956709879 -0.0186050591
O -3.0059838987 -1.6424572435 -0.3909941039
C -3.8578928793 -1.9414184363 -1.5127044660
C -3.2900553244 -1.4226670581 -2.8193741369
S -1.0780803205 0.5660406676 -0.8317486247
C 0.1711163298 -0.6154842685 -0.1225019222
H -0.1421279788 -0.8343828547 0.9040402866
C 0.2152048483 -1.8724446788 -0.9691742914
Cl 1.4620065444 -2.9695507530 -0.3059076884
N 1.4305466838 0.0524576981 -0.0489962750
C 2.2153115825 0.4156413048 -1.1470253578
O 1.9266573071 0.1950290615 -2.2992486457
C 3.3943853267 1.0914677420 -0.5791144748
C 4.5021816900 1.6314350283 -1.1994034584
C 5.4727926399 2.2176171274 -0.3895128701
C 5.3305212013 2.2575613553 0.9890481300
C 4.2122050711 1.7125096315 1.6164093972
C 3.2509122397 1.1310921073 0.8147562725
C 1.9789276118 0.4798616540 1.1609143705
O 1.4490044602 0.3119372898 2.2357573956
H -0.6194459367 1.2130652138 2.7128925794
H -1.8157123508 2.1411099811 1.7849082420
H -1.8396332025 2.1793174560 3.5541301915
H -3.6428515384 0.7159394325 2.6732467672
H -2.4500678141 -0.2495153728 3.5946035897
H -3.9320276237 -3.0297656032 -1.5062849236
H -4.8426106576 -1.5020233814 -1.3256118790
H -2.2965142813 -1.8254300829 -2.9979536826
H -3.9458878638 -1.7150891526 -3.6332555370
H -3.2280380018 -0.3350723078 -2.7906075492
H -0.7370142946 -2.3965912037 -0.9200019974
H 0.4923495680 -1.6406237548 -1.9972113233
H 4.6030151738 1.5958723013 -2.2721622774
H 6.3498499133 2.6480561314 -0.8458962878
H 6.0983932306 2.7190769898 1.5891636150
H 4.0932587107 1.7394010765 2.6875817829
40
CONF296
C -2.5534617640 2.7840171178 1.5826788054
C -1.2795041963 1.9713554198 1.5037626971
O -1.0865125593 1.3414624472 0.2165071246
P -2.1574040442 0.3895095845 -0.4795444189
S -3.7287248474 1.2096344472 -1.3127563529
O -2.4825009840 -0.6411953885 0.6933814247
C -3.6589342440 -1.4670961154 0.6568685791
C -3.5116531426 -2.6110930337 -0.3261127482
S -0.8983666656 -0.5892207820 -1.8573461176
C 0.2590377662 -1.4409508152 -0.6766969944
H -0.3415204160 -1.8080225694 0.1628671215
C 0.9111875503 -2.5790053359 -1.4390586272
Cl 1.9653511617 -3.4891450364 -0.3183591921
N 1.1991859009 -0.5136170835 -0.1388454052
C 2.1317030629 0.2110223385 -0.8831397022
O 2.3052266315 0.0858551494 -2.0728299531
C 2.7961630421 1.1041600602 0.0823120750
C 3.8065119137 2.0263740021 -0.0983222125
C 4.2329283067 2.7424187994 1.0183192602
C 3.6628438777 2.5361547878 2.2653551274
C 2.6434942096 1.6042977691 2.4486330668
C 2.2210159166 0.8944248734 1.3428608819
C 1.1812114823 -0.1372249554 1.2043517658
O 0.4323189404 -0.6100074614 2.0285571770
H -2.5902362212 3.5109313316 0.7744042088
H -3.4231730229 2.1340266768 1.5005449425
H -2.5863899750 3.3021018788 2.5359878756
H -1.2624677175 1.1888551904 2.2669781054
H -0.3961735789 2.6055063497 1.6067077626
H -3.7653954106 -1.8236257906 1.6822364300
H -4.5134680595 -0.8382699077 0.3860722319
H -4.4025324472 -3.2297951111 -0.2896247625
H -3.3964622223 -2.2180426595 -1.3357438668
H -2.6450560582 -3.2190393841 -0.0789646684
H 0.1584271427 -3.2634534317 -1.8234225808
H 1.5330532048 -2.1974216452 -2.2477392819
H 4.2426239786 2.1795719452 -1.0723722082
H 5.0207656107 3.4703469302 0.9076827391
H 4.0133149915 3.1067999475 3.1105092141
H 2.1951827131 1.4369488987 3.4147763246
40
CONF30
C -1.1950156255 0.9389105564 -3.3561654006
C -1.1015699424 1.9440465450 -2.2255651623
O -0.8658395708 1.3122193092 -0.9518984232
P -1.9869242407 0.4145269111 -0.2616957777
S -3.8351520548 0.9341527938 -0.6351698723
O -1.4996777126 0.6313874538 1.2359852402
C -2.3987846519 0.4719377670 2.3499825621
C -2.5395097751 -0.9803996340 2.7594839148
S -1.5276275625 -1.5984699694 -0.7591701848
C 0.0783988610 -1.8946036692 0.1503310152
H -0.1828230188 -2.1553331608 1.1811208588
C 0.7495227743 -3.0569154443 -0.5594391758
Cl 2.2414976366 -3.4865052281 0.3292776370
N 0.8876834682 -0.7247308835 0.2077003649
C 1.1862011864 -0.0850358781 1.4150783962
O 0.8415323573 -0.4949796239 2.4983682750
C 1.9860730798 1.0936491849 1.0505665859
C 2.5255701001 2.0917867325 1.8360443500
C 3.2395489155 3.1015789349 1.1948661146
C 3.4045361208 3.1028786108 -0.1818241631
C 2.8623504954 2.0939969696 -0.9747801862
C 2.1538539209 1.0949894271 -0.3399302307
C 1.4590423045 -0.0812589813 -0.8890819380
O 1.3722184416 -0.4658035138 -2.0324388639
H -0.3043909072 0.3152468111 -3.3843545266
H -2.0674055602 0.3012025283 -3.2136059458
H -1.2941900546 1.4677410617 -4.2984956736
H -2.0242415891 2.5282212843 -2.1531890859
H -0.2468663103 2.6109923574 -2.3468669716
H -1.9431726973 1.0649875015 3.1440763074
H -3.3694212432 0.8979670143 2.0750251114
H -3.2017775426 -1.0444458813 3.6169168757
H -2.9625144873 -1.5629440830 1.9418944433
H -1.5670362251 -1.3839356973 3.0318886792
H 0.0966074237 -3.9270529648 -0.5628437736
H 1.0344203431 -2.7836521294 -1.5744410959
H 2.3926210721 2.0823275757 2.9059498818
H 3.6708125171 3.8964374423 1.7823717485
H 3.9624566503 3.8986210622 -0.6492516407
H 2.9875193914 2.0853114795 -2.0458205354
40
CONF480
C -1.6108778881 1.6729478145 2.6040125384
C -2.5694178204 0.5015197983 2.6808246883
O -2.3492378443 -0.4445627537 1.6191583493
P -2.8235376612 -0.1406174776 0.1330071901
S -4.4173413173 0.9779918995 -0.0533400465
O -2.9732989178 -1.6577644450 -0.3268872476
C -3.8530078389 -2.0198492765 -1.4082260902
C -3.3397672999 -1.5405854498 -2.7520423071
S -1.0810213578 0.5490369593 -0.8820976077
C 0.1675796980 -0.6346938375 -0.1760529288
H -0.1631339985 -0.8799223588 0.8392072048
C 0.2373860301 -1.8706438536 -1.0517355659
Cl 1.4873125218 -2.9703782335 -0.3987853028
N 1.4203813963 0.0403116385 -0.0632043156
C 2.2214668451 0.4372531797 -1.1376729123
O 1.9538356427 0.2451686932 -2.2999868228
C 3.3857648195 1.1061253605 -0.5319239338
C 4.4996719191 1.6712178557 -1.1180477753
C 5.4513239552 2.2428898871 -0.2759198861
C 5.2851400078 2.2447621650 1.1005712928
C 4.1606919387 1.6745173509 1.6934915254
C 3.2183240740 1.1074489682 0.8597608840
C 1.9454243524 0.4388467861 1.1665411810
O 1.3979061935 0.2416927780 2.2276037940
H -1.7918216392 2.3386979151 3.4416367565
H -0.5810612994 1.3239315593 2.6441337857
H -1.7686698523 2.2217404274 1.6754775004
H -3.6065106146 0.8482891151 2.6267749614
H -2.4180361106 -0.0812459053 3.5902603836
H -3.9017080943 -3.1084310542 -1.3567580783
H -4.8411701484 -1.5950309251 -1.2065743090
H -4.0207564128 -1.8698130099 -3.5304643644
H -3.2926503954 -0.4519060537 -2.7629807462
H -2.3478241098 -1.9361032316 -2.9539226803
H -0.7095767376 -2.4057671974 -1.0274074608
H 0.5246760042 -1.6111748896 -2.0703519093
H 4.6190749398 1.6657517798 -2.1894596300
H 6.3322821077 2.6928461275 -0.7051649690
H 6.0386754483 2.6959840995 1.7261347205
H 4.0231056384 1.6712976904 2.7627652090
40
CONF633
C -5.3887476860 0.0061455091 0.6308057147
C -4.3325813488 -1.0093600550 0.2402805859
O -3.2136264649 -0.3413930558 -0.3795603553
P -1.8291280232 -0.1205936894 0.3710614886
S -1.9976637742 0.2778050310 2.2862552367
O -1.1552583844 0.9864154072 -0.5472541194
C -1.5280642402 2.3801544842 -0.4014875027
C -1.1984483881 3.0874541630 -1.6987858875
S -0.7050191344 -1.8056855743 -0.1768138108
C 0.8169761007 -1.3660236382 0.7944231106
H 0.4688290636 -0.9215378447 1.7367960327
C 1.6359916600 -2.6205532583 1.0458079269
Cl 0.7412959912 -3.6949412546 2.1450800726
N 1.5503878967 -0.3635436041 0.0885846990
C 2.1465585236 -0.5522453796 -1.1647354425
O 2.2516655580 -1.6216784187 -1.7147856208
C 2.5752039936 0.7863562597 -1.6027601489
C 3.2340416749 1.1873840454 -2.7475273395
C 3.4947706511 2.5478046821 -2.8986377771
C 3.1092468442 3.4659907718 -1.9334768795
C 2.4463695397 3.0621154078 -0.7763694249
C 2.1853234385 1.7145832362 -0.6277806117
C 1.4959270867 0.9863736451 0.4473142890
O 0.9720581752 1.3974176313 1.4573940630
H -4.9941863333 0.6757741988 1.3924891576
H -5.6863933068 0.5888273221 -0.2363687356
H -6.2534537176 -0.5132340605 1.0306333423
H -4.7024018534 -1.7080557737 -0.5117172160
H -3.9845311609 -1.5617069953 1.1173245284
H -2.5957920208 2.4368822053 -0.1746653867
H -0.9637018550 2.7822729256 0.4453992132
H -0.1386870038 2.9915091847 -1.9185011649
H -1.7678612217 2.6490070992 -2.5133011157
H -1.4537446979 4.1376848683 -1.6032228858
H 1.8151577731 -3.1619879680 0.1174607566
H 2.5759586245 -2.3619540029 1.5331196432
H 3.5285257770 0.4658253111 -3.4922884807
H 4.0044464493 2.8912520377 -3.7845894909
H 3.3221584217 4.5128554975 -2.0796637852
H 2.1411447013 3.7683388314 -0.0209084392
40
CONF294
C -2.5206237578 2.8152906155 1.5521546468
C -1.2554834892 1.9882568677 1.4807429402
O -1.0698418270 1.3437678878 0.1996782624
P -2.1474835824 0.3897227421 -0.4833323318
S -3.7205301407 1.2083281914 -1.3148410505
O -2.4699200094 -0.6299571001 0.6998152438
C -3.6495621366 -1.4517492119 0.6765768969
C -3.5145461109 -2.6007935133 -0.3022688627
S -0.8989535688 -0.6041396731 -1.8597289272
C 0.2605394473 -1.4539519938 -0.6794143148
H -0.3395970496 -1.8262223380 0.1581397769
C 0.9187959152 -2.5867148412 -1.4443780440
Cl 1.9751928279 -3.4958177398 -0.3249865834
N 1.1955296276 -0.5239191138 -0.1374113170
C 2.1238668902 0.2093921137 -0.8784541837
O 2.3004372633 0.0881634478 -2.0680987271
C 2.7795317392 1.1057617442 0.0900153854
C 3.7820380277 2.0371868036 -0.0870638737
C 4.1999722337 2.7550125157 1.0316413512
C 3.6295966899 2.5413430383 2.2773096447
C 2.6181234857 1.6002722966 2.4569835552
C 2.2037921208 0.8889346544 1.3490578387
C 1.1714372367 -0.1495958431 1.2062840302
O 0.4229597800 -0.6278374430 2.0276888775
H -2.5505276268 3.5335140920 0.7358914219
H -3.3974051047 2.1739087615 1.4783299301
H -2.5465897339 3.3443203489 2.4996419479
H -1.2465567941 1.2133162717 2.2517623915
H -0.3654931940 2.6141344400 1.5769401377
H -3.7489145403 -1.8030373008 1.7044657272
H -4.5039202707 -0.8210309831 0.4096946221
H -3.4054378187 -2.2126948031 -1.3145202671
H -2.6486233875 -3.2113074211 -0.0591101367
H -4.4076861661 -3.2155892016 -0.2562436495
H 0.1695459936 -3.2731652510 -1.8320442292
H 1.5402254838 -2.1998749491 -2.2508890763
H 4.2183843246 2.1961832715 -1.0600766884
H 4.9813093124 3.4903073906 0.9237063877
H 3.9733722776 3.1135828302 3.1241280728
H 2.1693100241 1.4273886931 3.4219142864
40
CONF267
C -3.9902379364 -2.4234308235 -1.5487418179
C -4.7439898755 -1.5336713492 -0.5827200581
O -3.9907426595 -0.3596754113 -0.2219653347
P -2.6388208088 -0.4376600321 0.6056349474
S -2.5679046294 -1.7594199886 2.0461930950
O -2.4996763139 1.0253553631 1.1790858791
C -2.8406435311 2.2485957116 0.4785523595
C -1.6337414381 2.8359277403 -0.2259165182
S -1.1283687209 -0.6554240750 -0.8876046544
C 0.2793460999 -0.7300705138 0.3094885966
H -0.0787785248 -0.2950444227 1.2524997869
C 0.6739973888 -2.1832813680 0.4918776910
Cl 2.0415959790 -2.2706403664 1.6354964259
N 1.3513896097 0.0911127308 -0.1503084158
C 1.7075095381 1.2819962431 0.4829589506
O 1.1401828515 1.7250374496 1.4560742259
C 2.8390341488 1.8188458662 -0.2882194722
C 3.5926181130 2.9599725274 -0.1024827794
C 4.6166095396 3.2110753357 -1.0133700545
C 4.8685917635 2.3471658665 -2.0680472335
C 4.1071740088 1.1954520286 -2.2567805806
C 3.0935554684 0.9453329671 -1.3547071357
C 2.1296402805 -0.1660427329 -1.2829609699
O 1.9790094116 -1.1154031672 -2.0140649839
H -3.1285883262 -2.8663078654 -1.0518544740
H -4.6460127818 -3.2181117186 -1.8895343013
H -3.6432680132 -1.8483838824 -2.4035583761
H -4.9891314307 -2.0796384559 0.3330866475
H -5.6527062251 -1.1287970486 -1.0303309878
H -3.6526329369 2.0417432451 -0.2197520902
H -3.1906516864 2.9098616134 1.2729454238
H -1.3333741134 2.2125463493 -1.0651853423
H -1.8862001216 3.8254662151 -0.5933396062
H -0.8025964819 2.9165600486 0.4718300028
H -0.1518932844 -2.7470855645 0.9257558848
H 0.9981125234 -2.6203114154 -0.4520230023
H 3.3891281861 3.6258365171 0.7206565157
H 5.2226901608 4.0948556903 -0.8935950743
H 5.6682717052 2.5687282478 -2.7566545806
H 4.2947983750 0.5177387653 -3.0738722068
40
CONF402
C -4.2111537838 -1.3639346836 2.0004770831
C -4.3823060115 -0.1062978610 1.1735589474
O -3.4176519576 -0.0206708593 0.1078495395
P -1.8649176373 0.1631130221 0.3861983419
S -1.4141829125 1.3980962762 1.8489980429
O -1.3230907999 0.6083287335 -1.0412184749
C -1.2680899516 1.9912651319 -1.4452669098
C -2.6478695080 2.5859715191 -1.6328401757
S -1.1238285706 -1.7999951174 0.4797342347
C 0.5231710172 -1.3587540651 1.1829633967
H 0.3330240494 -0.8022558840 2.1134605629
C 1.3015401333 -2.6154037646 1.5377597886
Cl 1.7178730606 -3.5735353727 0.0833921759
N 1.2283785169 -0.4556981287 0.3162421898
C 1.2817138727 -0.4973224393 -1.0784910300
O 0.7813239953 -1.3495073633 -1.7732596392
C 2.0441670597 0.7011962373 -1.4780303069
C 2.3872507286 1.1640755955 -2.7315474318
C 3.1097518759 2.3531131229 -2.8035843206
C 3.4707261737 3.0456955287 -1.6577365698
C 3.1257414678 2.5777131125 -0.3919716821
C 2.4093423969 1.3999873506 -0.3212805214
C 1.9003321134 0.6558567686 0.8408917706
O 2.0097712278 0.8784447441 2.0231667944
H -3.2733081989 -1.3207546177 2.5527210288
H -5.0323047062 -1.4449135623 2.7054739399
H -4.1974731734 -2.2402409214 1.3572184764
H -4.2792789333 0.7835612967 1.8027604004
H -5.3426303705 -0.0893374632 0.6567275601
H -0.7051224051 2.5497935304 -0.6888029119
H -0.7059247701 1.9662998757 -2.3803449267
H -3.2350881158 1.9631920195 -2.3024357083
H -3.1573930428 2.6503264101 -0.6725631995
H -2.5538921981 3.5831656133 -2.0511599853
H 2.2374834502 -2.3421119040 2.0242790557
H 0.6989447707 -3.2524374237 2.1819437573
H 2.1028162028 0.6162007716 -3.6157543369
H 3.3931486647 2.7394210992 -3.7696262104
H 4.0301221525 3.9633142629 -1.7455920504
H 3.4003092374 3.1073476459 0.5059937420
40
CONF110
C -4.3092790467 -0.0575755947 2.3618633307
C -2.9103907349 -0.6071148497 2.1769083112
O -2.0788262217 0.3325048956 1.4465314271
P -1.8759524363 0.3149845561 -0.1091345335
S -0.7742116711 1.8103829604 -0.7295649986
O -3.3546631407 0.3035194597 -0.6851367389
C -3.6268744242 0.4548059084 -2.0949639838
C -4.6114659679 1.5912188693 -2.2874822263
S -1.2381456716 -1.6635273908 -0.6069964807
C 0.2944184424 -1.7407204980 0.4392637463
H -0.0230852321 -1.6468643380 1.4846439696
C 0.9363461207 -3.0906838527 0.1748383517
Cl 2.3585762142 -3.2653170694 1.2424061906
N 1.1628134987 -0.6424732815 0.1773219165
C 1.3311585223 0.3944580275 1.1020686278
O 0.7912980070 0.4135797366 2.1853332859
C 2.2679319975 1.3366617683 0.4757797006
C 2.7920379634 2.5249557210 0.9403316535
C 3.6533279537 3.2220085147 0.0964752624
C 3.9696588577 2.7416255114 -1.1648702903
C 3.4380736321 1.5434293302 -1.6355400810
C 2.5883357364 0.8502297968 -0.7988332075
C 1.8609673790 -0.4111639820 -1.0105359827
O 1.8207100216 -1.1366094894 -1.9770426359
H -4.2662166813 0.9147006208 2.8448687083
H -4.8020552054 0.0491426088 1.3994643683
H -4.8780026525 -0.7422363743 2.9834202806
H -2.9291210343 -1.5581861059 1.6374178317
H -2.3969747907 -0.7257524407 3.1331862446
H -2.6902565550 0.6580538423 -2.6226364636
H -4.0373574360 -0.4978427481 -2.4353417313
H -5.5226901748 1.3967393579 -1.7295244755
H -4.1742516702 2.5230633166 -1.9368327379
H -4.8478049598 1.6831463385 -3.3424840468
H 0.2407925840 -3.8945512084 0.4062589266
H 1.2816811500 -3.1608927230 -0.8559502240
H 2.5327825388 2.8938514268 1.9196429868
H 4.0768016193 4.1554850552 0.4314616224
H 4.6358734897 3.3069608215 -1.7968730828
H 3.6728179925 1.1636026246 -2.6168668071
40
CONF148
C -2.4476787593 2.2939484301 -2.3312179433
C -1.8857791966 0.8987340486 -2.1480823127
O -1.2920302151 0.7784522168 -0.8403070932
P -1.9813991645 -0.1102946347 0.2970759700
S -3.9124574245 0.1403356856 0.4738101366
O -1.0890240670 0.2502757803 1.5545939727
C -1.4548760226 1.3034492323 2.4743244823
C -1.3485820770 2.6690161546 1.8304420650
S -1.4174588177 -2.1066551321 -0.0880301395
C 0.4287542503 -2.1447682289 0.2513336459
H 0.5357596742 -2.4027894753 1.3105338517
C 0.9946223879 -3.2253857396 -0.6510125839
Cl 2.7302274011 -3.4309860271 -0.2768191757
N 1.0371173192 -0.8739993506 0.0674160472
C 1.1438851983 -0.1876960273 -1.1422650617
O 0.8103452907 -0.6306580752 -2.2179823800
C 1.7362849312 1.1180666306 -0.8047933710
C 2.0278218661 2.2039029824 -1.6044929039
C 2.5646909562 3.3325061074 -0.9888502679
C 2.8008844914 3.3630779500 0.3773063832
C 2.5082530780 2.2663835175 1.1848490726
C 1.9719547080 1.1495736908 0.5755537592
C 1.5358898342 -0.1333009221 1.1458073508
O 1.5822984846 -0.5416269177 2.2822506148
H -2.8153535816 2.3983633771 -3.3466509158
H -3.2707519130 2.4544554739 -1.6381075780
H -1.6756906940 3.0355349253 -2.1468501805
H -1.0819306950 0.6816125210 -2.8559003783
H -2.6715516811 0.1446870688 -2.2571666655
H -2.4748114154 1.1163238078 2.8229220775
H -0.7487511159 1.1778282512 3.2968968439
H -2.0824823846 2.7540930089 1.0304887259
H -1.5469771049 3.4324187592 2.5759672351
H -0.3544532560 2.8157375260 1.4148707412
H 0.4948301842 -4.1738804919 -0.4663378070
H 0.9117805155 -2.9419751547 -1.6994637936
H 1.8418904278 2.1721096906 -2.6660250492
H 2.7989330466 4.1982124565 -1.5875963351
H 3.2156022211 4.2517030878 0.8257966874
H 2.6851281554 2.2805295680 2.2484411609
40
CONF45
C -3.6750299469 1.4433191310 2.1838717496
C -2.4478506960 0.5973427726 2.4411608596
O -2.2252796531 -0.3619716412 1.3839342201
P -1.9339328617 0.0582743949 -0.1072699609
S -0.9367231309 1.7323556134 -0.4076748920
O -3.3825865972 0.0726260099 -0.7518977416
C -3.6280208400 0.5269270859 -2.0979954898
C -5.0950931686 0.8910489151 -2.2062368426
S -1.1348672103 -1.7421623108 -0.8670156662
C 0.3616436176 -1.8623901169 0.2300737762
H -0.0078808014 -1.8786577339 1.2619769977
C 1.0703564695 -3.1555202238 -0.1269450064
Cl 2.4554588116 -3.3696774115 0.9795807478
N 1.1886288620 -0.7096696541 0.1008709068
C 1.2390416148 0.2702433823 1.0971975091
O 0.6418127864 0.1852899896 2.1481443931
C 2.1483183515 1.3074692743 0.5925798086
C 2.5734261641 2.4875226318 1.1666499783
C 3.4351057294 3.2904690957 0.4235169825
C 3.8484253100 2.9193002955 -0.8467428352
C 3.4175671632 1.7289302531 -1.4272756130
C 2.5664436803 0.9310265467 -0.6907455515
C 1.9318642101 -0.3528479664 -1.0282944878
O 1.9880325195 -1.0059847902 -2.0440284683
H -3.8557928920 2.0844882220 3.0408629653
H -3.5160509268 2.0650180585 1.3032479262
H -4.5398264972 0.8069025860 2.0153512345
H -2.5571463526 -0.0254394669 3.3297515280
H -1.5499767694 1.2148957378 2.5379496270
H -2.9830385596 1.3889873029 -2.2994438104
H -3.3653266065 -0.2840985577 -2.7822003266
H -5.7079599738 0.0309788080 -1.9534014622
H -5.3313423572 1.7049986432 -1.5268221289
H -5.3099230357 1.2001498673 -3.2237983797
H 0.4008805776 -4.0029751038 0.0032802210
H 1.4579626778 -3.1188968621 -1.1443034523
H 2.2410116044 2.7709975246 2.1522203484
H 3.7823590075 4.2203098397 0.8450273726
H 4.5127168049 3.5647334765 -1.3990003045
H 3.7290540558 1.4328884598 -2.4160860308
40
CONF663
C -3.7075019275 -2.1396559770 -1.4720696763
C -3.0535771129 -0.7992904031 -1.2120817901
O -2.1533500526 -0.9490284629 -0.0881949990
P -1.8811560312 0.2395577267 0.9131382729
S -3.4545731573 1.1327763205 1.6612322241
O -0.9578773669 1.2248387296 0.0420729641
C -0.7401321176 2.5991140910 0.4123819481
C -0.7155379335 3.4455279813 -0.8446482864
S -0.6373528287 -0.6930099773 2.3180380190
C 0.7541509012 -1.4530344265 1.3094676942
H 1.5339894067 -1.5438198071 2.0759345198
C 0.3203752459 -2.8131151572 0.8108740461
Cl 1.7284698086 -3.6286518849 0.0716050825
N 1.2412301263 -0.5655431354 0.3086816644
C 0.8985205315 -0.5113945531 -1.0476369171
O 0.1388122731 -1.2559554333 -1.6182403453
C 1.6621094879 0.6216490957 -1.6013133966
C 1.7185169269 1.1124181755 -2.8899170501
C 2.5224850574 2.2271512055 -3.1197685450
C 3.2390610751 2.8217618214 -2.0917218637
C 3.1846306008 2.3244246059 -0.7917891684
C 2.3891757941 1.2187586148 -0.5651384851
C 2.1149162580 0.4701294246 0.6683928335
O 2.5107925369 0.6491201566 1.7966919925
H -4.3862137848 -2.0461893224 -2.3135549596
H -2.9491555568 -2.8820716290 -1.7035573902
H -4.2639405400 -2.4603189383 -0.5956268790
H -3.7936753400 -0.0308027198 -0.9658664779
H -2.4530071646 -0.4753220568 -2.0645965893
H -1.5480010218 2.9122064035 1.0826183145
H 0.2108448184 2.6509031191 0.9508584977
H -0.5167146920 4.4759837081 -0.5697095410
H 0.0608013738 3.0957472068 -1.5192858695
H -1.6762080671 3.3889263352 -1.3487719079
H -0.0140102729 -3.4224126964 1.6481332643
H -0.4518830481 -2.7392608678 0.0475799526
H 1.1563788239 0.6449383012 -3.6823053320
H 2.5847612898 2.6350854775 -4.1160125720
H 3.8497417183 3.6854308224 -2.3004284303
H 3.7383008101 2.7782794544 0.0141964902
40
CONF629
C -2.6680792437 2.8050016758 0.9909042478
C -1.3745023123 2.0330355388 1.1272451432
O -1.0423429585 1.2712422029 -0.0581019760
P -2.0395812706 0.2510625537 -0.7598203456
S -3.4550432450 0.9745248046 -1.9033904768
O -2.5079748173 -0.6435996762 0.4744900724
C -3.6123944522 -1.5649985784 0.3602598373
C -4.8939670410 -0.9278795556 0.8602585225
S -0.6869990519 -0.9348304178 -1.8585176871
C 0.3745694198 -1.5989168776 -0.4818195614
H -0.2909393512 -1.8668674476 0.3462239466
C 1.1009481278 -2.8122358924 -1.0317274823
Cl 2.0765931927 -3.5377636022 0.2779735321
N 1.2556521248 -0.5887567124 0.0033536091
C 2.2356605387 0.0564179390 -0.7531301251
O 2.5080890615 -0.2177523393 -1.8984599600
C 2.8054479596 1.0833310411 0.1366477283
C 3.8123776341 2.0007477125 -0.0832866135
C 4.1355518483 2.8657445449 0.9601741683
C 3.4699155499 2.8068673670 2.1751215546
C 2.4538246952 1.8801285929 2.3981810141
C 2.1332594383 1.0230298551 1.3648196911
C 1.1231577747 -0.0431602737 1.2806883896
O 0.3162695021 -0.4246060514 2.0973243636
H -2.8139616485 3.4151069706 1.8768121429
H -2.6377330431 3.4446227208 0.1116426427
H -3.5069394254 2.1186458984 0.8884471322
H -1.4151021134 1.3387675399 1.9705134344
H -0.5194434195 2.7027633843 1.2417247292
H -3.7158691464 -1.8757854330 -0.6832360853
H -3.3273565257 -2.4202918769 0.9757329703
H -4.7618016501 -0.5682372750 1.8769140957
H -5.1711764798 -0.0943201372 0.2183796855
H -5.6892174004 -1.6659909161 0.8409061127
H 0.3902257480 -3.5601942895 -1.3756849028
H 1.7791992876 -2.5261786590 -1.8346223290
H 4.3232397474 2.0385687457 -1.0319916687
H 4.9179485014 3.5939051322 0.8171939279
H 3.7418475305 3.4906273332 2.9633319739
H 1.9315221287 1.8269884646 3.3398725323
40
CONF38
C -2.7305633385 -0.9218904033 3.3133826150
C -3.2878002863 -0.3190133713 2.0401115095
O -2.2620237100 0.5045621215 1.4171476953
P -1.9833950515 0.4903964330 -0.1322975467
S -0.8096677524 1.9574276219 -0.6897638303
O -3.4485957066 0.5577015259 -0.7452626053
C -3.7009033279 0.9398561754 -2.1099176141
C -3.1353830658 -0.0597118361 -3.0975283339
S -1.4069335530 -1.5149174226 -0.5712190364
C 0.0949785860 -1.5980522504 0.5117994284
H -0.2315505669 -1.4078528964 1.5412273578
C 0.6704232970 -2.9943390896 0.3584452774
Cl 2.0532980463 -3.1698934643 1.4779995575
N 1.0267343450 -0.5685957250 0.1893566534
C 1.7180214707 -0.4386146448 -1.0163693519
O 1.6212424383 -1.2091011648 -1.9435677851
C 2.5179358625 0.7890374744 -0.8803609645
C 3.3913378979 1.3896510622 -1.7631662396
C 3.9967018637 2.5779762921 -1.3622303255
C 3.7288040437 3.1384388192 -0.1228521377
C 2.8441764980 2.5347166797 0.7674582159
C 2.2463148656 1.3564779608 0.3717360945
C 1.2682626197 0.5013965191 1.0590255755
O 0.7518532374 0.6040394034 2.1486519662
H -2.2886705106 -0.1418295518 3.9275524160
H -3.5365078618 -1.3996957002 3.8611478462
H -1.9660597092 -1.6624006647 3.0931923473
H -4.1240504956 0.3490453604 2.2515801276
H -3.6062524639 -1.0884685304 1.3324014239
H -4.7889578317 0.9921628812 -2.1654374411
H -3.2690761232 1.9315845942 -2.2752271334
H -3.4826838836 -1.0631085603 -2.8640746203
H -3.4513980890 0.2083495741 -4.1004758921
H -2.0464574556 -0.0483369844 -3.0581003210
H -0.0722901249 -3.7447954409 0.6206603959
H 1.0381487922 -3.1515919366 -0.6548188966
H 3.5884305172 0.9479838310 -2.7267553569
H 4.6829666658 3.0720248552 -2.0314285181
H 4.2095594995 4.0619427123 0.1581251138
H 2.6225088350 2.9666161754 1.7301086982
40
CONF581
C -0.2344345392 2.5238415490 -1.9429587132
C -0.7833299690 2.6510037597 -0.5355453343
O -0.8295410203 1.3824677124 0.1439230547
P -1.8918233461 0.2654112090 -0.2550478671
S -3.4844729783 0.9209604074 -1.1862033823
O -2.0804891883 -0.3336959960 1.2031777292
C -2.8723153262 -1.5133156551 1.4475158277
C -4.3280482352 -1.1641395493 1.6880313730
S -0.8231958011 -1.2301483408 -1.3083286941
C 0.4608776997 -1.6788489853 -0.0292340548
H -0.0699439684 -1.9178550480 0.8980173018
C 1.2323898692 -2.8819501821 -0.5471821085
Cl 0.1498402153 -4.2905927566 -0.6247327968
N 1.3086772556 -0.5659511238 0.2465397620
C 1.2476378735 0.1344708195 1.4597555200
O 0.6036241789 -0.2307581479 2.4134158616
C 2.1264110255 1.3012391035 1.2851952993
C 2.4419284900 2.3273215925 2.1526208346
C 3.3063695490 3.3186449141 1.6922503381
C 3.8339809751 3.2754921820 0.4105827033
C 3.5179183871 2.2392898963 -0.4651006836
C 2.6593694828 1.2587731638 -0.0104334594
C 2.1252960294 0.0668363968 -0.6917681389
O 2.3071486835 -0.3307272486 -1.8188822459
H -0.1605596785 3.5105730744 -2.3882965106
H 0.7480661198 2.0582864030 -1.9387428601
H -0.9062124109 1.9137112054 -2.5463489968
H -1.7938999735 3.0695960663 -0.5602727162
H -0.1411519883 3.2648303549 0.0982272171
H -2.7733890416 -2.2013957305 0.6000716861
H -2.4220287729 -1.9591038983 2.3375767309
H -4.8751451965 -2.0687954298 1.9334567168
H -4.4102717538 -0.4576884594 2.5091216702
H -4.7628911256 -0.7165253541 0.7970514570
H 1.6145614157 -2.6965145772 -1.5508006791
H 2.0432828939 -3.1289330165 0.1380847441
H 2.0260905964 2.3534755980 3.1469362235
H 3.5678923793 4.1346529459 2.3468924468
H 4.5000220404 4.0575775358 0.0829736091
H 3.9219740987 2.1965823893 -1.4638806955
40
CONF104
C -2.2256410456 0.6013068022 3.6685762891
C -2.5851267004 0.9800690948 2.2477282242
O -2.1177792160 -0.0722509600 1.3706369029
P -1.8106303150 0.1895252030 -0.1575198939
S -0.8536791950 1.8636677815 -0.5681876700
O -3.2662088897 0.1542162705 -0.8000561991
C -3.5357595652 0.6431429607 -2.1253773407
C -2.8926294313 -0.2254471252 -3.1869263438
S -0.9908264756 -1.6682241323 -0.6799845124
C 0.4896895123 -1.6691488029 0.4499665553
H 0.1005509985 -1.6265308543 1.4734671600
C 1.2657518075 -2.9526824890 0.2016750963
Cl 0.2611260950 -4.3462391445 0.6542504525
N 1.2932161578 -0.5081117599 0.2491857199
C 1.9875353202 -0.1933038325 -0.9246651631
O 2.0414950001 -0.9125467551 -1.8943187078
C 2.5764074617 1.1336788528 -0.6897403124
C 3.3711991513 1.9167311338 -1.5013402268
C 3.7631668949 3.1608302641 -1.0128860337
C 3.3673106955 3.5980482217 0.2417270915
C 2.5617549677 2.8104325333 1.0606020186
C 2.1748461184 1.5776672151 0.5776591723
C 1.3205784348 0.5429895258 1.1748586108
O 0.7514155263 0.5065171279 2.2417340942
H -2.6765849797 -0.3532037008 3.9240222534
H -1.1457946127 0.5223460318 3.7633211229
H -2.5918285413 1.3676425090 4.3437520612
H -2.1038314488 1.9183485862 1.9509825670
H -3.6651880763 1.0683827804 2.1098030854
H -4.6241205800 0.6280195981 -2.1939403767
H -3.1699265786 1.6728048212 -2.1946921343
H -1.8068303056 -0.1603076975 -3.1134027140
H -3.1874507943 -1.2636629261 -3.0558079165
H -3.1997730078 0.1172390099 -4.1697156069
H 1.5211193783 -3.0521149916 -0.8531804711
H 2.1612844655 -2.9755762367 0.8224759173
H 3.6688448217 1.5697855063 -2.4776962722
H 4.3820439455 3.7964141851 -1.6259558541
H 3.6827846939 4.5684576906 0.5905318481
H 2.2411076692 3.1453516080 2.0338395839
40
CONF119
C -4.6688802689 -1.8144323831 -0.1421026248
C -4.6438434674 -0.3061331550 -0.0085858031
O -3.4050615427 0.2496715150 -0.4859058736
P -2.0378986291 0.0325792633 0.2913477870
S -2.2054662811 0.0552280251 2.2483807014
O -1.1022665652 1.1050821825 -0.4235496356
C -1.4075902158 2.5117061520 -0.5540497589
C -1.4755541529 3.2154667873 0.7855749166
S -1.1841059118 -1.7184859307 -0.5297435855
C 0.3831707472 -1.6356208061 0.4508758643
H 0.1044427255 -1.3798665487 1.4821668200
C 1.0503031658 -2.9958568825 0.3753252429
Cl 2.5271017390 -2.9646959140 1.3799506289
N 1.2051105743 -0.5753545749 -0.0405648192
C 1.4048160997 0.6074315714 0.6742175472
O 1.0145551989 0.7913856155 1.8042447503
C 2.1540425402 1.4971281064 -0.2269891555
C 2.6207527090 2.7821594177 -0.0384729542
C 3.2938254377 3.3850501403 -1.0988850800
C 3.4897379624 2.7176133612 -2.2984887691
C 3.0187776008 1.4202494500 -2.4889023963
C 2.3496430918 0.8236356197 -1.4396882831
C 1.7244181351 -0.5061299025 -1.3354341386
O 1.6348886090 -1.3872707412 -2.1575323104
H -3.9334165463 -2.2561917048 0.5289799121
H -5.6546885755 -2.1837429376 0.1212905206
H -4.4307928570 -2.1080262405 -1.1611767833
H -4.7748962263 -0.0102673341 1.0372066064
H -5.4022950474 0.1696330539 -0.6314331871
H -0.5833001423 2.8903997897 -1.1624720069
H -2.3481820226 2.6084650342 -1.1004573653
H -2.3460736129 2.8804694238 1.3469181646
H -0.5874237631 2.9911635237 1.3733457586
H -1.5441900758 4.2869165442 0.6275203984
H 0.3904829702 -3.7644848911 0.7717822858
H 1.3462897991 -3.2268980294 -0.6472240137
H 2.4643807273 3.2928410271 0.8982545733
H 3.6676288593 4.3896706393 -0.9817813121
H 4.0149991027 3.2105038027 -3.1009366815
H 3.1644887493 0.8929676242 -3.4179127710
40
CONF123
C -1.4651922220 2.4292267044 -2.2224283114
C -1.3913538528 2.6141583122 -0.7202774743
O -1.0778229140 1.3875473558 -0.0361201536
P -2.0975397036 0.1453526470 -0.0358612473
S -3.9783557495 0.6883574150 -0.0695286540
O -1.6281401197 -0.6484377180 1.2532134178
C -1.9963309584 -0.2068196548 2.5804551162
C -1.8179921575 -1.3798824956 3.5208299861
S -1.4569589288 -1.2057652950 -1.5108475556
C 0.1714107366 -1.7829688956 -0.7981670101
H -0.0609908327 -2.4415273638 0.0447717542
C 0.8720584907 -2.5287579109 -1.9200693331
Cl 2.3990638176 -3.2102458846 -1.2872956022
N 0.9374934157 -0.6964750861 -0.2867102542
C 1.3662340551 0.3994198073 -1.0345375413
O 1.1806868468 0.5336964832 -2.2219751458
C 2.0447442798 1.2915783819 -0.0801924412
C 2.6359481797 2.5236966378 -0.2698458861
C 3.1915285346 3.1494370665 0.8440290112
C 3.1520200725 2.5551382189 2.0961828918
C 2.5554838733 1.3106144603 2.2872690593
C 2.0035248059 0.6910897094 1.1844156158
C 1.3035048471 -0.5973726996 1.0586906833
O 1.0733665740 -1.4438145514 1.8896549859
H -1.6344464123 3.3911093704 -2.6950617121
H -0.5442183043 1.9959275842 -2.6056288642
H -2.2918470083 1.7628847815 -2.4697425723
H -2.3468777243 2.9839406206 -0.3355562774
H -0.5840900250 3.2888039845 -0.4313128463
H -1.3430981501 0.6268260411 2.8510507149
H -3.0341825228 0.1420768728 2.5528870877
H -2.0331227071 -1.0606323389 4.5351099383
H -2.4919170198 -2.1860531065 3.2454140377
H -0.7938573483 -1.7403417061 3.4610048015
H 0.2556883268 -3.3523395790 -2.2736858047
H 1.1206882805 -1.8544906864 -2.7385876961
H 2.6621733698 2.9773758707 -1.2477186989
H 3.6599894759 4.1137892108 0.7280100158
H 3.5900095098 3.0641988620 2.9399291720
H 2.5205786745 0.8416116240 3.2575447245
40
CONF667
C -3.8436748907 0.0339740090 2.9081141701
C -2.8296435200 1.0571836649 2.4419555200
O -2.0273044713 0.5591979748 1.3515564234
P -2.6426097799 0.2851053156 -0.0845792184
S -4.0998142403 1.4635086499 -0.6483582255
O -3.0285820366 -1.2641198482 0.0201042615
C -3.9754962703 -1.8583644096 -0.8838594739
C -3.4374005186 -1.9513122411 -2.2979886057
S -0.8729926393 0.3338878743 -1.2399360424
C 0.2369150827 -0.6838769579 -0.1406720842
H -0.1944404398 -0.6469403182 0.8637887268
C 0.2920855951 -2.1000122173 -0.6771682344
Cl 1.3865940411 -3.0646106473 0.3560739973
N 1.5129712841 -0.0521168891 -0.0679951028
C 2.4315273470 0.0357495447 -1.1172147267
O 2.2680474100 -0.4444763996 -2.2137248506
C 3.5637978906 0.8115611639 -0.5824460947
C 4.7584774338 1.1726580581 -1.1707870232
C 5.6522632613 1.9216001312 -0.4082221424
C 5.3519231200 2.2910032678 0.8939665866
C 4.1458247660 1.9266405921 1.4888246299
C 3.2600132510 1.1843520589 0.7342910075
C 1.9298637204 0.6494787692 1.0661471703
O 1.2735730937 0.7462676171 2.0774344630
H -4.3516667430 0.4092999381 3.7908904349
H -4.5793058306 -0.1401954614 2.1238770748
H -3.3506319796 -0.9049549243 3.1460814215
H -2.0951808144 1.2882700254 3.2151723004
H -3.3285019701 1.9741393296 2.1132265122
H -4.1707010969 -2.8430612034 -0.4571100594
H -4.8897862226 -1.2567485879 -0.8684268759
H -4.1788045956 -2.4277393246 -2.9314474970
H -3.2360457704 -0.9514229592 -2.6822624986
H -2.5171033374 -2.5285309725 -2.3285296507
H -0.6928649547 -2.5596443495 -0.6266669350
H 0.6882899518 -2.1194939794 -1.6918306170
H 4.9818541017 0.8803248857 -2.1841572282
H 6.5942137555 2.2185298255 -0.8410721481
H 6.0635852545 2.8715436354 1.4590542956
H 3.9042057653 2.2095256663 2.5007322651
40
CONF376
C -3.9055255397 -3.0459381058 -0.8086237813
C -3.6055841245 -2.8156132748 0.6560315663
O -3.6088692358 -1.4125664753 1.0167438916
P -2.7818657537 -0.2586147349 0.3346557742
S -2.7014155621 1.3219310384 1.4878013457
O -3.5594013155 -0.0366736773 -1.0366974465
C -3.4501641935 1.1708608549 -1.8057918589
C -2.0716506555 1.3507253348 -2.4105505833
S -0.9162575818 -1.1680317167 -0.1902542404
C 0.2080370003 -0.1005757204 0.8150785005
H -0.3024244382 0.8674110403 0.9289110555
C 0.4203615009 -0.7560417076 2.1656293172
Cl 1.5012910494 0.2747730716 3.1439315925
N 1.4145073510 0.1385177388 0.0949163200
C 2.4555108584 -0.7751437002 -0.0892236435
O 2.4647683281 -1.9042935859 0.3400230899
C 3.4594434707 -0.0646434863 -0.9006486235
C 4.6969882390 -0.4741142056 -1.3530444852
C 5.4354561030 0.4281178783 -2.1160704249
C 4.9442639001 1.6904582934 -2.4120400425
C 3.6941674327 2.1044216649 -1.9569923985
C 2.9634460236 1.2119104587 -1.1992308430
C 1.6353209998 1.3410081592 -0.5821296380
O 0.8359414618 2.2481678742 -0.6159306880
H -4.8396560017 -2.5636076713 -1.0835052076
H -3.1031489262 -2.6387817693 -1.4213146236
H -3.9826267282 -4.1132971411 -0.9914143005
H -2.6309814568 -3.2330074421 0.9211928427
H -4.3788000070 -3.2375270979 1.2995998466
H -4.2118914825 1.0544855582 -2.5781569991
H -3.7000906429 2.0197292507 -1.1615368686
H -1.7622657833 0.4435593692 -2.9239605002
H -2.0963630579 2.1727875137 -3.1187924595
H -1.3424599542 1.5901458645 -1.6366250737
H -0.5283556576 -0.8302266049 2.6972062445
H 0.8948778964 -1.7313089186 2.0634126006
H 5.0694685337 -1.4582055136 -1.1184403869
H 6.4066690948 0.1365904086 -2.4829096565
H 5.5386704982 2.3662848543 -3.0059291937
H 3.3032507118 3.0835662628 -2.1822815449
40
CONF433
C -4.0286896421 -1.9725880749 -2.1395678722
C -3.2150232870 -2.7133602706 -1.1014655647
O -3.1884614904 -2.0373764931 0.1799680371
P -2.7260033605 -0.5543461423 0.4546185401
S -2.4014584915 -0.2717134680 2.3650646257
O -3.9109634824 0.3117854047 -0.1548382133
C -4.1374384924 1.6796649153 0.2261455149
C -3.0019145223 2.5919573028 -0.1924963151
S -1.0759705765 -0.2344688187 -0.8655086153
C 0.2632379140 -0.4341871879 0.3910707062
H -0.0758543976 0.0837740698 1.2998466574
C 0.4646278069 -1.9147981043 0.6516815982
Cl 1.7529677279 -2.1191282976 1.8701746407
N 1.4424736358 0.2268951546 -0.0596693676
C 1.8841612354 1.4266562630 0.5055497995
O 1.3096537744 2.0005897130 1.4011162820
C 3.1161845852 1.7739954931 -0.2198421355
C 3.9826562625 2.8365038624 -0.0621010271
C 5.0861366467 2.8997557030 -0.9104547086
C 5.3052931523 1.9318250589 -1.8786285837
C 4.4304072124 0.8593576373 -2.0390873597
C 3.3381763203 0.7949615219 -1.1983049598
C 2.2526930843 -0.1969653614 -1.1156311541
O 2.0430926285 -1.1788237197 -1.7879888760
H -5.0276850890 -1.7707445583 -1.7627385468
H -3.5470244567 -1.0289247543 -2.3879925530
H -4.0972539427 -2.5814255038 -3.0358052927
H -2.1839054606 -2.8434770117 -1.4406552422
H -3.6521462001 -3.6831499529 -0.8596647667
H -5.0681391352 1.9388630861 -0.2803804125
H -4.2797820889 1.7185222979 1.3106558972
H -2.7825903075 2.4649862993 -1.2496920248
H -3.2830542218 3.6231502326 -0.0039826433
H -2.1053044625 2.3656094719 0.3845042495
H -0.4452907137 -2.3520448513 1.0650158954
H 0.7788829261 -2.4342488926 -0.2532502254
H 3.8033987296 3.5841672906 0.6936711729
H 5.7811910511 3.7180410113 -0.8099597306
H 6.1684920413 2.0083403050 -2.5203611955
H 4.5919697241 0.1016631693 -2.7887343866
40
CONF619
C -2.5725571665 2.9255783574 0.7977367320
C -1.3056863743 2.1185615260 0.9774898340
O -1.0001936252 1.2843045392 -0.1650209769
P -2.0162626110 0.2276262169 -0.7823855923
S -3.4721046764 0.8843518711 -1.9155053701
O -2.4437130371 -0.6003521567 0.5108886041
C -3.5744545625 -1.4959025231 0.5009674070
C -4.8050203346 -0.8042836312 1.0537639708
S -0.6910857089 -1.0053502405 -1.8615416358
C 0.3839707274 -1.6431449130 -0.4815749287
H -0.2776979057 -1.9297872171 0.3431422284
C 1.1413984359 -2.8368144400 -1.0324348444
Cl 2.1302096652 -3.5418268586 0.2782587625
N 1.2377663108 -0.6132633849 0.0098329357
C 2.2158299948 0.0487883375 -0.7346861310
O 2.5100046972 -0.2225031700 -1.8752758312
C 2.7527927105 1.0893132793 0.1598340716
C 3.7465903036 2.0239262953 -0.0472782937
C 4.0369693831 2.8985917860 0.9978022912
C 3.3526285817 2.8326291021 2.2019845994
C 2.3495789088 1.8888926882 2.4120042781
C 2.0617113934 1.0222086285 1.3769813933
C 1.0713680357 -0.0612149085 1.2806307915
O 0.2542189771 -0.4489505998 2.0838430589
H -2.6940062268 3.5916766406 1.6461768844
H -2.5226593770 3.5107587104 -0.1177347397
H -3.4352616477 2.2644469088 0.7368565055
H -1.3704218086 1.4728069946 1.8569705915
H -0.4288025893 2.7648017053 1.0568035356
H -3.7513307543 -1.8426409794 -0.5210105876
H -3.2725985221 -2.3344280620 1.1312985152
H -5.6172427804 -1.5209698327 1.1186809093
H -4.5974188728 -0.4051085124 2.0426771818
H -5.1034302392 0.0080643441 0.3944263819
H 0.4497225453 -3.6005964265 -1.3804860155
H 1.8150572927 -2.5325234333 -1.8324652239
H 4.2723405326 2.0673991945 -0.9875549681
H 4.8084575918 3.6401196105 0.8646553764
H 3.5992284670 3.5241496588 2.9917365271
H 1.8123888818 1.8301629080 3.3449242114
40
CONF394
C -0.4739889599 2.8673391642 -2.6407608600
C -0.8840468052 2.5327884693 -1.2213722629
O -0.6761771363 1.1178836063 -1.0010150844
P -1.7856347139 0.1851010818 -0.3491067060
S -3.6309579121 0.5484890423 -0.8941221566
O -1.5128840721 0.4522709620 1.2059902101
C -2.4816388451 0.1311498503 2.2180158216
C -2.4218143095 -1.3330319624 2.6036077129
S -1.0672805930 -1.7142567604 -0.8520477037
C 0.5083273729 -1.8775555552 0.1619924258
H 0.1964342529 -2.1913472573 1.1634200682
C 1.3533226366 -2.9457224549 -0.5126558381
Cl 0.4357790600 -4.4688080875 -0.5588284213
N 1.1925836902 -0.6381453306 0.2922915520
C 1.2690627105 0.0426111610 1.5139523681
O 0.8791533325 -0.4122623066 2.5626115764
C 1.9241191142 1.3233893541 1.2126879333
C 2.2379176609 2.3857964446 2.0364477301
C 2.8566376154 3.4909277905 1.4562308994
C 3.1523383366 3.5199738281 0.1017363000
C 2.8392526135 2.4461605130 -0.7289657499
C 2.2200627309 1.3536974959 -0.1567686555
C 1.7444326426 0.0974047066 -0.7620678774
O 1.8031518548 -0.2842443542 -1.9065517055
H -0.5146370952 3.9422898738 -2.7815215085
H 0.5355013415 2.5114269930 -2.8269773697
H -1.1465880851 2.3862785035 -3.3462897137
H -1.9394585984 2.7662049600 -1.0474390872
H -0.2682510567 3.0576803615 -0.4873436444
H -2.2133519888 0.7741950626 3.0572364039
H -3.4744315555 0.3998636055 1.8414845579
H -1.4255478074 -1.5793812448 2.9635533521
H -3.1424957352 -1.5249354980 3.3918912009
H -2.6636772784 -1.9584167639 1.7446449336
H 1.5851734016 -2.6662716372 -1.5401164864
H 2.2639885786 -3.1244392903 0.0587358645
H 2.0061228703 2.3522596056 3.0888203004
H 3.1096412183 4.3378463450 2.0738980820
H 3.6325440776 4.3888706218 -0.3190606021
H 3.0699123619 2.4596821647 -1.7820824863
40
CONF678
C -3.8960107351 -0.1135416762 2.9159202440
C -2.8845775682 0.9369179771 2.5085015715
O -2.0636396473 0.4928039059 1.4083587206
P -2.6600048675 0.2799918397 -0.0462162809
S -4.1207665828 1.4706576062 -0.5738493049
O -3.0350275646 -1.2751910370 -0.0155906688
C -3.9636269981 -1.8362999713 -0.9587756546
C -3.4009215332 -1.8691731431 -2.3659807482
S -0.8794657359 0.3979725400 -1.1794174858
C 0.2388124843 -0.6437420434 -0.1115689119
H -0.1682660656 -0.6051922265 0.9029683566
C 0.2619471095 -2.0576090224 -0.6563737527
Cl 1.3670578473 -3.0424439035 0.3461209717
N 1.5251055185 -0.0304034063 -0.0665642676
C 2.4168579640 0.0550892768 -1.1388117208
O 2.2181825570 -0.4131241246 -2.2346828363
C 3.5730085719 0.8108660271 -0.6270801181
C 4.7557206263 1.1633884033 -1.2440621296
C 5.6791998373 1.8932767608 -0.4985999608
C 5.4191166972 2.2523761904 0.8150653151
C 4.2251179519 1.8966626237 1.4388709216
C 3.3097211131 1.1736362427 0.7011607822
C 1.9816971009 0.6533115586 1.0630426237
O 1.3535273430 0.7481268220 2.0922808659
H -4.4188429490 0.2189464849 3.8071631108
H -4.6196958638 -0.2589462606 2.1149212447
H -3.3983751379 -1.0581364566 3.1193703598
H -2.1629610226 1.1404963024 3.3012245114
H -3.3868467717 1.8632444823 2.2129769731
H -4.1608925754 -2.8384911036 -0.5759656016
H -4.8811901509 -1.2399731576 -0.9343349269
H -4.1279442481 -2.3248290055 -3.0306065153
H -3.2002890546 -0.8535031501 -2.7067116254
H -2.4760537606 -2.4386398724 -2.4032052228
H -0.7275826534 -2.5045772605 -0.5853175684
H 0.6348811128 -2.0764191762 -1.6798839087
H 4.9477147103 0.8791238315 -2.2661110460
H 6.6125687976 2.1834024082 -0.9540430603
H 6.1531171894 2.8180914904 1.3664277369
H 4.0146259416 2.1717375068 2.4598336062
40
CONF399
C -5.2449593190 0.1536231997 -1.5923241903
C -3.8195574892 -0.3122678019 -1.3788662986
O -3.5345190777 -0.2220687146 0.0408437798
P -2.0603424369 -0.1618854710 0.6136103015
S -2.0650352251 -0.0472575707 2.5608660670
O -1.2999560065 1.0276792832 -0.1611132543
C -1.3098904859 2.3710074749 0.3602296479
C -2.6926040552 2.9863250774 0.3081101697
S -1.1197575783 -1.8145345341 -0.3019287114
C 0.4972170606 -1.6448321250 0.5810720316
H 0.2674202226 -1.3470486063 1.6135419711
C 1.1982539289 -2.9894175134 0.5330897404
Cl 2.7239799313 -2.8686662883 1.4543270138
N 1.2588607389 -0.5896532072 -0.0052324077
C 1.7348661776 -0.5803435630 -1.3198655928
O 1.6285553703 -1.5020498774 -2.0930560232
C 2.3400934337 0.7493979578 -1.5085571239
C 2.9718379279 1.2994598704 -2.6053886364
C 3.4409165079 2.6064072633 -2.4906362508
C 3.2794624612 3.3283330055 -1.3176960493
C 2.6422735822 2.7735752500 -0.2098258894
C 2.1770321847 1.4790861912 -0.3235062984
C 1.4655635496 0.6282921987 0.6431010778
O 1.0993973267 0.8653525710 1.7719625853
H -5.3560224274 1.1882792467 -1.2801999320
H -5.4938078369 0.0658117699 -2.6449173021
H -5.9245000824 -0.4604335900 -1.0088227333
H -3.1036178591 0.3090520750 -1.9232218243
H -3.6887299206 -1.3549412953 -1.6777500370
H -0.9328105795 2.3437538643 1.3879929567
H -0.6017928688 2.9046899803 -0.2767413062
H -3.3709089677 2.4181672814 0.9444928263
H -2.6428371447 4.0082258124 0.6705653958
H -3.0707702715 2.9830848956 -0.7111051003
H 0.5831670881 -3.7548651819 1.0012855252
H 1.4464081723 -3.2624745833 -0.4918824728
H 3.0917644568 0.7299808416 -3.5128776627
H 3.9379814642 3.0635390951 -3.3313031080
H 3.6522782760 4.3384496221 -1.2592165206
H 2.5112800714 3.3260583871 0.7068472295
40
CONF222
C -4.2585128459 -1.7975072156 -1.6469514569
C -3.8790858916 -0.3452774838 -1.4398744237
O -3.5966216480 -0.0868459454 -0.0416534067
P -2.1343732886 0.0096672150 0.5558792124
S -2.1890693583 0.3922341995 2.4686135612
O -1.3261068877 1.0699347260 -0.3495004142
C -1.3271560401 2.4726381205 -0.0233400712
C -2.6958981339 3.0958501097 -0.2017066264
S -1.1759548053 -1.7561489300 -0.0824845396
C 0.4107357216 -1.4663243758 0.8189310207
H 0.1501093620 -1.0130169555 1.7855371213
C 1.0944126920 -2.8084884405 1.0009183301
Cl 2.5927807340 -2.5621906337 1.9433011847
N 1.2088014566 -0.5195162691 0.1080166660
C 1.7311529353 -0.7154165076 -1.1737440845
O 1.6276273271 -1.7393821165 -1.8057571391
C 2.3776868996 0.5587155770 -1.5328750642
C 3.0638310200 0.9260849554 -2.6725208204
C 3.5644639268 2.2249432108 -2.7327076914
C 3.3799530255 3.1162172315 -1.6865086384
C 2.6878404336 2.7458671797 -0.5354195897
C 2.1921187672 1.4591641767 -0.4754726786
C 1.4265865066 0.7751458288 0.5786245030
O 1.0307427215 1.1835102390 1.6470646366
H -4.5551982498 -1.9430538184 -2.6808474821
H -3.4147917318 -2.4471287794 -1.4228635725
H -5.0862925824 -2.0601061635 -0.9944359536
H -4.7138348870 0.3174506318 -1.6751058798
H -3.0064048667 -0.0730378544 -2.0387174885
H -0.9782018329 2.5858144308 1.0085587283
H -0.5926380601 2.9016432985 -0.7078480721
H -2.6342442866 4.1584492915 0.0109783823
H -3.0490907297 2.9508217072 -1.2195052059
H -3.4016864891 2.6375657148 0.4907354406
H 0.4545683510 -3.4877177692 1.5601635938
H 1.3711875831 -3.2379251906 0.0387381397
H 3.2015243283 0.2257583358 -3.4804917675
H 4.1050277455 2.5411696975 -3.6105126657
H 3.7783066558 4.1153753398 -1.7623910934
H 2.5391817787 3.4307846646 0.2840264296
40
CONF37
C -1.7518803940 0.9801481822 -2.9809054475
C -1.6048357788 1.8602500387 -1.7561137090
O -1.1460481098 1.1222831284 -0.6099931856
P -2.0637886847 0.0085018257 0.0885209462
S -3.9803130379 0.3982424790 0.0281891608
O -1.4102757352 -0.0956473510 1.5295266607
C -1.8527621543 0.7127812936 2.6401591974
C -1.5708664996 2.1838122688 2.4210014354
S -1.4538063929 -1.8538981279 -0.6921060323
C 0.2513643238 -2.0384905850 0.0492801230
H 0.1159417078 -2.3230709944 1.0979398671
C 0.9323120707 -3.1360850627 -0.7485789753
Cl 2.5330536881 -3.4628691264 -0.0226655206
N 0.9695155279 -0.8087576973 0.0373875804
C 1.2911485573 -0.0797119365 -1.1068824999
O 1.0609475991 -0.4411660585 -2.2375978494
C 1.9341950068 1.1536870411 -0.6239179035
C 2.4201045692 2.2423008912 -1.3183139616
C 2.9606235454 3.2904622997 -0.5766327519
C 3.0102328528 3.2401583912 0.8081638649
C 2.5221418934 2.1394830946 1.5090311229
C 1.9836847077 1.1021126261 0.7747440079
C 1.3794720675 -0.1674006018 1.2099713304
O 1.2483630491 -0.6295753761 2.3189704599
H -2.0276580484 1.5922240452 -3.8333250353
H -0.8201164593 0.4614534033 -3.1947690862
H -2.5321796044 0.2382599471 -2.8095033426
H -2.5638164056 2.3235787614 -1.5031311112
H -0.8427257865 2.6281589349 -1.8961718262
H -2.9233094879 0.5397790669 2.7846178060
H -1.2885807313 0.3115433408 3.4839240127
H -2.1704064191 2.5555668784 1.5910257918
H -1.8310197766 2.7344722969 3.3194414587
H -0.5182103744 2.3361435024 2.1938717653
H 0.3497192154 -4.0538813107 -0.7081790462
H 1.0906098823 -2.8250640583 -1.7803950071
H 2.3780736292 2.2717245428 -2.3954069881
H 3.3461948144 4.1563286618 -1.0909038487
H 3.4329926650 4.0675894511 1.3553791026
H 2.5570363295 2.0916151452 2.5858578832
40
CONF637
C -3.7283751029 0.2831072002 2.8771143930
C -2.7026645281 1.2496698019 2.3238205009
O -1.9426918899 0.6684282612 1.2448344125
P -2.6024464547 0.2993108145 -0.1491588161
S -4.0472689831 1.4669037235 -0.7652815881
O -3.0184057496 -1.2280476187 0.0814062919
C -4.0032320577 -1.8652275113 -0.7498091259
C -3.5108893305 -2.0692522201 -2.1688894830
S -0.8592272470 0.2141110722 -1.3421139606
C 0.2341549613 -0.7688923481 -0.1959576015
H -0.2402873858 -0.7486272947 0.7892906971
C 0.3523429736 -2.1818382134 -0.7308458809
Cl 1.4237623828 -3.1185572310 0.3511190730
N 1.4875864382 -0.1013307296 -0.0682995719
C 2.4410586954 0.0201529395 -1.0824467572
O 2.3327809143 -0.4595338763 -2.1860950458
C 3.5281209781 0.8282532314 -0.5037815425
C 4.7317417082 1.2289436279 -1.0465296404
C 5.5728181865 2.0022493945 -0.2491778712
C 5.2131348942 2.3565862448 1.0421277112
C 3.9979654223 1.9521846463 1.5908820407
C 3.1643302345 1.1857066860 0.8018709028
C 1.8401996754 0.6077210460 1.0828994363
O 1.1455902220 0.6800271067 2.0701969022
H -4.4902722814 0.0826868331 2.1247968231
H -3.2520793753 -0.6528404296 3.1573208207
H -4.2013504080 0.7229915936 3.7494699028
H -1.9406001604 1.5052716348 3.0619485898
H -3.1872998131 2.1585743176 1.9540321198
H -4.2032167249 -2.8129420929 -0.2481760932
H -4.9052927341 -1.2452391061 -0.7508789044
H -4.2808145708 -2.5722996571 -2.7451665722
H -3.3010494981 -1.1035792507 -2.6286983444
H -2.6040107243 -2.6678641208 -2.1853526247
H -0.6210769376 -2.6677716005 -0.7269246507
H 0.7940382475 -2.1890323429 -1.7265977728
H 5.0012801573 0.9478567984 -2.0518304913
H 6.5203049249 2.3302862936 -0.6459937990
H 5.8849224457 2.9566956633 1.6349053807
H 3.7106151754 2.2230420064 2.5940946024
40
CONF685
C -3.9318897742 -0.2199320185 2.9163464778
C -2.9222026232 0.8475267401 2.5509996776
O -2.0889022219 0.4412858374 1.4452733135
P -2.6721135293 0.2754370257 -0.0207629705
S -4.1322478997 1.4782864313 -0.5218349959
O -3.0436961662 -1.2807764933 -0.0438792422
C -3.9589284920 -1.8139335954 -1.0158056925
C -3.3769808075 -1.8034770324 -2.4154961620
S -0.8836321078 0.4382856973 -1.1358150405
C 0.2411145482 -0.6160175599 -0.0873564299
H -0.1484008412 -0.5734806852 0.9339309270
C 0.2423570587 -2.0298238428 -0.6328416499
Cl 1.3532838915 -3.0254003748 0.3524918332
N 1.5336956237 -0.0147169408 -0.0644788895
C 2.4072477935 0.0639981504 -1.1521113680
O 2.1846979549 -0.4002184732 -2.2450808179
C 3.5796537026 0.8072668727 -0.6594424227
C 4.7546285885 1.1495677581 -1.2966245766
C 5.6982716490 1.8688509308 -0.5662500461
C 5.4650588519 2.2276494385 0.7525296611
C 4.2789117501 1.8822025537 1.3967630480
C 3.3435430385 1.1697072703 0.6740100149
C 2.0170660661 0.6617754074 1.0582807197
O 1.4080414337 0.7601816082 2.0986619269
H -4.4641953365 0.0820647811 3.8128218168
H -4.6477714498 -0.3436525421 2.1047979071
H -3.4313448734 -1.1680732572 3.0945847412
H -2.2093230036 1.0303368905 3.3565398998
H -3.4265000530 1.7800460781 2.2793949436
H -4.1597426173 -2.8275489822 -0.6663702402
H -4.8776688021 -1.2196852549 -0.9854362508
H -3.1761057753 -0.7775373896 -2.7237753707
H -2.4491328145 -2.3678678296 -2.4559885887
H -4.0927152420 -2.2425264229 -3.1031406920
H -0.7500737558 -2.4677772675 -0.5471357929
H 0.6001027641 -2.0513992922 -1.6617481842
H 4.9256733456 0.8656648030 -2.3224875738
H 6.6261767378 2.1509118090 -1.0376422727
H 6.2141875966 2.7850715304 1.2918589922
H 4.0892325713 2.1571439324 2.4218316562
40
CONF697
C -4.0134668086 -0.3759035184 2.8525565084
C -3.0080474544 0.7168264741 2.5568325857
O -2.1422393739 0.3650917266 1.4571075243
P -2.6872565795 0.2602066476 -0.0291334396
S -4.1428415025 1.4746461260 -0.5153899584
O -3.0493910550 -1.2953581444 -0.1280897941
C -3.9306840923 -1.7919669430 -1.1493118186
C -3.3019932363 -1.7268431392 -2.5271134587
S -0.8736328226 0.4846814866 -1.0917053383
C 0.2473936616 -0.5810856384 -0.0508651376
H -0.1348455544 -0.5347603659 0.9730706675
C 0.2340700536 -1.9948259295 -0.5963363870
Cl 1.3407201137 -2.9996350930 0.3844319237
N 1.5449811111 0.0097617716 -0.0376063444
C 2.0432479762 0.6793619280 1.0827566974
O 1.4435732583 0.7797322251 2.1283982869
C 3.3705315871 1.1774441163 0.6887499026
C 4.3172896462 1.8812487033 1.4051580646
C 5.5006319720 2.2190523148 0.7517640116
C 5.7201417930 1.8612780669 -0.5696409800
C 4.7650447273 1.1506548707 -1.2935841528
C 3.5928160066 0.8159913269 -0.6473592264
C 2.4107212508 0.0828486189 -1.1318846718
O 2.1762293212 -0.3784567849 -2.2235795636
H -4.5708828974 -0.1173816056 3.7473635101
H -4.7079666287 -0.4735599844 2.0192249688
H -3.5060483739 -1.3250997448 3.0036584897
H -2.3184174248 0.8747933917 3.3874245780
H -3.5166890004 1.6539482491 2.3103572034
H -4.1400767875 -2.8186509052 -0.8461206844
H -4.8516321383 -1.2007602848 -1.1265174688
H -3.0970142226 -0.6892936377 -2.7905619599
H -2.3697914883 -2.2847597305 -2.5560008827
H -3.9911508243 -2.1438288378 -3.2544738294
H -0.7615330775 -2.4248676141 -0.5070086457
H 0.5881108434 -2.0189199156 -1.6265117556
H 4.1381782741 2.1555013798 2.4323084888
H 6.2584057399 2.7696849797 1.2859620356
H 6.6461924501 2.1373438574 -1.0481750673
H 4.9253812950 0.8676566760 -2.3214239665
40
CONF359
C -0.7193880943 1.0730659569 -3.3059951122
C -0.8469014008 1.9906336963 -2.1063339979
O -0.6940005987 1.2793968027 -0.8612663721
P -1.8025239085 0.2521175070 -0.3634346344
S -3.6240386806 0.5812100961 -1.0006756873
O -1.5750225450 0.4666977698 1.1951007534
C -2.4898446873 -0.1241177311 2.1431986757
C -2.1855849781 0.4630300148 3.5056420758
S -1.0882197710 -1.7002702200 -0.7574315572
C 0.4252514655 -1.7961193615 0.3456123939
H 0.0668303309 -1.9724335573 1.3653641470
C 1.2618664584 -2.9649705949 -0.1516507366
Cl 0.3164303774 -4.4657463403 -0.0124220768
N 1.1581922043 -0.5745469369 0.3570555314
C 1.2928467125 0.2126479054 1.5078158804
O 0.9055628945 -0.1240248605 2.6009220286
C 2.0030546753 1.4249927876 1.0764386348
C 2.3838341476 2.5444365168 1.7881475316
C 3.0447231986 3.5557142236 1.0940417667
C 3.3122193329 3.4417684102 -0.2616729426
C 2.9293070847 2.3113594160 -0.9804696733
C 2.2740168565 1.3102265548 -0.2934445634
C 1.7330080956 0.0253197132 -0.7642417972
O 1.7517721335 -0.4683017407 -1.8677680031
H -0.7598296098 1.6630162986 -4.2157726873
H 0.2188527049 0.5239538463 -3.2725883830
H -1.5419132893 0.3577398891 -3.3112844813
H -1.8234065981 2.4844124760 -2.1042788999
H -0.0511404522 2.7364341190 -2.0780483465
H -3.5126455722 0.0998364882 1.8216347885
H -2.3500739734 -1.2097848513 2.1376751254
H -2.8365876191 0.0058397140 4.2432792111
H -1.1479523991 0.2666983274 3.7635015633
H -2.3493579942 1.5364560141 3.4926780385
H 1.5242190774 -2.8340963927 -1.2012520486
H 2.1542352205 -3.0783693527 0.4637269262
H 2.1710667317 2.6257074806 2.8418648081
H 3.3520210987 4.4436611836 1.6231961307
H 3.8247747237 4.2420039965 -0.7714195237
H 3.1331627150 2.2135564859 -2.0348219930
40
CONF131
C -0.8948560072 1.0235147512 -3.2586755234
C -1.0396863334 1.9110215063 -2.0389107715
O -0.9269197630 1.1713567546 -0.8093433201
P -2.0245914558 0.0736928305 -0.3931710165
S -3.8207356707 0.5087670701 -1.0397348990
O -1.8047600802 -0.0096729362 1.1747517427
C -2.2137507255 1.0485560663 2.0719573409
C -3.6041486251 0.7903096829 2.6152383333
S -1.2623659248 -1.8140569368 -0.9144924932
C 0.2054337809 -1.9540356314 0.2331641997
H -0.1891918412 -2.1169293850 1.2412130448
C 1.0038705827 -3.1473707076 -0.2605491661
Cl 2.3765449936 -3.4176380070 0.8526165481
N 0.9662780417 -0.7499115340 0.2675319469
C 1.1216184722 0.0112667505 1.4285181984
O 0.6905540914 -0.3050965295 2.5129723019
C 1.8945820182 1.1967123482 1.0261324594
C 2.3168593835 2.2860504959 1.7607297551
C 3.0307486323 3.2773263688 1.0908574997
C 3.3075732049 3.1732735603 -0.2638312674
C 2.8830213151 2.0727721659 -1.0053482563
C 2.1763867042 1.0909884384 -0.3415980485
C 1.5853654659 -0.1633330990 -0.8362881249
O 1.5910389482 -0.6348255454 -1.9497015585
H 0.0401681841 0.4690498315 -3.2283432678
H -1.7195462794 0.3114874804 -3.2945804285
H -0.9203873086 1.6367006383 -4.1534475818
H -2.0133260468 2.4108160436 -2.0485907693
H -0.2391162676 2.6494383934 -1.9744455624
H -1.4635826675 1.0250966866 2.8660117177
H -2.1639746855 2.0043098505 1.5435733076
H -3.8545865912 1.5646107779 3.3333132368
H -4.3334928282 0.8025849507 1.8081535054
H -3.6379649146 -0.1791274201 3.1043105091
H 0.3882389102 -4.0441551639 -0.2612638390
H 1.4107354921 -2.9585670582 -1.2531626455
H 2.0969907075 2.3589842255 2.8137492731
H 3.3722389214 4.1412673055 1.6384301190
H 3.8612647226 3.9577567719 -0.7546172950
H 3.0939101906 1.9830273426 -2.0589853890
40
CONF203
C -0.4696896469 2.1533371760 -2.1206923159
C -1.1390088180 2.3682766838 -0.7783419182
O -1.2283613910 1.1550052647 -0.0132736771
P -2.2028715266 -0.0412063674 -0.4589263245
S -3.7646634610 0.5388938428 -1.4878412728
O -2.4425069893 -0.8260081007 0.8940836180
C -2.8488257805 -0.2447354404 2.1544549699
C -4.0235569567 0.6986772156 2.0193959787
S -1.0055677608 -1.4705864478 -1.4449096796
C 0.2527426978 -1.8205670715 -0.1145742883
H -0.3038204463 -2.0018982459 0.8103339440
C 1.0207400084 -3.0529923770 -0.5525705427
Cl 2.1847104935 -3.4865265725 0.7321901246
N 1.0843384333 -0.6837411454 0.1058680650
C 0.9931151922 0.0908163270 1.2648421539
O 0.2789873426 -0.1772159109 2.2035528620
C 1.9232796603 1.2131137215 1.0698952529
C 2.2323226550 2.2793443136 1.8899370134
C 3.1618598269 3.2050310279 1.4204518237
C 3.7567902402 3.0597955355 0.1763668822
C 3.4465139050 1.9828519335 -0.6512020153
C 2.5244540094 1.0668571286 -0.1871477771
C 1.9818956051 -0.1489713701 -0.8206185684
O 2.2144028780 -0.6226372682 -1.9080809334
H -0.3887402012 3.1045254906 -2.6365037577
H 0.5232391263 1.7265328853 -2.0013084980
H -1.0700898208 1.4741145487 -2.7258232897
H -2.1513355949 2.7576207736 -0.9252494445
H -0.5659900874 3.0426710556 -0.1398527025
H -3.1041373269 -1.1160813495 2.7601522888
H -1.9777651205 0.2567154183 2.5835981167
H -3.7486862226 1.5618048046 1.4143814198
H -4.8606644394 0.1959223658 1.5396814944
H -4.3247934292 1.0377267917 3.0056395166
H 0.3440313711 -3.8932684571 -0.6902892923
H 1.5859714408 -2.8582667443 -1.4630431777
H 1.7654965866 2.3842465963 2.8561280080
H 3.4218139144 4.0497968677 2.0381712885
H 4.4727795290 3.7927995680 -0.1593140216
H 3.9025802105 1.8609693959 -1.6205717578
40
CONF600
C -2.1756725150 3.3116657698 -0.2071554209
C -0.8773975211 2.5359630461 -0.1498248314
O -0.9252250906 1.2958661957 -0.8927658278
P -1.9751542017 0.1330191384 -0.6259994228
S -3.8260954543 0.3952305526 -1.2098942327
O -1.7494084761 -0.1133276986 0.9351492797
C -2.6002761311 -0.9822046094 1.7099312251
C -3.6743053136 -0.1832030728 2.4202468995
S -1.0850846924 -1.4783813833 -1.6423327288
C 0.3806038802 -1.9081964573 -0.5608760751
H -0.0071149678 -2.4492199392 0.3090182645
C 1.2757063563 -2.7926436556 -1.4105146945
Cl 2.6571662568 -3.3350014804 -0.4151427273
N 1.0420310967 -0.7471564802 -0.0724257153
C 1.6768374317 0.2134279948 -0.8629218386
O 1.7534908668 0.1691732181 -2.0683161833
C 2.1943404554 1.2181843654 0.0823717830
C 2.9007958301 2.3814591921 -0.1448353761
C 3.2517378481 3.1498638788 0.9632470461
C 2.9052284465 2.7591970733 2.2477344503
C 2.1948137730 1.5831421839 2.4784267867
C 1.8453951899 0.8224917665 1.3807898677
C 1.1054025906 -0.4456278131 1.2909563080
O 0.6341435613 -1.1419623321 2.1594022079
H -2.0388277846 4.2702043437 0.2835763352
H -2.4746588353 3.4736469765 -1.2400353187
H -2.9678567418 2.7613850097 0.2974689280
H -0.6077502697 2.3037177678 0.8837233715
H -0.0642250522 3.0834272527 -0.6306609289
H -3.0467175093 -1.7309279847 1.0495661357
H -1.9216016104 -1.4654586431 2.4172974972
H -4.2550536798 -0.8502399263 3.0488705307
H -3.2220987185 0.5884740753 3.0366678339
H -4.3349567258 0.2819179671 1.6916324457
H 0.7324741110 -3.6740855454 -1.7439792105
H 1.6734159544 -2.2398492883 -2.2605535069
H 3.1672249104 2.6748649258 -1.1476335084
H 3.8043150939 4.0640878160 0.8165444125
H 3.1917876264 3.3743449731 3.0856656529
H 1.9234948725 1.2697137639 3.4736954453
40
CONF366
C -0.2726428979 1.9063922958 -2.5350707170
C -0.7923966172 2.3694207503 -1.1889531556
O -0.8418819379 1.3023351991 -0.2264595129
P -1.8587908286 0.0655362431 -0.3905851896
S -3.5163245380 0.5586792382 -1.3107457132
O -1.9835246680 -0.4459412773 1.1025971810
C -2.6649542189 0.3211969861 2.1220685463
C -4.0731803952 -0.1997140198 2.3224894316
S -0.7620075603 -1.5353675665 -1.1834781267
C 0.5132193264 -1.7728693110 0.1656892769
H -0.0398117120 -1.9524682809 1.0924643493
C 1.3684323177 -2.9701185673 -0.2154398563
Cl 0.3699132729 -4.4426510530 -0.1979049713
N 1.2868167000 -0.5878252020 0.3425550461
C 1.1441950920 0.2463318637 1.4584608774
O 0.4845171330 -0.0311912329 2.4316271545
C 1.9594391844 1.4365761516 1.1722283121
C 2.1799668361 2.5755369116 1.9197635318
C 2.9968544318 3.5604467415 1.3678700879
C 3.5690353850 3.4020323503 0.1146758962
C 3.3479330365 2.2518248455 -0.6397478038
C 2.5377431003 1.2767651671 -0.0939053923
C 2.0997971600 -0.0183222863 -0.6409869767
O 2.3455055329 -0.5315424447 -1.7073042463
H -0.9594995147 1.1749842372 -2.9613239639
H -0.2065395043 2.7573626292 -3.2050131142
H 0.7078245407 1.4463175674 -2.4424908766
H -1.8010948722 2.7796622123 -1.2981024875
H -0.1342808678 3.1085190257 -0.7291184068
H -2.0484067658 0.1909293309 3.0139887076
H -2.6695732677 1.3754541674 1.8330123848
H -4.6561476938 -0.0627699489 1.4138585070
H -4.0482636738 -1.2581631688 2.5659995072
H -4.5442614580 0.3460452123 3.1336067603
H 1.7749734440 -2.8542354213 -1.2198646294
H 2.1663641942 -3.1068131651 0.5144036862
H 1.7297569621 2.6911326130 2.8925212514
H 3.1847794972 4.4629325815 1.9273849668
H 4.1954830685 4.1827700363 -0.2861524762
H 3.7871085858 2.1197653386 -1.6155152693
40
CONF401
C -5.2823540386 -0.0228242334 -1.6536587849
C -3.8318475882 -0.3978069638 -1.4305391108
O -3.5630951354 -0.2857640223 -0.0094360855
P -2.0974707786 -0.1725738680 0.5769694702
S -2.1248557599 -0.0471644331 2.5234550419
O -1.3689298635 1.0340808839 -0.2005026550
C -1.4190723586 2.3789369950 0.3142334048
C -2.8214172670 2.9487503505 0.2678276992
S -1.0909843111 -1.8007223642 -0.3127761073
C 0.4950935242 -1.5873593909 0.6146745234
H 0.2287075394 -1.2492974039 1.6259578835
C 1.2030587388 -2.9286800491 0.6477155665
Cl 2.6993841926 -2.7581148378 1.6083135481
N 1.2723099204 -0.5525604346 0.0126558456
C 1.8185209201 -0.6041151628 -1.2734227121
O 1.7537346040 -1.5610635686 -2.0074036930
C 2.4347537311 0.7161758177 -1.4908652702
C 3.1322081593 1.2124133020 -2.5733911800
C 3.5989237552 2.5228037137 -2.4935368634
C 3.3705242955 3.3003753598 -1.3683255007
C 2.6669155482 2.7999515918 -0.2748425318
C 2.2051513270 1.5016377118 -0.3533434712
C 1.4424493008 0.6955395757 0.6124208309
O 1.0165731682 0.9840772341 1.7079665444
H -5.9253661803 -0.6764329616 -1.0717008978
H -5.4596108388 1.0037697132 -1.3455933288
H -5.5193745671 -0.1293262681 -2.7072684608
H -3.1527626161 0.2662797331 -1.9715827896
H -3.6337370693 -1.4308093925 -1.7262287820
H -1.0346515510 2.3688902091 1.3394989761
H -0.7322202269 2.9316523022 -0.3296338591
H -2.8039211615 3.9718431334 0.6299427321
H -3.2044045719 2.9325118213 -0.7495268032
H -3.4779753553 2.3588021295 0.9073665209
H 0.5771951594 -3.6755020322 1.1314741918
H 1.4836865346 -3.2463153331 -0.3557945338
H 3.3043444183 0.5996099497 -3.4434992037
H 4.1477919266 2.9381246485 -3.3236184422
H 3.7435276114 4.3116109339 -1.3360507891
H 2.4850613209 3.3957298422 0.6052808992
40
CONF371
C -1.0015155284 3.3794141615 -1.2399760097
C -0.9873214056 1.9454146288 -1.7327448049
O -0.8765073776 1.0653923873 -0.5983833941
P -1.8357879002 -0.1990951075 -0.3635975523
S -3.6429334496 0.0572771524 -1.0696165227
O -1.7113574326 -0.4374509061 1.1972558269
C -2.5561621733 0.2529832707 2.1450270336
C -1.9391631312 1.5672546376 2.5750597038
S -0.8205492532 -1.8920822312 -1.0695838366
C 0.6558005433 -1.9450012365 0.0814157390
H 0.2823349638 -2.2728019853 1.0568144819
C 1.6438472092 -2.9405662748 -0.5063178620
Cl 0.8832299276 -4.5457717150 -0.5980303294
N 1.2377161301 -0.6553315746 0.2510181775
C 1.6890810436 0.1535300549 -0.7938642145
O 1.7142354970 -0.1817880855 -1.9556758757
C 2.0780653462 1.4288721753 -0.1708534651
C 2.5972511482 2.5779667782 -0.7313818641
C 2.8372995479 3.6572631028 0.1168804748
C 2.5632660646 3.5788133504 1.4738387569
C 2.0413043554 2.4174428369 2.0399291351
C 1.8038035514 1.3476442734 1.2006580428
C 1.2539634870 0.0121393615 1.4816588747
O 0.8914114814 -0.4805542927 2.5228875587
H -0.9908587028 4.0459244829 -2.0958518301
H -1.9011092052 3.5644331492 -0.6584191687
H -0.1294238223 3.5716460784 -0.6207171816
H -0.1277610516 1.7453321480 -2.3775318891
H -1.9081923019 1.7083254823 -2.2755577220
H -3.5390384531 0.4028297461 1.6853458455
H -2.6407107590 -0.4409197168 2.9827412760
H -1.8271270301 2.2291110801 1.7194245796
H -2.5842947610 2.0374716548 3.3103880187
H -0.9618365930 1.3862677477 3.0147031919
H 1.9262169613 -2.6501377191 -1.5181786622
H 2.5195922184 -3.0266119317 0.1367155361
H 2.8040750559 2.6307340973 -1.7882476735
H 3.2393984633 4.5699947885 -0.2929935149
H 2.7546995990 4.4320043109 2.1047743733
H 1.8267883674 2.3501823405 3.0943624281
40
CONF676
C -5.1524745282 -1.1569570560 1.9931772098
C -4.3287719856 -2.1987013853 1.2651242497
O -2.9906450782 -1.7362064514 0.9733408819
P -2.6476412403 -0.4803107567 0.0690125877
S -2.7235420972 1.2918207848 0.9218604455
O -3.6387635560 -0.6761253372 -1.1570166247
C -3.9031235546 0.3808702885 -2.0969601560
C -2.6819253790 0.7276406195 -2.9235366639
S -0.7425442457 -1.0950189055 -0.6247825647
C 0.2709368641 -0.0898839351 0.5537643189
H -0.2413743387 0.8782827943 0.6585975108
C 0.3315710617 -0.8247458368 1.8780361951
Cl 1.2799761585 0.1433089406 3.0371562940
N 1.5505880257 0.1729353232 -0.0144911958
C 2.5782393704 -0.7593697718 -0.1753141068
O 2.5119980899 -1.9198213650 0.1552441578
C 3.6806044623 -0.0204495226 -0.8147274905
C 4.9462757000 -0.4355727844 -1.1750697691
C 5.7869480768 0.5017853420 -1.7717602329
C 5.3671049105 1.8039120627 -1.9965565406
C 4.0890288073 2.2237756415 -1.6339546177
C 3.2563030311 1.2960484810 -1.0417697746
C 1.8756733993 1.4233412778 -0.5505381348
O 1.1175100807 2.3645098606 -0.5704965849
H -5.2994274767 -0.2836824180 1.3589184544
H -6.1202527430 -1.5762522743 2.2496050948
H -4.6465913783 -0.8387820302 2.9017435465
H -4.8037568530 -2.4865582957 0.3251929590
H -4.1606373228 -3.0816822867 1.8837630755
H -4.7094851623 -0.0154234160 -2.7154000036
H -4.2513878099 1.2582392630 -1.5426474294
H -2.9611830396 1.4325629218 -3.7000209391
H -1.9207354681 1.1861319415 -2.2921755732
H -2.2661275398 -0.1678937523 -3.3785267055
H -0.6719893313 -0.9418098134 2.2879565165
H 0.8226846453 -1.7911118217 1.7685150683
H 5.2629532516 -1.4504244554 -0.9961365581
H 6.7822797340 0.2066961307 -2.0633650160
H 6.0403858795 2.5068463269 -2.4606182246
H 3.7529997501 3.2338950330 -1.8043183141
40
CONF555
C -3.5392352860 -3.3304048982 -1.1849104797
C -4.2103094901 -2.0223003924 -0.8152668385
O -3.6758762179 -1.5244218893 0.4383906062
P -2.7105296752 -0.2870034595 0.5564166476
S -2.2144853831 -0.0414633615 2.4325363203
O -3.5809828338 0.8432067393 -0.1523143579
C -3.0857001903 2.1044575939 -0.6329337044
C -2.4151514972 2.9278690510 0.4478045898
S -1.1156540795 -0.6205000007 -0.8356263984
C 0.2851132519 -0.7254627693 0.3631242241
H -0.0628599403 -0.2192620531 1.2773694427
C 0.5867296463 -2.1842861857 0.6418170666
Cl 1.9158405877 -2.2783692252 1.8309880187
N 1.3968151582 0.0157996622 -0.1341447596
C 1.6211372002 1.3361116388 0.2674338591
O 0.9097201129 1.9309495354 1.0440538839
C 2.8229120450 1.7745877115 -0.4567744944
C 3.5114481325 2.9700896666 -0.4175421484
C 4.6330752028 3.0940621834 -1.2346018576
C 5.0413954741 2.0557117997 -2.0577912618
C 4.3451054071 0.8494909820 -2.0992501202
C 3.2350179403 0.7250630707 -1.2892320725
C 2.3011420859 -0.4015751533 -1.1146644668
O 2.2641817466 -1.4683946898 -1.6799880125
H -3.6245394955 -4.0359453466 -0.3632249428
H -4.0272845594 -3.7429469430 -2.0621290559
H -2.4871238933 -3.1706698658 -1.4073868072
H -5.2759734357 -2.1615904002 -0.6274930889
H -4.0689416680 -1.2684293373 -1.5921108913
H -2.3948942936 1.9105455304 -1.4588978850
H -3.9820594600 2.6012423875 -1.0090054572
H -1.4817165134 2.4664196818 0.7699348290
H -2.1963361169 3.9183872063 0.0616473933
H -3.0674255716 3.0167538478 1.3133609166
H -0.2841329441 -2.6650709520 1.0865312988
H 0.9109329083 -2.7049760528 -0.2584008923
H 3.1852894874 3.7715626189 0.2255628288
H 5.1920034305 4.0161721374 -1.2252293696
H 5.9135305728 2.1821641449 -2.6792320044
H 4.6537502882 0.0368282447 -2.7368418362
40
CONF43
C -3.7361101955 1.4737487236 2.0907585069
C -2.4975321229 0.6588184563 2.3902197686
O -2.2681034276 -0.3540896697 1.3861691703
P -1.9782605721 -0.0107618911 -0.1248402323
S -0.9901090389 1.6529822334 -0.5007973253
O -3.4269865772 -0.0780287575 -0.7684539251
C -3.6794278141 0.2374806625 -2.1538887202
C -4.2138345529 1.6504875785 -2.2879857882
S -1.1349771513 -1.8327282561 -0.7865748039
C 0.3520461985 -1.8707016934 0.3289571219
H -0.0274976891 -1.8346847378 1.3567580938
C 1.0800281339 -3.1725157033 0.0510228817
Cl 2.4526545502 -3.3107787001 1.1846962239
N 1.1660126655 -0.7163778751 0.1439240763
C 1.9159821656 -0.4124218111 -0.9959835608
O 1.9912664598 -1.1199500841 -1.9735073742
C 2.5297312770 0.8969717268 -0.7244094925
C 3.3781730033 1.6642867141 -1.4958050623
C 3.7862488878 2.8913744781 -0.9788073075
C 3.3536848819 3.3273982207 0.2641745226
C 2.4953911329 2.5549608325 1.0426711011
C 2.0928796936 1.3385428709 0.5316320544
C 1.1944089528 0.3172177844 1.0856489900
O 0.5927452591 0.2793981026 2.1368966773
H -4.5938302494 0.8183372660 1.9638764187
H -3.9209075738 2.1615122193 2.9098788894
H -3.5887269543 2.0442468341 1.1743121624
H -2.5953271715 0.0852551785 3.3126886082
H -1.6072843912 1.2921411852 2.4486926944
H -2.7586690889 0.1098074503 -2.7298088091
H -4.4152303802 -0.5006836853 -2.4774494029
H -4.4617796381 1.8411942111 -3.3270711846
H -5.1037766835 1.7721169797 -1.6770316918
H -3.4618193898 2.3677565333 -1.9660528832
H 0.4184948902 -4.0197997798 0.2180113830
H 1.4805796372 -3.1858785596 -0.9618999214
H 3.7048929573 1.3175956524 -2.4629980127
H 4.4478084358 3.5141849168 -1.5595822358
H 3.6831589942 4.2844966738 0.6360189721
H 2.1483237869 2.8884346703 2.0073089868
40
CONF202
C -0.4715179139 2.1042306421 -2.1864256260
C -1.1191991757 2.3542334296 -0.8395441225
O -1.2055563672 1.1595153950 -0.0452134938
P -2.1932594256 -0.0404240140 -0.4519601088
S -3.7615215061 0.5251989220 -1.4789863526
O -2.4248816984 -0.7912020104 0.9213665264
C -2.8223098135 -0.1800429714 2.1705427854
C -3.9806980634 0.7808206954 2.0190885710
S -1.0167032940 -1.5003799388 -1.4173388000
C 0.2529723371 -1.8363545415 -0.0936276276
H -0.2962676702 -2.0165697665 0.8359073994
C 1.0246492600 -3.0662568104 -0.5323543252
Cl 2.1981646390 -3.4903444286 0.7468391144
N 1.0796261283 -0.6939602065 0.1159943169
C 0.9902042885 0.0857739537 1.2716534602
O 0.2850622325 -0.1831315290 2.2168451217
C 1.9094246225 1.2146321159 1.0649871916
C 2.2139356097 2.2876344547 1.8778193213
C 3.1308615963 3.2200584455 1.3970948411
C 3.7179898347 3.0743364349 0.1493621069
C 3.4125183892 1.9901911122 -0.6706254995
C 2.5028900687 1.0674415184 -0.1955086781
C 1.9667358164 -0.1565175225 -0.8189125082
O 2.1967089690 -0.6340836875 -1.9052640182
H -1.0849073349 1.4147565539 -2.7664489938
H -0.3935170969 3.0426856531 -2.7255049329
H 0.5206776640 1.6744547400 -2.0727718146
H -2.1309952751 2.7470590756 -0.9808530963
H -0.5324576465 3.0392154380 -0.2252738773
H -3.0917020847 -1.0356324637 2.7923524936
H -1.9428026367 0.3142716419 2.5905612481
H -3.6929811576 1.6257228675 1.3945593453
H -4.8288381669 0.2831206238 1.5537082847
H -4.2714271511 1.1465623844 2.9989345766
H 0.3514143427 -3.9102861059 -0.6639714132
H 1.5836530313 -2.8711631162 -1.4466164732
H 1.7529069035 2.3925969710 2.8467877079
H 3.3869387603 4.0703814871 2.0087843685
H 4.4240457301 3.8128222566 -0.1952327909
H 3.8630206178 1.8682823951 -1.6425881286
40
CONF639
C -5.6291940293 -0.2877037170 0.1170125621
C -4.3160676676 -1.0164228132 0.3236629301
O -3.2505417830 -0.1746120465 -0.1609753221
P -1.8050864240 -0.1529070689 0.5002117257
S -1.8337417963 -0.1983886361 2.4635716440
O -1.1735163690 1.1288917517 -0.1907305465
C -1.4818119526 2.4555227745 0.3070399483
C -1.1884591967 3.4449216237 -0.8005796640
S -0.7727608936 -1.6805782140 -0.4995298762
C 0.8200020977 -1.5024695575 0.4403026582
H 0.5446458275 -1.2669102451 1.4774252877
C 1.6036482141 -2.8013764205 0.3598991297
Cl 0.7373388691 -4.0655140064 1.2631178731
N 1.5482671363 -0.3879831232 -0.0776152200
C 1.5629127493 0.8528446626 0.5654410933
O 1.1038231119 1.0490966635 1.6675475295
C 2.2272772820 1.7778342176 -0.3643882979
C 2.5354317256 3.1172145376 -0.2330402537
C 3.1590102652 3.7433546327 -1.3103365160
C 3.4608788610 3.0462676503 -2.4705762978
C 3.1523703204 1.6938719205 -2.6024665156
C 2.5329015527 1.0729321051 -1.5366029366
C 2.0744058109 -0.3165586296 -1.3738909863
O 2.1108681503 -1.2435350402 -2.1461824645
H -5.6502688064 0.6233694748 0.7088686917
H -5.7492017366 -0.0316844208 -0.9316798286
H -6.4448938355 -0.9326488869 0.4265996828
H -4.2827756894 -1.9494634307 -0.2435637681
H -4.1401549993 -1.2303039321 1.3835583369
H -2.5335633412 2.4843640626 0.6026505380
H -0.8597194440 2.6259999026 1.1910875111
H -1.8150597342 3.2316482059 -1.6618093897
H -1.3954306467 4.4478563396 -0.4419920297
H -0.1455969060 3.3751938814 -1.0976071091
H 1.7041050467 -3.1337622986 -0.6727750311
H 2.5812720937 -2.6773691427 0.8254816001
H 2.2958155889 3.6507429021 0.6728424763
H 3.4079250137 4.7900161578 -1.2383853037
H 3.9421970551 3.5589624997 -3.2879701001
H 3.3820851562 1.1431184011 -3.5002161450
40
CONF627
C -2.2000353325 -1.9068237504 -2.9753329702
C -2.3815839699 -0.6898610215 -2.0942707627
O -1.8415846479 -1.0113365895 -0.7902863716
P -2.0403554848 -0.0206118094 0.4247964473
S -3.8698699798 0.5822686178 0.7730401305
O -1.0406547085 1.1779246805 0.0465933101
C -1.1718318407 2.5090664359 0.5787988983
C -0.9573249462 3.5049423694 -0.5437722193
S -1.1525021947 -1.1134525615 1.9753905295
C 0.5377918605 -1.6036895848 1.3110289503
H 1.0998752288 -1.7186790399 2.2460491941
C 0.4124412048 -2.9245319154 0.5862309864
Cl 2.0490939303 -3.5204615267 0.1867775147
N 1.1448409422 -0.5517818607 0.5677645697
C 1.6741780523 0.5520469030 1.2506992164
O 1.6741599501 0.6550735849 2.4555933948
C 2.1657622898 1.4740950618 0.2191886510
C 2.7798095757 2.7059561382 0.3281812603
C 3.1194150340 3.3616381924 -0.8529696886
C 2.8512256537 2.7970915974 -2.0912685634
C 2.2310170158 1.5539196573 -2.2001546360
C 1.8931103374 0.9053616870 -1.0299425076
C 1.2199694735 -0.3898413469 -0.8207998788
O 0.8185593139 -1.1688776346 -1.6504508660
H -2.5894576373 -1.6915238833 -3.9648709564
H -1.1424294664 -2.1472363780 -3.0466348607
H -2.7321185671 -2.7556485958 -2.5554808647
H -3.4358511097 -0.4223257820 -1.9701403959
H -1.8340845053 0.1706594511 -2.4864225702
H -2.1710234081 2.6151730808 1.0146544695
H -0.4221007818 2.6214803548 1.3667503177
H 0.0135219355 3.3474997771 -1.0056543569
H -1.7326186945 3.3889810703 -1.2963787826
H -1.0038800334 4.5093124399 -0.1364406377
H -0.0557722692 -3.6576571166 1.2400798169
H -0.1377955869 -2.8260244563 -0.3476503768
H 2.9830782313 3.1361119092 1.2956283356
H 3.5975818404 4.3266392729 -0.8012889058
H 3.1243300792 3.3298359316 -2.9881599486
H 2.0172780877 1.1082633827 -3.1583827842
40
CONF343
C -0.3087083775 2.0803921521 -2.4877548630
C -0.8094209647 2.4466906562 -1.1050527055
O -0.8247534642 1.3191726684 -0.2124821339
P -1.8239027632 0.0780127301 -0.4401794301
S -3.5043707889 0.6006504340 -1.3004239195
O -1.9146853136 -0.5282310127 1.0199765580
C -2.6199707013 0.1430036272 2.0896864319
C -4.0057483101 -0.4445326270 2.2598291527
S -0.7164211394 -1.4537185385 -1.3462570753
C 0.5559201169 -1.7927649435 -0.0161778970
H 0.0050700379 -2.1152170580 0.8725393417
C 1.4743345615 -2.8882917434 -0.5332199218
Cl 0.5472810727 -4.3933244898 -0.7363782651
N 1.2694206694 -0.6047167192 0.3213626675
C 2.0370916345 0.1387747536 -0.5784436161
O 2.2846051311 -0.2032207030 -1.7110750518
C 2.4268168979 1.3603466363 0.1445127786
C 3.1786685554 2.4428229335 -0.2650990396
C 3.3647694389 3.4796288020 0.6468741594
C 2.8154092457 3.4250655673 1.9189040330
C 2.0564565355 2.3320166398 2.3326555357
C 1.8705172043 1.3055097380 1.4291720862
C 1.1168783718 0.0482085140 1.5502882406
O 0.4938380979 -0.3994199165 2.4835427721
H -0.9945045429 1.3696642075 -2.9493245480
H -0.2654280910 2.9744913191 -3.1009963550
H 0.6785030581 1.6276862955 -2.4436675579
H -1.8260822085 2.8468333828 -1.1689702137
H -0.1538120259 3.1649510525 -0.6100657074
H -1.9947153501 -0.0245854058 2.9694135432
H -2.6673202770 1.2130542952 1.8709557354
H -3.9380345366 -1.5149109121 2.4326854552
H -4.4924826226 0.0274708459 3.1071722315
H -4.5992174320 -0.2705832872 1.3644795134
H 1.8907673524 -2.6198925076 -1.5039023993
H 2.2654626612 -3.0856949448 0.1900717108
H 3.6008966477 2.4766441073 -1.2565671552
H 3.9457701461 4.3399371807 0.3552904432
H 2.9755034573 4.2436837804 2.6023321822
H 1.6244543972 2.2823114955 3.3191601135
40
CONF266
C -0.7293455747 3.1025166424 -2.4385106541
C -0.8052108450 1.5904145489 -2.3671360477
O -0.7050345228 1.1874170976 -0.9861838199
P -1.7649709927 0.2093244522 -0.3117579269
S -3.6260614367 0.4871826936 -0.8459060683
O -1.3988133008 0.5724092602 1.1897573012
C -2.3374695163 0.3593288569 2.2617031482
C -2.3058074713 -1.0714905892 2.7604411790
S -1.1058116895 -1.7670545813 -0.6883702790
C 0.5124046410 -1.8781663160 0.2568995255
H 0.2488957658 -2.1751825252 1.2771706737
C 1.3541412945 -2.9444152299 -0.4257391461
Cl 0.4744380714 -4.4905467187 -0.3892190595
N 1.1794933509 -0.6232845122 0.3327362859
C 1.3140052841 0.0821966986 1.5362305058
O 0.9830418846 -0.3570207252 2.6113290205
C 1.9412497623 1.3612394659 1.1759543027
C 2.2917157427 2.4417623642 1.9599640774
C 2.8663151528 3.5401851089 1.3244542447
C 3.0814588343 3.5471285053 -0.0453235480
C 2.7296793742 2.4560138443 -0.8370132086
C 2.1582909149 1.3690779451 -0.2081172974
C 1.6604490259 0.0988204858 -0.7601621634
O 1.6494305639 -0.3011131628 -1.9024347035
H -0.7341080420 3.4086352860 -3.4793967737
H -1.5857860149 3.5401603752 -1.9319191632
H 0.1809690320 3.4519813749 -1.9596320107
H 0.0264148954 1.1153218365 -2.8955887966
H -1.7515804002 1.2255595677 -2.7801833963
H -2.0162799895 1.0562528172 3.0368938432
H -3.3373231483 0.6305847713 1.9065379430
H -2.9940669442 -1.1735749569 3.5933040025
H -2.6084316980 -1.7543141419 1.9672325557
H -1.3022178525 -1.3241800865 3.0948768562
H 1.5333826617 -2.6896419223 -1.4700062808
H 2.2934842496 -3.0845860082 0.1087671477
H 2.1204951751 2.4277102684 3.0242813859
H 3.1468326056 4.4008309282 1.9105317234
H 3.5271591011 4.4128750121 -0.5088753096
H 2.8943185562 2.4520676064 -1.9027705864
40
CONF380
C -4.4205072611 -1.2364263160 -2.0175576064
C -3.8944179449 -2.2835267504 -1.0609444651
O -3.6039402565 -1.7492113267 0.2538763389
P -2.6913795970 -0.5109430845 0.5920667317
S -2.1773373207 -0.5156360115 2.4813943345
O -3.6023580891 0.7196954521 0.1561000590
C -3.3965496760 2.0544559455 0.6431172941
C -2.1004726404 2.6612870981 0.1427705559
S -1.1038637191 -0.6011636507 -0.8424264144
C 0.3237183056 -0.7727542920 0.3169700219
H -0.0066879840 -0.3559694039 1.2804932771
C 0.6622824095 -2.2442489339 0.4564255906
Cl 2.0363577852 -2.4162101034 1.5842456676
N 1.4120764452 0.0269332580 -0.1397500516
C 1.7026900253 1.2659268745 0.4368683777
O 1.0679000425 1.7488213353 1.3464276562
C 2.8613599915 1.7872533985 -0.3027904870
C 3.5793384051 2.9548950506 -0.1424137424
C 4.6420463589 3.1821176280 -1.0142274654
C 4.9653612948 2.2696639600 -2.0068533830
C 4.2396243554 1.0914071309 -2.1699802585
C 3.1876748808 0.8647010495 -1.3063147017
C 2.2423179737 -0.2626979658 -1.2258322804
O 2.1442531984 -1.2432861561 -1.9244884835
H -5.2828600828 -0.7326041913 -1.5894355787
H -3.6467115538 -0.4993584946 -2.2250893505
H -4.7081124108 -1.7177696841 -2.9471655297
H -2.9817611399 -2.7403061639 -1.4517723225
H -4.6379719395 -3.0547914779 -0.8549590185
H -4.2632645358 2.6017033202 0.2693409259
H -3.4125206120 2.0340493099 1.7373593442
H -2.0830724145 3.7188866839 0.3860488328
H -1.2464115086 2.1866149796 0.6256736986
H -2.0160086450 2.5389222944 -0.9343869762
H -0.1820591728 -2.7823618763 0.8866463623
H 0.9610017689 -2.6746970912 -0.4987304507
H 3.3190017320 3.6582286452 0.6320826164
H 5.2217069491 4.0857934046 -0.9135499623
H 5.7930964966 2.4742254732 -2.6670056989
H 4.4824035429 0.3765629438 -2.9395485477
40
CONF93
C -4.2706168347 0.0655728981 2.3836501717
C -2.9112029962 -0.5576285399 2.1458307007
O -2.0398510677 0.3671199527 1.4423010291
P -1.8427444122 0.3788419884 -0.1140507728
S -0.7229389196 1.8727341647 -0.7071284831
O -3.3234293507 0.4100151578 -0.6832674219
C -3.5768762487 0.4990624672 -2.1012993848
C -5.0316418368 0.8779616524 -2.2889573353
S -1.2428892352 -1.5977495355 -0.6633380990
C 0.2802232423 -1.7280141319 0.3897572710
H -0.0429594617 -1.6620349960 1.4355020247
C 0.9056495574 -3.0780005867 0.0881533941
Cl 2.3160960973 -3.3057628850 1.1613164554
N 1.1652462109 -0.6343215361 0.1668750196
C 1.3445796401 0.3702631164 1.1243496767
O 0.8015005071 0.3628416545 2.2061334614
C 2.2954281329 1.3194533783 0.5307613880
C 2.8316152575 2.4864969984 1.0336248180
C 3.7040820824 3.1990951501 0.2145817031
C 4.0195147944 2.7540039389 -1.0598264491
C 3.4756848626 1.5772482668 -1.5691448435
C 2.6145369867 0.8688525865 -0.7572870247
C 1.8714706634 -0.3754310497 -1.0109049742
O 1.8255342217 -1.0703193966 -1.9992385364
H -4.8748484024 -0.6181857968 2.9717329071
H -4.1609290366 1.0026493471 2.9224324859
H -4.7654675989 0.2610737122 1.4363065250
H -2.9957961668 -1.4790657361 1.5630926207
H -2.3897957143 -0.7515941260 3.0853076727
H -2.9054782090 1.2515485972 -2.5275016723
H -3.3535819470 -0.4736499173 -2.5477142258
H -5.6733793108 0.1250669431 -1.8409337707
H -5.2301779696 1.8378618687 -1.8206462115
H -5.2459313321 0.9466507206 -3.3502833583
H 0.1970418259 -3.8788837265 0.2883991695
H 1.2588129339 -3.1206134627 -0.9415039596
H 2.5728982453 2.8280849848 2.0229405691
H 4.1369665515 4.1168537486 0.5796160187
H 4.6945530917 3.3306453678 -1.6719301475
H 3.7093250986 1.2255677115 -2.5611448779
40
CONF432
C -2.9843212284 0.1494201981 -2.1869161396
C -3.2774072225 -0.9101507098 -1.1469267004
O -2.1748194026 -1.0659143370 -0.2264399285
P -1.9130495463 -0.0367420977 0.9422298249
S -3.4980102731 0.6734636271 1.8439171153
O -1.0089598025 1.0923435550 0.2473902043
C -0.7941985163 2.3773077239 0.8598152844
C -0.7919911970 3.4398906547 -0.2213230062
S -0.6205429154 -1.1386999812 2.1806851475
C 0.7863821357 -1.6942287114 1.0668955870
H 1.5716550004 -1.8815903217 1.8100014672
C 0.3877591603 -2.9720579723 0.3635117160
Cl 1.8163320717 -3.6292649095 -0.4859104350
N 1.2450067898 -0.6496180081 0.2157640196
C 0.8867855777 -0.3917319837 -1.1128057664
O 0.1479520676 -1.0631867174 -1.7911895062
C 1.6080480231 0.8395088204 -1.4828469100
C 1.6291449472 1.5356297933 -2.6742553525
C 2.3972309249 2.6970879484 -2.7280741986
C 3.1143118014 3.1373097996 -1.6253660838
C 3.0953453003 2.4332416948 -0.4236939602
C 2.3345924184 1.2820756708 -0.3713778693
C 2.0981103929 0.3373308364 0.7281314835
O 2.5067535571 0.3431773400 1.8662820535
H -3.7731279982 0.1503335518 -2.9323648873
H -2.9342723044 1.1296265988 -1.7170940434
H -2.0309187140 -0.0648096874 -2.6638360102
H -3.3825859517 -1.8976387032 -1.5977709792
H -4.1746716496 -0.6634450857 -0.5698396145
H -1.5933222014 2.5570798918 1.5872098172
H 0.1641018610 2.3392415861 1.3867524579
H -0.0395277056 3.2122719550 -0.9709284984
H -1.7662713303 3.4876722681 -0.6996618124
H -0.5710734535 4.4007071064 0.2314285194
H 0.0688478704 -3.7110759678 1.0958694521
H -0.3851082992 -2.8013641193 -0.3836244584
H 1.0669641679 1.1877240306 -3.5258982110
H 2.4306307353 3.2642718836 -3.6445532219
H 3.6970417791 4.0416004702 -1.6971408134
H 3.6491152338 2.7662574190 0.4392380691
40
CONF92
C -4.3224839502 0.1500673107 2.3325887149
C -2.9586089857 -0.4794482823 2.1415397566
O -2.0737942701 0.4218451949 1.4240067002
P -1.8494924939 0.3820261724 -0.1281980380
S -0.7177554771 1.8538674637 -0.7538740719
O -3.3197382936 0.3948353875 -0.7246780788
C -3.5456141093 0.4342278134 -2.1495972924
C -5.0022332370 0.7819792834 -2.3782612948
S -1.2406316509 -1.6118389234 -0.5994463632
C 0.2690760724 -1.6952469780 0.4764998829
H -0.0643801929 -1.5643497967 1.5129068300
C 0.8849434817 -3.0660951437 0.2623766098
Cl 2.2845515694 -3.2399833240 1.3596728757
N 1.1665020526 -0.6243313006 0.1990536282
C 1.8882462239 -0.4421248224 -0.9832241112
O 1.8485121511 -1.1948383593 -1.9286801298
C 2.6379957034 0.8098688859 -0.7960358529
C 3.5159663252 1.4604008432 -1.6378673095
C 4.0647153051 2.6608263638 -1.1933705151
C 3.7376655246 3.1846607735 0.0477629762
C 2.8485230290 2.5303789815 0.8969496763
C 2.3073669437 1.3399079038 0.4584243933
C 1.3422490495 0.4349611892 1.0967513569
O 0.7890306399 0.4942325646 2.1718572536
H -4.7978426703 0.3166672340 1.3698439443
H -4.9387652232 -0.5160437832 2.9284295349
H -4.2238740157 1.1029784372 2.8450842980
H -3.0319551275 -1.4198972547 1.5883908432
H -2.4554403618 -0.6417252366 3.0968213967
H -2.8779638368 1.1841357294 -2.5860456194
H -3.2972275947 -0.5480985806 -2.5604076859
H -5.1948961508 0.8164403271 -3.4453787527
H -5.6405196788 0.0311137799 -1.9220794306
H -5.2270126307 1.7512621237 -1.9423118574
H 0.1679219110 -3.8476460843 0.5045475022
H 1.2462580521 -3.1736760243 -0.7596854516
H 3.7591191326 1.0468767411 -2.6034067600
H 4.7534479992 3.1930994187 -1.8299607597
H 4.1749562540 4.1187592961 0.3626606667
H 2.5809305950 2.9333992411 1.8604457261
40
CONF412
C -4.5376460080 -1.5287182030 -1.1491186493
C -4.0251805683 -0.1137565154 -0.9753476974
O -3.5808072207 0.1033676712 0.3887482613
P -2.0634550532 0.0356901010 0.8346812216
S -1.9194896117 0.3506013178 2.7561932774
O -1.2773631653 1.0821306077 -0.1053301755
C -1.3786714986 2.4954470479 0.1811128358
C -1.1318790633 3.2570318322 -1.1049400024
S -1.2933894907 -1.7503974920 0.0375865509
C 0.4008421080 -1.5609085481 0.7555084616
H 0.2726903351 -1.1707250816 1.7746789265
C 1.0575432998 -2.9286527515 0.7595445841
Cl 2.6640843530 -2.7866380216 1.5295312685
N 1.1356613908 -0.5858629858 0.0166251421
C 1.4700241031 -0.6959371487 -1.3363409637
O 1.2474394808 -1.6672743680 -2.0186186807
C 2.1015043081 0.5868011157 -1.6906993538
C 2.6317972408 1.0254946660 -2.8870507673
C 3.1590777452 2.3146877657 -2.9242654282
C 3.1523729985 3.1275002868 -1.8006667800
C 2.6174160051 2.6852662505 -0.5925039620
C 2.0936779357 1.4086261532 -0.5559033457
C 1.4535327504 0.6670431987 0.5419697114
O 1.2172185753 1.0068235350 1.6792600408
H -5.3150667463 -1.7333789459 -0.4185643032
H -4.9453156316 -1.6382616072 -2.1490662448
H -3.7296752428 -2.2449183264 -1.0127959187
H -4.8233427645 0.6165837992 -1.1190564851
H -3.1988113725 0.0956918976 -1.6592870365
H -2.3729661727 2.7035766244 0.5890743136
H -0.6336888832 2.7306476426 0.9472656663
H -1.8940381799 3.0116871112 -1.8391622144
H -1.1643426269 4.3210835783 -0.8954457683
H -0.1564787743 2.9995126332 -1.5089382614
H 0.4671513198 -3.6320568992 1.3427825520
H 1.2042000889 -3.2924644625 -0.2568207223
H 2.6320263041 0.3860915501 -3.7550062960
H 3.5790013717 2.6859273434 -3.8454003609
H 3.5662060812 4.1213884133 -1.8602915414
H 2.6056456648 3.3097888544 0.2863975477
40
CONF586
C -4.1696927014 -1.1898960497 -1.3762052910
C -2.7402410193 -0.7026356231 -1.4895512890
O -2.0155883735 -0.9593291681 -0.2631413648
P -1.8527174990 0.1451251636 0.8552548187
S -3.4709854114 0.9522759123 1.6048324948
O -0.9011786905 1.2140159588 0.1265961533
C -0.8009991072 2.5883839149 0.5422473826
C -0.7998226798 3.4720433620 -0.6894073509
S -0.6795776993 -0.8928313190 2.2476745765
C 0.7765700786 -1.5620684604 1.2644378248
H 1.5353500633 -1.6456291215 2.0523509930
C 0.4125149542 -2.9226182665 0.7146505270
Cl 1.8738316623 -3.6656788159 0.0029527068
N 1.2536582021 -0.6231258463 0.3060891149
C 0.9859535170 -0.5621374050 -1.0658185475
O 0.3253811030 -1.3515011752 -1.6973561064
C 1.6821917844 0.6435323693 -1.5503005053
C 1.7592914859 1.1766807115 -2.8207465274
C 2.4814485176 2.3577911678 -2.9803708915
C 3.0996480599 2.9746415994 -1.9027160670
C 3.0225446436 2.4356540050 -0.6205101725
C 2.3074525471 1.2649915800 -0.4634097812
C 2.0257719259 0.4656121193 0.7357438368
O 2.3433258557 0.6459876544 1.8883537693
H -4.6748663406 -1.0373923251 -2.3246167849
H -4.1864533866 -2.2465592439 -1.1248729110
H -4.6941109042 -0.6368724508 -0.5994851669
H -2.7022579562 0.3673633182 -1.7083371559
H -2.1798662127 -1.2502764420 -2.2502375336
H -1.6506200332 2.8201574952 1.1937364386
H 0.1266620167 2.6907642042 1.1120787974
H -1.7420058109 3.3709320311 -1.2213788009
H -0.6753676955 4.5046461072 -0.3808858400
H 0.0145486180 3.1925664468 -1.3521643118
H 0.0749663249 -3.5665327984 1.5243990903
H -0.3371407047 -2.8576318885 -0.0717376136
H 1.2734093009 0.6914085402 -3.6518795219
H 2.5568689226 2.8005051308 -3.9607428370
H 3.6487649239 3.8895197852 -2.0575646580
H 3.4988854652 2.9072760445 0.2238403278
40
CONF42
C -3.6987902211 1.4118412593 2.2136716880
C -2.4501397008 0.5950823740 2.4619510047
O -2.2415753977 -0.3894820237 1.4257615046
P -1.9813773330 -0.0022735714 -0.0800632614
S -0.9954751946 1.6703975249 -0.4213130274
O -3.4432658076 -0.0460701309 -0.6951118756
C -3.7176388208 0.2804684674 -2.0738296660
C -4.2088412881 1.7100322963 -2.1965648990
S -1.1575483268 -1.8052288706 -0.8145076428
C 0.3530944338 -1.8796371421 0.2666478850
H -0.0037215475 -1.8755928853 1.3031733849
C 1.0727330448 -3.1726708858 -0.0682885773
Cl 2.4721361852 -3.3458428891 1.0273382432
N 1.1648326288 -0.7210287631 0.1000343267
C 1.2173849127 0.2818175007 1.0734728753
O 0.6397231018 0.2114837786 2.1364397104
C 2.1053658651 1.3187853656 0.5315321105
C 2.5236807765 2.5169230192 1.0721482396
C 3.3647501085 3.3128870868 0.2985357932
C 3.7650688853 2.9173857373 -0.9685527856
C 3.3411065435 1.7087254345 -1.5153184270
C 2.5102783069 0.9178067650 -0.7486298437
C 1.8872794637 -0.3811382368 -1.0474631628
O 1.9367451765 -1.0567259815 -2.0489512392
H -3.8673141662 2.0768062479 3.0548398597
H -3.5753612337 2.0069311519 1.3093929523
H -4.5563820847 0.7557979463 2.0893624992
H -2.5233998221 -0.0031286583 3.3708734109
H -1.5613035285 1.2307909116 2.5158926812
H -2.8154589762 0.1222630369 -2.6711973297
H -4.4846526493 -0.4331008889 -2.3795832974
H -5.0822382432 1.8595330254 -1.5682372362
H -3.4283994187 2.4027224632 -1.8888537266
H -4.4708079540 1.9097784123 -3.2304770745
H 0.4145978313 -4.0244906601 0.0886300732
H 1.4488083155 -3.1551180217 -1.0904906332
H 2.2013885305 2.8191433407 2.0554977536
H 3.7061352930 4.2564233979 0.6935649080
H 4.4136112744 3.5577933378 -1.5448525725
H 3.6427086723 1.3935638008 -2.5012856161
40
CONF254
C -0.7265530622 0.6867425516 -3.3954335024
C -0.8413751981 1.7452636424 -2.3165764172
O -0.6493135176 1.1957177018 -0.9984362384
P -1.7402079702 0.2456282352 -0.3378081369
S -3.5774879576 0.5160824563 -0.9562018437
O -1.4101570128 0.6377900855 1.1681073257
C -2.1549528699 0.0667760900 2.2637652070
C -3.2721172210 0.9951099380 2.6956609705
S -1.0858901006 -1.7567265780 -0.5480837913
C 0.4847727906 -1.8056511005 0.4793274884
H 0.1715696725 -1.9597998194 1.5175080838
C 1.3082347860 -2.9800187824 -0.0253274494
Cl 0.3793912669 -4.4816719342 0.1954147229
N 1.2004651971 -0.5758477021 0.4265325521
C 1.3196106828 0.2692317522 1.5376305006
O 0.9414670271 -0.0247507892 2.6472694777
C 2.0045506567 1.4729943805 1.0475058844
C 2.3623715880 2.6331947658 1.7037661678
C 3.0031660826 3.6224997949 0.9610494671
C 3.2740119983 3.4478025061 -0.3875430193
C 2.9141704212 2.2763847761 -1.0503179302
C 2.2780545891 1.2972062578 -0.3154667306
C 1.7615525182 -0.0186775093 -0.7240335321
O 1.7908499023 -0.5645702682 -1.8022016533
H -0.7967176645 1.1575918390 -4.3704855736
H 0.2218545835 0.1603561630 -3.3153838549
H -1.5371250020 -0.0346530162 -3.2913879269
H -1.8251351032 2.2235978137 -2.3516879379
H -0.0567315746 2.4984244320 -2.4012551651
H -2.5534464546 -0.9086596641 1.9634342732
H -1.4145087431 -0.0665585591 3.0573731624
H -3.7746843740 0.5698547482 3.5583576193
H -2.8665483838 1.9683644639 2.9561964048
H -3.9910685131 1.1177227205 1.8883189984
H 1.5235796253 -2.8761346983 -1.0884744174
H 2.2278686384 -3.0718475060 0.5522784642
H 2.1470100029 2.7609660056 2.7523702831
H 3.2920189543 4.5412900122 1.4461174150
H 3.7709704999 4.2323354054 -0.9357122977
H 3.1211670629 2.1311562635 -2.0985747034
40
CONF626
C -2.8997232098 -1.9887213062 -2.1913157913
C -2.7990239510 -0.6757354570 -1.4456726227
O -2.0114769602 -0.9096552649 -0.2539247520
P -1.8815644806 0.2137281254 0.8505978918
S -3.5517523458 1.0058603282 1.4943983488
O -0.9121733446 1.2753457593 0.1354870609
C -0.8519280076 2.6649356756 0.5068824417
C -0.8466493028 3.5058114632 -0.7544071191
S -0.7538499434 -0.7891377233 2.3026182958
C 0.7183387264 -1.4941093790 1.3662680069
H 1.4659738350 -1.5447801252 2.1673859463
C 0.3605029986 -2.8759154627 0.8682429993
Cl 1.8317113610 -3.6526690237 0.2157583351
N 1.2033488155 -0.5923494541 0.3768948464
C 0.9839122085 -0.6064365261 -1.0056431485
O 0.3744457653 -1.4469969417 -1.6207961054
C 1.6590600871 0.5979056078 -1.5235086888
C 1.7645903320 1.0729295541 -2.8147643608
C 2.4544254137 2.2684623607 -3.0065761425
C 3.0147347837 2.9552470312 -1.9396425613
C 2.9093560722 2.4746986395 -0.6364015705
C 2.2257764275 1.2900614180 -0.4475158226
C 1.9235915470 0.5412140808 0.7786586301
O 2.1894281935 0.7896715224 1.9319020547
H -3.4778531426 -1.8403826220 -3.0973665141
H -1.9025968574 -2.3353073599 -2.4500880892
H -3.3873995703 -2.7350026885 -1.5708228276
H -3.7796140965 -0.2987168751 -1.1377796439
H -2.2916166448 0.0844222626 -2.0446679337
H -1.7196989071 2.8985336091 1.1328978362
H 0.0616200954 2.8065465791 1.0905778991
H -0.7448107795 4.5504620950 -0.4803413182
H -0.0170406084 3.2181039022 -1.3944918434
H -1.7786377449 3.3685140121 -1.2962145393
H 0.0067087927 -3.4838019746 1.6985989645
H -0.3755461297 -2.8420667378 0.0671524663
H 1.3245768171 0.5331666830 -3.6379038467
H 2.5506047343 2.6668916785 -4.0039904600
H 3.5398340830 3.8796028319 -2.1195714525
H 3.3402365364 3.0012115081 0.1999212578
40
CONF251
C -5.5384794679 0.2575367014 1.2804901944
C -4.0876104434 -0.0981249801 1.5347464994
O -3.3754884644 0.0423673799 0.2874255469
P -1.7920260384 0.1035116272 0.2246452070
S -0.9860893099 1.4118149831 1.4584042216
O -1.5291581521 0.3842692207 -1.3081074807
C -1.4475929008 1.7212328403 -1.8466504207
C -2.7855358590 2.4272740366 -1.8055112786
S -1.3132648393 -1.9429728127 0.3747038686
C 0.5209114293 -1.9233156858 0.7239929342
H 0.6387753770 -1.8799946515 1.8130761830
C 1.0758320716 -3.2170527412 0.1533653362
Cl 2.8144351558 -3.3200574444 0.5551882345
N 1.1425340446 -0.7579586946 0.1938644628
C 1.7691655601 0.1891310110 1.0219363696
O 1.9162588162 0.0445364270 2.2115001469
C 2.2173975832 1.2596341333 0.1186082874
C 2.8385903834 2.4612978467 0.3905288007
C 3.1401829440 3.2889914683 -0.6884550438
C 2.8332623250 2.9172623331 -1.9888280999
C 2.2085708303 1.7034960121 -2.2637946148
C 1.9035466979 0.8852293661 -1.1948014888
C 1.2332392987 -0.4257696257 -1.1568446911
O 0.8286842143 -1.1175721960 -2.0634261639
H -6.1028443362 0.1253934511 2.1976361172
H -5.6211842889 1.2901816628 0.9541169714
H -5.9461969157 -0.3896172664 0.5095997384
H -3.9833885631 -1.1323168777 1.8733901917
H -3.6308143094 0.5692631079 2.2731384108
H -0.6979937292 2.2802136928 -1.2758956922
H -1.0976486018 1.5641408439 -2.8677505700
H -3.0769016608 2.6010331492 -0.7706920664
H -2.7027367535 3.3818354498 -2.3155483106
H -3.5452627116 1.8193528917 -2.2889847977
H 0.5747221403 -4.0736177734 0.5990824088
H 0.9828699477 -3.2338059408 -0.9318541690
H 3.0688871116 2.7403347939 1.4059611374
H 3.6211875532 4.2366129383 -0.5057782701
H 3.0806731937 3.5791293422 -2.8032855330
H 1.9666561383 1.4037776003 -3.2708137137
40
CONF677
C -5.1147417928 -1.1445183212 2.0362222683
C -4.2778146113 -2.1925702176 1.3327856635
O -2.9531598624 -1.7121453983 1.0098766403
P -2.6490205155 -0.4759606500 0.0646448652
S -2.7435338265 1.3176776812 0.8691238830
O -3.6554488504 -0.7256386783 -1.1384597379
C -3.9594081914 0.2997010345 -2.1013153930
C -2.7635299119 0.6412769992 -2.9660509017
S -0.7437578390 -1.0697318686 -0.6463058799
C 0.2649120336 -0.0629126352 0.5342789602
H -0.2408814959 0.9095163649 0.6293093962
C 0.3117736133 -0.7909619163 1.8631186208
Cl 1.2569032156 0.1781981441 3.0239588793
N 1.5517821852 0.1865404606 -0.0240115179
C 2.5608723658 -0.7641857191 -0.1935846683
O 2.4676535010 -1.9276942395 0.1194186148
C 3.6824275970 -0.0384119797 -0.8141000276
C 4.9401969231 -0.4748312760 -1.1769507254
C 5.8046016658 0.4548255774 -1.7513613500
C 5.4153632376 1.7703461559 -1.9518417188
C 4.1452832295 2.2117510734 -1.5866569208
C 3.2887882457 1.2915021003 -1.0171749659
C 1.9084361064 1.4403551930 -0.5306718997
O 1.1729917117 2.3995737214 -0.5331681236
H -4.6064640473 -0.7878073845 2.9290338022
H -5.2847736226 -0.2948244170 1.3761865595
H -6.0716405890 -1.5739571007 2.3156323581
H -4.7572492791 -2.5209717275 0.4085606082
H -4.0841072333 -3.0510390866 1.9778593825
H -4.7735305812 -0.1267329370 -2.6887587796
H -4.3088807466 1.1870186981 -1.5638002456
H -3.0717458779 1.3200807746 -3.7547493375
H -1.9950664018 1.1277444541 -2.3654236488
H -2.3447741580 -0.2603894070 -3.4058898208
H -0.6949610529 -0.9014407735 2.2668378004
H 0.7986205461 -1.7604010187 1.7614080538
H 5.2331022027 -1.4998786953 -1.0166482873
H 6.7943531724 0.1430610362 -2.0445897194
H 6.1065880126 2.4669927258 -2.3986935086
H 3.8330011640 3.2324334337 -1.7382523892
40
CONF530
C -4.1509733434 -2.0981905068 2.0172805988
C -4.2086442530 -2.1834882624 0.5056835254
O -3.9361400566 -0.9210816343 -0.1312096784
P -2.6304831491 -0.0648010236 0.0854969189
S -2.5117432087 1.0730526306 1.6855187870
O -2.7768236762 0.7398844527 -1.2736203404
C -1.9653351033 1.8742238944 -1.6157581805
C -0.9421059257 1.4839620152 -2.6666664863
S -1.0468169402 -1.4850151192 -0.1549776083
C 0.2320440258 -0.7122140608 0.9344345597
H -0.2687507016 0.1153124167 1.4611590997
C 0.7279582861 -1.7591216202 1.9142551787
Cl 1.9303237046 -1.0007405888 2.9978450935
N 1.2724828789 -0.1429872345 0.1387347006
C 2.2328781465 -0.8643362440 -0.5775589861
O 2.3164392229 -2.0692188508 -0.5940569584
C 3.0421189517 0.1482502119 -1.2781115206
C 4.1360290430 0.0039566591 -2.1067537020
C 4.6967745818 1.1621798835 -2.6409143060
C 4.1744487130 2.4137839620 -2.3521354718
C 3.0698127993 2.5603272645 -1.5160191186
C 2.5152585911 1.4134059746 -0.9855060017
C 1.3631282668 1.2320272528 -0.0891776960
O 0.5983270528 2.0459822981 0.3770019515
H -4.8257484310 -1.3258821619 2.3787691264
H -4.4351392171 -3.0542839130 2.4448932318
H -3.1414952740 -1.8478322703 2.3408104293
H -5.2131248930 -2.4321731143 0.1588950080
H -3.4942102753 -2.9207282258 0.1291422144
H -2.6602164118 2.6207573124 -2.0052568137
H -1.4824441982 2.2721464154 -0.7153643500
H -1.4461528622 1.0859922299 -3.5425689377
H -0.3632030308 2.3586342955 -2.9452416755
H -0.2676381754 0.7217776322 -2.2802368094
H -0.0922909392 -2.1182870920 2.5319252866
H 1.2184273052 -2.5830741764 1.3979337206
H 4.5338309866 -0.9737046493 -2.3261059273
H 5.5527191354 1.0812428534 -3.2917253435
H 4.6296431383 3.2917203491 -2.7819636625
H 2.6560315646 3.5286834206 -1.2848033392
40
CONF327
C -4.2393862771 -1.7481524143 0.9612019662
C -4.3437301457 -0.2431761837 0.8263782510
O -3.2399546224 0.3174502275 0.0911555908
P -1.7528371492 0.2851230231 0.6514546338
S -1.5631484475 0.6147609711 2.5671144215
O -1.0301229935 1.3913027947 -0.2283061275
C -1.1941893236 1.4871799432 -1.6659655104
C -2.2664451388 2.4955588415 -2.0227679126
S -0.9940051306 -1.5572701193 -0.0925746947
C 0.6810330325 -1.3949109880 0.6700410639
H 0.5306792720 -1.0379695694 1.6979344126
C 1.3725976916 -2.7488469358 0.6480599799
Cl 0.5226552289 -3.8667453085 1.7388812958
N 1.4344877817 -0.3945534141 -0.0239458710
C 1.7615725090 -0.4549285136 -1.3815654118
O 1.5438871404 -1.4063968486 -2.0929733878
C 2.3767341406 0.8456835866 -1.6975302249
C 2.8880444383 1.3305402131 -2.8846485562
C 3.3967107144 2.6276524664 -2.8845932697
C 3.3905248514 3.4025232559 -1.7345019984
C 2.8770414655 2.9128311998 -0.5350779250
C 2.3720017557 1.6286111594 -0.5344911323
C 1.7612388251 0.8412508920 0.5483224163
O 1.5677120434 1.1207668158 1.7074596911
H -5.1530329727 -2.1328320156 1.4027976556
H -4.0863125978 -2.2077100408 -0.0122236298
H -3.4013568106 -2.0069643157 1.6069219699
H -4.3748954893 0.2296471141 1.8126376138
H -5.2184261726 0.0490231481 0.2436950044
H -0.2161244636 1.8078805014 -2.0327099783
H -1.4289203438 0.4954749197 -2.0638853816
H -3.2354178319 2.1591809103 -1.6653894652
H -2.0370027061 3.4549321473 -1.5673863461
H -2.2997819122 2.6070729623 -3.1019737350
H 1.3537243061 -3.1773754669 -0.3538765712
H 2.3957539055 -2.6510375364 1.0108670596
H 2.8864070085 0.7199669649 -3.7730713844
H 3.8013004653 3.0352131041 -3.7971741174
H 3.7895514800 4.4037884254 -1.7655729104
H 2.8660655758 3.5065075601 0.3647921383
40
CONF122
C -1.7477606279 1.8813518952 -2.6170737671
C -1.5687077945 2.3999807061 -1.2047183938
O -1.1337233274 1.3687201456 -0.2998839502
P -2.0814144383 0.1230234300 0.0595350352
S -3.9816548075 0.5918168126 0.1146775052
O -1.4466953587 -0.3652703411 1.4285773914
C -1.6667034520 0.3755544280 2.6519935151
C -1.4125212415 -0.5614875477 3.8137641215
S -1.5379669957 -1.4863925235 -1.1749018289
C 0.1769587901 -1.9128765440 -0.5587313399
H 0.0488588462 -2.4918458488 0.3617517472
C 0.8146331044 -2.7394479274 -1.6613271080
Cl 2.4188675970 -3.2975132910 -1.1027248942
N 0.9280636952 -0.7513226027 -0.2231666469
C 1.2677335164 0.2719515612 -1.1078895269
O 1.0151260845 0.2679035042 -2.2902524350
C 1.9627564075 1.2844401754 -0.2951140857
C 2.4840011594 2.5128333634 -0.6455508739
C 3.0758344331 3.2725010693 0.3612900476
C 3.1404727749 2.8102789587 1.6670113982
C 2.6160262247 1.5690772150 2.0206009041
C 2.0271920339 0.8176158230 1.0238359207
C 1.3809906931 -0.5028893898 1.0759295463
O 1.2491130655 -1.2708547130 1.9994880014
H -2.0100715233 2.7051146978 -3.2726988050
H -0.8327898667 1.4131444023 -2.9726413556
H -2.5493829217 1.1426357086 -2.6380250563
H -2.5103968659 2.8095768942 -0.8261378708
H -0.7806600499 3.1517378372 -1.1437163420
H -0.9747171979 1.2219778531 2.6589154996
H -2.6956981142 0.7509068306 2.6488255975
H -1.4968109905 -0.0085822788 4.7433705495
H -2.1372472916 -1.3705327614 3.8075839140
H -0.4144640803 -0.9849212746 3.7293888562
H 0.2088299602 -3.6162970503 -1.8790955606
H 0.9634397455 -2.1409389276 -2.5591209019
H 2.4307595856 2.8635671757 -1.6638323601
H 3.4904934630 4.2379264165 0.1185787633
H 3.6043212660 3.4212614749 2.4249115998
H 2.6620190735 1.2012890047 3.0331610741
40
CONF642
C -2.4260521524 3.1363727406 0.3792282113
C -1.2051783461 2.2818762331 0.6419911188
O -0.9865938238 1.2815969767 -0.3797777341
P -2.0608426322 0.1697410830 -0.7600464489
S -3.6102903531 0.6876690554 -1.8396987923
O -2.4062441790 -0.4549052366 0.6630054219
C -3.6386918848 -1.1406399803 0.9544794441
C -4.1574162808 -0.6453163055 2.2902667343
S -0.8200565476 -1.2203185028 -1.7418037442
C 0.3047690650 -1.7069382682 -0.3385552434
H -0.3255363665 -1.8797237909 0.5405268700
C 1.0208122806 -2.9723053684 -0.7723924820
Cl 2.0566777272 -3.5330652050 0.5708758959
N 1.1938078233 -0.6431901333 -0.0092010795
C 1.0866381779 0.0634924751 1.1897183828
O 0.2917806862 -0.2012613095 2.0619064980
C 2.1038745033 1.1239159582 1.1189880559
C 2.4496986774 2.1011436021 2.0305415636
C 3.4654963834 2.9849591697 1.6731805681
C 4.1058342779 2.8864018788 0.4471561819
C 3.7566991004 1.9003795117 -0.4733375975
C 2.7502325328 1.0248693152 -0.1202446209
C 2.1571095629 -0.1015570628 -0.8623589011
O 2.4020719896 -0.5153220531 -1.9713587486
H -2.3659865318 3.5893342313 -0.6076391304
H -3.3294948550 2.5303555235 0.4228383564
H -2.4835963706 3.9163406138 1.1319173540
H -1.2810693168 1.7698588856 1.6047531978
H -0.2895809157 2.8764187688 0.6108451772
H -4.3525313294 -0.9401932665 0.1480915105
H -3.4171365442 -2.2095509440 0.9871183248
H -5.0412012846 -1.2135540619 2.5608772031
H -3.3952339429 -0.7766321737 3.0536566581
H -4.4163721661 0.4082553327 2.2274855312
H 0.3041774904 -3.7591755791 -0.9963274664
H 1.6626040338 -2.7792182007 -1.6310349449
H 1.9463481420 2.1699640834 2.9814508600
H 3.7572864292 3.7597393199 2.3640365097
H 4.8889785189 3.5848434447 0.1988394422
H 4.2482628666 1.8154596001 -1.4291486734
40
CONF690
C -0.2611444980 3.5282030638 -0.7839523386
C -1.0892546723 2.5740134611 0.0513406857
O -0.8151248885 1.2174132985 -0.3726289256
P -2.0017478848 0.1585366016 -0.4983040258
S -3.5704608376 0.7685113173 -1.4997358643
O -2.2945010431 -0.1375782141 1.0458317190
C -3.5358857656 -0.7195452812 1.4814592689
C -3.6212816389 -2.1925400967 1.1359811441
S -0.9552962043 -1.4871923089 -1.2659062229
C 0.1562288286 -1.8093499838 0.1860360962
H -0.4874095962 -1.8527460585 1.0747340937
C 0.8252378395 -3.1640667357 0.0219237112
Cl 1.8486203748 -3.2462022972 -1.4489108018
N 1.0552369354 -0.7178075457 0.4076372215
C 1.0680176796 -0.0604093249 1.6432793466
O 0.4242419056 -0.4203934771 2.6012011299
C 1.9783975731 1.0820437573 1.4840875188
C 2.3890314712 2.0412876394 2.3883047166
C 3.2595125463 3.0272285705 1.9300941929
C 3.6973072717 3.0448588363 0.6142839131
C 3.2795015808 2.0789338051 -0.2991507438
C 2.4174943407 1.1017780565 0.1550007943
C 1.7769856144 -0.0165809772 -0.5623236190
O 1.8085072391 -0.2845179093 -1.7394495414
H 0.7960036817 3.2999978791 -0.6793451527
H -0.5370709692 3.4388537768 -1.8315311337
H -0.4470616583 4.5435834293 -0.4496819993
H -2.1594658068 2.7701091827 -0.0743270092
H -0.8326299855 2.6345862172 1.1117203305
H -3.5400850115 -0.5534558161 2.5594264767
H -4.3560842109 -0.1668121353 1.0121604354
H -3.5760132952 -2.3212405443 0.0547584809
H -2.8041781108 -2.7424633481 1.5954874585
H -4.5647313004 -2.5887975541 1.4975172666
H 1.4723458258 -3.3626456115 0.8755667067
H 0.0661052783 -3.9368202049 -0.0802576564
H 2.0418789524 2.0199519802 3.4087953475
H 3.5970856646 3.7912723126 2.6118828354
H 4.3702374924 3.8216143363 0.2878453645
H 3.6090408812 2.0867234704 -1.3259954120
40
CONF349
C -2.3487175152 0.5389615667 3.5244670182
C -2.6593512962 0.8686477694 2.0802616854
O -2.1222298355 -0.1915913180 1.2524077235
P -1.7479489282 0.0434725829 -0.2621472424
S -0.8296885029 1.7332458390 -0.6912603744
O -3.1550255815 -0.0900698700 -0.9897467551
C -3.4201714407 0.3975020604 -2.3208005440
C -4.5458525809 1.4120082639 -2.2657341841
S -0.8260493997 -1.7837071128 -0.7204652312
C 0.6077629738 -1.7038409593 0.4708538113
H 0.1695414178 -1.6443855641 1.4734147127
C 1.4323898148 -2.9687786145 0.2979939520
Cl 0.4517107543 -4.3785966453 0.7515538843
N 1.3805610881 -0.5233608121 0.2707201339
C 1.3038441547 0.5662022046 1.1490434405
O 0.6694603508 0.5474122728 2.1789152796
C 2.1551940847 1.6100532465 0.5638773522
C 2.4609112546 2.8769243327 1.0159735037
C 3.2912677550 3.6612982437 0.2190972066
C 3.7903601595 3.1877228300 -0.9845267897
C 3.4803480353 1.9092736969 -1.4420171916
C 2.6601522344 1.1297790640 -0.6523268317
C 2.1417973135 -0.2296515155 -0.8664774494
O 2.2941466933 -0.9868674992 -1.7960899618
H -2.7773792437 -0.4240628433 3.7862595336
H -1.2719516268 0.5007432243 3.6667040576
H -2.7696867175 1.3087670836 4.1627716126
H -2.1953162823 1.8135292359 1.7777028913
H -3.7347667379 0.9166029725 1.8954538182
H -2.5100166228 0.8494283297 -2.7265348443
H -3.6929518859 -0.4755255943 -2.9163834516
H -4.2361742350 2.2796398361 -1.6877104074
H -4.7913594893 1.7259868726 -3.2749265772
H -5.4229023608 0.9705040566 -1.8013820212
H 1.7384410344 -3.0930406306 -0.7405470681
H 2.2993950388 -2.9434129195 0.9580081040
H 2.0610586354 3.2393011804 1.9491807774
H 3.5450383417 4.6575731987 0.5445020622
H 4.4268571244 3.8210456120 -1.5817020052
H 3.8588880790 1.5331333161 -2.3787753287
40
CONF304
C -1.4956538231 2.7961873289 -2.2015820711
C -1.4475147783 1.2834137057 -2.1110999879
O -1.0251928662 0.9103025402 -0.7859208683
P -1.7976622465 -0.1804933764 0.0963067880
S -3.7472152804 -0.0687116743 -0.0291540103
O -1.1469165851 0.0563638893 1.5208004946
C -1.7097014667 0.9732919045 2.4857593992
C -1.6358428106 2.4088072236 2.0122392510
S -1.0103017642 -2.0632836625 -0.4060425023
C 0.7541114150 -1.9823221162 0.2342206635
H 0.7034166717 -2.2514384803 1.2944634099
C 1.5602379450 -2.9946075264 -0.5633045595
Cl 0.8537418287 -4.6117072330 -0.3372655609
N 1.2959013826 -0.6695583427 0.1499122807
C 1.4512949622 0.0598009035 -1.0305023475
O 1.2518056264 -0.3822776658 -2.1387881047
C 1.8939829396 1.4004874725 -0.6127836828
C 2.1843683843 2.5225319475 -1.3616216525
C 2.5467641432 3.6798071915 -0.6753881130
C 2.6161219767 3.7027370541 0.7094125244
C 2.3281198477 2.5686600471 1.4655138732
C 1.9655612835 1.4225761738 0.7861370964
C 1.5864746433 0.0937517319 1.2887718406
O 1.5379929688 -0.3324173113 2.4177453521
H -0.5388896483 3.2173127195 -1.9059761151
H -1.7172651074 3.0811223992 -3.2246964372
H -2.2721794300 3.1851868608 -1.5481868272
H -0.7181611281 0.8574115533 -2.8060079184
H -2.4318146945 0.8461832698 -2.3075033141
H -2.7464701202 0.6789334540 2.6731587169
H -1.1036421919 0.8019765595 3.3771284503
H -2.2790621222 2.5409411428 1.1436240367
H -1.9759694603 3.0647668171 2.8072695778
H -0.6150078427 2.6656270158 1.7394633676
H 1.5257009906 -2.7645786873 -1.6280196087
H 2.5879879180 -3.0286310027 -0.2024593841
H 2.1291056340 2.4951061072 -2.4382032438
H 2.7745188153 4.5740174878 -1.2334519926
H 2.8960298906 4.6143409615 1.2127526989
H 2.3789944961 2.5765322934 2.5426109157
40
CONF342
C -2.4674680018 0.7945438858 3.4031881053
C -2.7343110109 1.0171115053 1.9300571749
O -2.1843271479 -0.1058397578 1.1983894181
P -1.7574298244 0.0157089134 -0.3152202724
S -0.8186094321 1.6694120532 -0.8321841848
O -3.1410799910 -0.1781956658 -1.0751766317
C -3.3171191752 0.1282007034 -2.4747295293
C -4.1267373009 1.4010412400 -2.6279127264
S -0.8214386505 -1.8379497523 -0.6162382513
C 0.5814055359 -1.6754280753 0.6029993592
H 0.1172556736 -1.5593679852 1.5888320682
C 1.4164887950 -2.9430869923 0.5264264426
Cl 0.4320135185 -4.3298579724 1.0391279805
N 1.3538069139 -0.5043766857 0.3534069010
C 2.1453378806 -0.2733516769 -0.7776284715
O 2.3228536240 -1.0814165993 -1.6587361247
C 2.6566040009 1.0972156941 -0.6263817611
C 3.4993822963 1.8323890195 -1.4345387429
C 3.7962836931 3.1349695409 -1.0407035385
C 3.2624578557 3.6748889146 0.1192903272
C 2.4087518322 2.9355085039 0.9342862838
C 2.1163962532 1.6447187491 0.5455014878
C 1.2496028393 0.6339165227 1.1644876665
O 0.5845564690 0.6728640189 2.1742325836
H -2.8981168002 1.6138901544 3.9693056220
H -2.9132151649 -0.1423391342 3.7244179603
H -1.3956156219 0.7582786999 3.5788624003
H -2.2535300690 1.9335084234 1.5712128285
H -3.8035128746 1.0587088348 1.7112318315
H -2.3377005955 0.2318684781 -2.9496343443
H -3.8376612210 -0.7341365750 -2.8945080956
H -3.5774377295 2.2427168321 -2.2112319959
H -4.3090371527 1.5829846643 -3.6819884359
H -5.0757657423 1.3046396764 -2.1084520968
H 1.7488536865 -3.1270211202 -0.4950494476
H 2.2667725706 -2.8727244012 1.2046807815
H 3.9049922908 1.4048913669 -2.3373087384
H 4.4502302567 3.7345334588 -1.6536421777
H 3.5072031700 4.6880900472 0.3956549891
H 1.9820832540 3.3490599048 1.8337268203
40
CONF644
C -2.5381039428 3.0043772674 0.6194710904
C -1.3114633040 2.1494275412 0.8521689947
O -0.9986150253 1.2947482036 -0.2721162868
P -2.0133104792 0.2196010252 -0.8631897496
S -3.5042088677 0.8405757286 -1.9703557230
O -2.4305303046 -0.5922281028 0.4412243375
C -3.6613471203 -1.3306381457 0.5606905010
C -4.3094554599 -0.9752518831 1.8844823859
S -0.6711736542 -1.0052849795 -1.9281215675
C 0.3751138766 -1.6430616739 -0.5250484685
H -0.3045373282 -1.9350710554 0.2828707333
C 1.1496971951 -2.8317469724 -1.0628128820
Cl 2.1102607545 -3.5383494332 0.2675225648
N 1.2138939303 -0.6126466355 -0.0100134637
C 2.2097982947 0.0519582563 -0.7281929351
O 2.5316274343 -0.2149351766 -1.8623359576
C 2.7258232485 1.0884893574 0.1830914557
C 3.7260326627 2.0221106102 0.0041684612
C 3.9927100820 2.8915907807 1.0598118812
C 3.2796322455 2.8213744201 2.2469680181
C 2.2699678183 1.8787807625 2.4284509927
C 2.0052882284 1.0174893873 1.3827454839
C 1.0154653630 -0.0637647265 1.2578152103
O 0.1771658112 -0.4511461759 2.0387212443
H -2.6655018054 3.6804381159 1.4590729964
H -2.4296943055 3.5808478408 -0.2963115214
H -3.4243110854 2.3787695530 0.5267409554
H -1.4330182334 1.5155511574 1.7343707062
H -0.4138810542 2.7624363202 0.9586674791
H -4.3103293324 -1.0734681468 -0.2833899929
H -3.4072326326 -2.3917172124 0.5158219338
H -5.1937802657 -1.5884338007 2.0230310887
H -3.6120860283 -1.1575316698 2.6976884736
H -4.5975885237 0.0726358884 1.8942781127
H 0.4693220217 -3.5965706489 -1.4302416381
H 1.8405826113 -2.5217098273 -1.8457366660
H 4.2742324666 2.0687827742 -0.9230365270
H 4.7686742200 3.6320776912 0.9487045745
H 3.5088443753 3.5085010773 3.0457308626
H 1.7104484966 1.8169759277 3.3479363403
40
CONF39
C -2.2060542880 0.0583464469 -2.9415026839
C -1.9574270676 1.2741442739 -2.0720102226
O -1.2918465241 0.9331014399 -0.8433745801
P -2.0276593972 0.0680525081 0.2856648678
S -3.9419092111 0.4372999752 0.4524819064
O -1.1340917629 0.3811024573 1.5589292925
C -1.4217583277 1.4810686086 2.4487350321
C -1.2324606481 2.8230932620 1.7739463206
S -1.5096022462 -1.9508866714 -0.0414050467
C 0.3031711492 -2.0254038800 0.4209885434
H 0.3425641326 -2.1650661076 1.5066592652
C 0.8679057414 -3.2230336498 -0.3212973799
Cl 2.5690664749 -3.4551159015 0.1775260934
N 0.9841730651 -0.8104515412 0.1319528339
C 1.1582970263 -0.2582660153 -1.1369806719
O 0.8173413856 -0.7877654523 -2.1689153226
C 1.8249809523 1.0367439119 -0.9159522106
C 2.2041234059 2.0154200562 -1.8114727610
C 2.8058728590 3.1620003077 -1.2972831339
C 3.0196020771 3.3133787642 0.0644502487
C 2.6397835310 2.3242114008 0.9687548943
C 2.0395016731 1.1900917963 0.4596474616
C 1.5159505144 -0.0026814852 1.1424918881
O 1.5256340110 -0.2999372776 2.3140188731
H -2.6414175847 0.3721922308 -3.8845293796
H -1.2735480533 -0.4684437341 -3.1305788063
H -2.8970837793 -0.6194375879 -2.4396679280
H -2.9030286971 1.7664199602 -1.8229009467
H -1.2801491526 1.9824267545 -2.5506852611
H -2.4483987202 1.3701719508 2.8099949759
H -0.7174287488 1.3315140911 3.2691407706
H -0.2390740429 2.8905214220 1.3362543783
H -1.9752987370 2.9486420789 0.9873520155
H -1.3591173588 3.6122653852 2.5082545447
H 0.3150572956 -4.1243498265 -0.0655993315
H 0.8565290381 -3.0551590257 -1.3973791490
H 2.0365584030 1.8887177199 -2.8690309409
H 3.1101178935 3.9457634861 -1.9725352291
H 3.4867416308 4.2126592161 0.4330611864
H 2.8006674821 2.4320415140 2.0295825300
40
CONF341
C -2.4941604096 0.7621109603 3.3902053581
C -2.7558907776 0.9913193245 1.9171336006
O -2.1927440424 -0.1226283931 1.1820572811
P -1.7546803475 0.0092877736 -0.3276178001
S -0.8200637834 1.6693854984 -0.8314039854
O -3.1294837042 -0.1888810760 -1.1018062374
C -3.3109814599 0.1641910102 -2.4893722040
C -4.1429979944 1.4272946423 -2.5967709925
S -0.8060697789 -1.8388000000 -0.6230332720
C 0.5795382005 -1.6675450830 0.6143807533
H 0.1022063884 -1.5392075286 1.5923534751
C 1.4127892253 -2.9376732065 0.5643142135
Cl 0.4183941911 -4.3163131193 1.0799043768
N 1.3574338194 -0.5006944071 0.3613708342
C 2.1621416234 -0.2846414467 -0.7630909293
O 2.3520536025 -1.1049893837 -1.6302163769
C 2.6691007851 1.0888828068 -0.6257337665
C 3.5186547438 1.8140927285 -1.4358642247
C 3.8083470557 3.1230365426 -1.0583557649
C 3.2611927169 3.6784452238 0.0880502789
C 2.4011402454 2.9488800384 0.9052299728
C 2.1155639748 1.6518200889 0.5325252801
C 1.2439877197 0.6479582967 1.1566457131
O 0.5705742479 0.6982798061 2.1604020022
H -2.9303732416 -0.1822517856 3.7026663281
H -1.4228527551 0.7376723063 3.5713917671
H -2.9376538852 1.5722543031 3.9596236595
H -2.2812198402 1.9138724642 1.5661657068
H -3.8244197679 1.0248027034 1.6935529841
H -2.3336749070 0.3029280786 -2.9595526561
H -3.8161986039 -0.6915341094 -2.9400806040
H -5.0896267744 1.2959477171 -2.0805629069
H -3.6077462907 2.2629519348 -2.1507126585
H -4.3296237365 1.6435964644 -3.6435769465
H 1.7589567944 -3.1344080201 -0.4501566693
H 2.2536456423 -2.8609594842 1.2535367958
H 3.9346506743 1.3741321694 -2.3278746548
H 4.4670784937 3.7152224563 -1.6733598541
H 3.5003249246 4.6963567279 0.3517230953
H 1.9640976141 3.3747232350 1.7938875245
40
CONF398
C -4.0561023824 -2.0512559739 -1.4974155940
C -4.7674804724 -1.3006901964 -0.3926051184
O -3.9026459256 -1.0305588940 0.7395564678
P -2.6156861703 -0.1299507596 0.7187508335
S -2.1416432712 0.4816718728 2.5183668180
O -3.0438438887 1.0127772091 -0.3073248696
C -2.2195374646 2.1521114771 -0.6085507569
C -1.5225986478 1.9658533658 -1.9435784881
S -1.1038245997 -1.3059368977 -0.2477653414
C 0.3538495391 -0.8848977848 0.8020123583
H -0.0139815057 -0.1855173789 1.5690054980
C 0.8714196265 -2.1578745053 1.4427985299
Cl 2.2490104931 -1.7475680783 2.5035416395
N 1.3324905392 -0.1907258833 0.0275147667
C 2.2014802514 -0.7656184945 -0.9048460931
O 2.2442292302 -1.9420882601 -1.1748106300
C 2.9823122868 0.3564664258 -1.4553798460
C 4.0012901889 0.3659898662 -2.3856638405
C 4.5570136207 1.5992173708 -2.7200997347
C 4.1016165690 2.7740155352 -2.1413222301
C 3.0719092303 2.7654243251 -1.2028762366
C 2.5229003224 1.5438217490 -0.8696718221
C 1.4447431499 1.2006158413 0.0695388634
O 0.7439737392 1.9128698402 0.7530034236
H -3.6166998902 -2.9680301222 -1.1133381913
H -4.7704386235 -2.2954896692 -2.2775287503
H -3.2628431146 -1.4383953887 -1.9218983845
H -5.5690487061 -1.8959383832 0.0471243163
H -5.1632805153 -0.3500959151 -0.7537722506
H -2.9082176793 2.9985394876 -0.6405880014
H -1.4981846946 2.3094505100 0.2001047312
H -0.9499121755 2.8592887153 -2.1707181474
H -0.8472697728 1.1132681213 -1.9092147464
H -2.2564037742 1.7984449020 -2.7267605173
H 0.0974488074 -2.6030448448 2.0654570231
H 1.2286651606 -2.8638803288 0.6942779095
H 4.3474525246 -0.5529685287 -2.8304850554
H 5.3561258901 1.6382637994 -3.4430603598
H 4.5513765981 3.7133100648 -2.4209932915
H 2.7112915629 3.6732881957 -0.7467482364
40
CONF393
C -4.1148828527 -1.8371455552 -1.5549169610
C -4.7869392921 -1.1163565790 -0.4065376701
O -3.9092875418 -0.9564980403 0.7366907119
P -2.5789078488 -0.1218865305 0.7640943510
S -2.0745858214 0.3664876781 2.5926066465
O -2.9493287390 1.0956828908 -0.1979224261
C -2.0778743443 2.2151889565 -0.4287775525
C -1.3632241964 2.0687841804 -1.7596912562
S -1.1300448593 -1.3212835599 -0.2677578741
C 0.3632680229 -0.9852684654 0.7624966829
H 0.0261382653 -0.3473008295 1.5942721247
C 0.8981687110 -2.3063344030 1.2804031973
Cl 2.3082015325 -1.9827921604 2.3288967670
N 1.3178407740 -0.2353557570 0.0095591458
C 2.1133394905 -0.7338488343 -1.0267934865
O 2.1132770200 -1.8811476090 -1.4043607867
C 2.8794377846 0.4229125815 -1.5234289008
C 3.8298183906 0.5061848809 -2.5203251096
C 4.3848022644 1.7579067168 -2.7785392029
C 3.9959124086 2.8791495757 -2.0614674749
C 3.0359711973 2.7961039461 -1.0552124583
C 2.4871530275 1.5561857337 -0.7983959897
C 1.4669456479 1.1429017462 0.1767605336
O 0.8316795556 1.7991686999 0.9712933102
H -3.7215765120 -2.7950922834 -1.2251826986
H -4.8410686826 -2.0004972550 -2.3451493354
H -3.2922955853 -1.2414751189 -1.9466471282
H -5.6177521352 -1.6943624513 0.0006877850
H -5.1337437593 -0.1275875809 -0.7111746988
H -2.7336791637 3.0879371455 -0.4307697286
H -1.3674250418 2.3053672686 0.3997971290
H -2.0880268686 1.9764112918 -2.5634351725
H -0.7465683074 2.9457417125 -1.9289804711
H -0.7277006284 1.1853521926 -1.7606884105
H 0.1433198853 -2.8034554697 1.8867709295
H 1.2314265080 -2.9469601843 0.4649477307
H 4.1244396838 -0.3712250527 -3.0730392055
H 5.1301723124 1.8542724924 -3.5517794829
H 4.4429130408 3.8345944556 -2.2852384084
H 2.7266251233 3.6616089010 -0.4916485423
40
CONF113
C -4.2882588637 -0.9676306338 2.1984605410
C -4.2554077474 0.3684658817 1.4864495559
O -3.3979665942 0.3390902167 0.3300235253
P -1.8191418023 0.2352202370 0.4538206072
S -1.0592429925 1.2493549811 1.9597623130
O -1.3557095975 0.6570929061 -1.0055603702
C -1.8402662629 1.8154217829 -1.7227927556
C -1.2776905927 3.1076063318 -1.1672140301
S -1.4311290437 -1.8404236931 0.3826239351
C 0.3930307758 -1.8163129286 0.7248276260
H 0.5307892927 -1.6224014663 1.7954234885
C 0.9244602723 -3.1838547345 0.3304171029
Cl 2.6687856719 -3.2563355699 0.7160585176
N 1.0243585332 -0.7441807627 0.0246091887
C 0.9912312294 -0.5589695519 -1.3585638523
O 0.4852766163 -1.3291357700 -2.1407235776
C 1.6958230120 0.7124499871 -1.6005988076
C 1.9037077003 1.4134315464 -2.7708060200
C 2.5872420472 2.6242600796 -2.6842896538
C 3.0458295521 3.1055762303 -1.4671519029
C 2.8420481726 2.3951290774 -0.2860831642
C 2.1611024171 1.1978702066 -0.3714623976
C 1.7768404379 0.2399581144 0.6777481820
O 2.0439442169 0.2161457759 1.8554704533
H -4.5330951549 -1.7628900559 1.4991798484
H -3.3140322664 -1.1769569160 2.6382551874
H -5.0321651189 -0.9363419153 2.9879978474
H -3.8994491569 1.1552068257 2.1591783010
H -5.2319362159 0.6353454769 1.0808049692
H -1.5023248004 1.6363104089 -2.7450272701
H -2.9313007216 1.8115465389 -1.6870487602
H -0.1904938827 3.0836781942 -1.1758200311
H -1.6234626185 3.9375988164 -1.7749819270
H -1.6107491557 3.2539086564 -0.1412971027
H 0.4210464540 -3.9656792162 0.8950347600
H 0.8123810873 -3.3459157009 -0.7410100274
H 1.5431274990 1.0302685182 -3.7118534807
H 2.7597180283 3.1976619097 -3.5810081447
H 3.5689606660 4.0477629335 -1.4304198479
H 3.1906570901 2.7597849357 0.6667421766
40
CONF424
C -3.4721578867 -2.7956893417 0.1267496054
C -3.2893469036 -1.8214511644 -1.0195331689
O -2.1264775102 -0.9945291924 -0.8429579846
P -2.0949838861 0.1709450880 0.2473555596
S -3.8381238874 1.0121359190 0.5472885380
O -0.9674536272 1.1406798533 -0.3229057616
C -1.2310658743 1.9523647560 -1.4918321327
C -0.6149103416 3.3207033789 -1.2854283141
S -1.1356305989 -0.5365518827 1.9727844156
C 0.5021010713 -1.2708954745 1.4241557367
H 1.0280702819 -1.3195227091 2.3860443958
C 0.2824686665 -2.6547464866 0.8540926602
Cl 1.8766692720 -3.4273984794 0.6013476197
N 1.2341148901 -0.3852181996 0.5864996273
C 2.0024306753 0.6421284471 1.1515918458
O 2.1399160242 0.7969669413 2.3420653091
C 2.5519501551 1.4035542282 0.0218906694
C 3.3779140245 2.5096724504 -0.0035610199
C 3.7276849108 3.0233809050 -1.2503737173
C 3.2665373370 2.4428368007 -2.4225347407
C 2.4348061251 1.3254442650 -2.3964707176
C 2.0846001835 0.8190080796 -1.1613427667
C 1.2153057971 -0.3185233528 -0.8093589005
O 0.6090368486 -1.0619176879 -1.5446273528
H -4.3658663125 -3.3863487001 -0.0475123706
H -2.6156627892 -3.4583815832 0.2110166388
H -3.5900333361 -2.2452197764 1.0601702711
H -4.1642250068 -1.1688834116 -1.1061495226
H -3.1094988435 -2.3328120614 -1.9658501745
H -0.7948430728 1.4306377416 -2.3469321889
H -2.3151493351 2.0273698333 -1.6283475516
H -1.0730969337 3.8072406105 -0.4282838249
H 0.4536560692 3.2322773631 -1.1098396412
H -0.7862845205 3.9223322327 -2.1719475785
H -0.2701011258 -3.2634190370 1.5671290893
H -0.2121767607 -2.6207619784 -0.1150523227
H 3.7307861757 2.9528149587 0.9136737134
H 4.3684268978 3.8890260609 -1.3024456328
H 3.5541855691 2.8635610471 -3.3726880770
H 2.0727889947 0.8671151555 -3.3028220146
40
CONF428
C -3.5552971324 -2.4764650854 0.9911356196
C -3.5358436186 -1.5755344848 -0.2272337292
O -2.3040457943 -0.8420623916 -0.3343779079
P -1.9722432420 0.3743077058 0.6442220874
S -3.5551129464 1.3764037817 1.2150608951
O -0.9115017003 1.2101794526 -0.2006007352
C -1.3421917880 2.0028502966 -1.3323000250
C -0.5847150262 3.3146908802 -1.3264376770
S -0.7463602336 -0.3146384576 2.2001124239
C 0.6945813929 -1.2164223269 1.4033829172
H 1.4035707910 -1.2342641678 2.2407238342
C 0.2735629243 -2.6170962951 1.0171266052
Cl 1.7281641541 -3.5347804177 0.5229737912
N 1.2922440298 -0.4592614782 0.3588753785
C 0.9869931500 -0.4965921572 -1.0045645903
O 0.1956389676 -1.2424679243 -1.5317766876
C 1.8333316038 0.5378040152 -1.6265145069
C 1.9481458736 0.9201390921 -2.9475411308
C 2.8243820882 1.9621943830 -3.2428567123
C 3.5562101671 2.5903171023 -2.2460745877
C 3.4435989220 2.2016172098 -0.9129896438
C 2.5733737662 1.1702868428 -0.6203809174
C 2.2243184534 0.5431444300 0.6614489026
O 2.6155951082 0.7767323647 1.7805766292
H -4.5067965633 -2.9968907469 1.0334664417
H -2.7506170299 -3.2047344684 0.9459736332
H -3.4417237292 -1.8753518386 1.8932988575
H -4.3602714100 -0.8564799188 -0.1812060750
H -3.5871254626 -2.1439284642 -1.1565856300
H -1.1367780274 1.4151929887 -2.2300982130
H -2.4209878652 2.1730468362 -1.2497629188
H -0.8878850720 3.9012783838 -2.1873923116
H -0.8105045758 3.8681418784 -0.4186321012
H 0.4857643081 3.1342834199 -1.3710499037
H -0.1592967818 -3.1224735765 1.8782125123
H -0.4064945226 -2.6160740768 0.1670747201
H 1.3764231700 0.4249198715 -3.7160169662
H 2.9325872178 2.2858639308 -4.2656375590
H 4.2248338160 3.3955430968 -2.5052012892
H 4.0075585337 2.6831550082 -0.1305190442
40
CONF173
C -5.2595743776 -1.0565078862 0.5822463369
C -4.3142546121 -1.3166370028 -0.5741064947
O -3.3689353792 -0.2447278059 -0.7558286745
P -2.0813518909 -0.0208222190 0.1451414556
S -2.3543360374 0.5749928846 1.9970824701
O -1.2455078087 0.9771337233 -0.7689806526
C -1.3487282080 2.4069240707 -0.6101410304
C -2.7283086781 2.9108462549 -0.9725919004
S -1.0156883610 -1.8268889590 -0.1177416309
C 0.4377663430 -1.3506579822 0.9196998997
H 0.0488162324 -0.7792602298 1.7742031304
C 1.1300871074 -2.6222293032 1.3725618512
Cl 2.4976797646 -2.1788467170 2.4332065891
N 1.2890152081 -0.4771414620 0.1762704025
C 1.9659438705 -0.8276247689 -0.9957786181
O 1.9821947768 -1.9383458987 -1.4703147182
C 2.5934565072 0.4162042771 -1.4740865312
C 3.3885788811 0.6528349766 -2.5769100203
C 3.8310647171 1.9576397611 -2.7841423023
C 3.4859785686 2.9810362812 -1.9143561457
C 2.6842645753 2.7426863342 -0.8001414208
C 2.2452722672 1.4503453230 -0.5951316049
C 1.3910122010 0.8844572426 0.4601373096
O 0.8511879953 1.4225246202 1.4005501694
H -4.7102266698 -1.0100748934 1.5198146775
H -5.7792676646 -0.1130075619 0.4387597740
H -5.9861338049 -1.8607582360 0.6363906090
H -4.8504816966 -1.3500920321 -1.5243943520
H -3.7633407626 -2.2505810660 -0.4309849652
H -1.0972232272 2.6580047226 0.4261790093
H -0.5810015079 2.7986858636 -1.2797208909
H -2.7424938064 3.9946838889 -0.9162480788
H -2.9915696582 2.5919692733 -1.9775728359
H -3.4591126956 2.5080662883 -0.2721135485
H 0.4458240871 -3.2416476583 1.9483134127
H 1.5310253026 -3.1718141139 0.5217924560
H 3.6502890306 -0.1496540492 -3.2475689063
H 4.4526332952 2.1736543515 -3.6383878606
H 3.8425116383 3.9812652292 -2.1018584984
H 2.4102758295 3.5311097127 -0.1174804946
40
CONF680
C -2.9180464842 -2.5029767553 -2.2126701950
C -3.6771069081 -2.6597202721 -0.9124937353
O -2.9969885242 -2.0421037263 0.2108523900
P -2.6764277600 -0.5069265280 0.3646930960
S -2.4737025165 -0.0000851653 2.2472710976
O -3.8729841693 0.1801580991 -0.4164394376
C -4.0266886541 1.6156771895 -0.4243583229
C -5.4403462548 1.9269691319 -0.8718442167
S -0.9741049577 -0.0585384335 -0.8467843662
C 0.3045466346 -0.3008328229 0.4596246785
H -0.0437575412 0.2366951011 1.3530972672
C 0.4399710691 -1.7879711184 0.7276213372
Cl 1.6711658384 -2.0391282548 1.9941032379
N 1.5267641046 0.3054805842 0.0446006340
C 2.0662271184 1.4260317597 0.6813364039
O 1.5552962313 1.9765709323 1.6285918754
C 3.3112293311 1.7283643639 -0.0432495537
C 4.2513005015 2.7177272173 0.1612906863
C 5.3451027201 2.7559257605 -0.7010458845
C 5.4844029302 1.8339083703 -1.7270624182
C 4.5358770954 0.8345082649 -1.9340036691
C 3.4523997256 0.7958233150 -1.0803641413
C 2.3011545428 -0.1211864089 -1.0368339579
O 2.0202741893 -1.0549002219 -1.7505408845
H -2.8699584648 -1.4550018778 -2.5011794692
H -1.9042982808 -2.8828428943 -2.1143631633
H -3.4328586904 -3.0603004444 -2.9891085091
H -3.7481178816 -3.7058572794 -0.6108798604
H -4.6744092733 -2.2238808063 -0.9863857823
H -3.8312301577 1.9937066967 0.5845212051
H -3.2862393800 2.0322385804 -1.1122315055
H -5.6157988035 1.5184950849 -1.8625918553
H -6.1554483995 1.4936491656 -0.1783130466
H -5.5753889205 3.0031956551 -0.8978877192
H -0.5011353491 -2.1936356286 1.1016752487
H 0.7689950870 -2.3166879125 -0.1667791617
H 4.1335592379 3.4300020600 0.9620199796
H 6.0956253171 3.5182621600 -0.5656202030
H 6.3421344370 1.8894666213 -2.3781936987
H 4.6350851951 0.1128183156 -2.7286617559
40
CONF405
C -3.9509853430 -1.7121576258 -2.1302525802
C -4.5743185832 -1.8370154506 -0.7565726259
O -3.5967392065 -1.7454787818 0.3085418065
P -2.6844080528 -0.4956135797 0.6143374099
S -2.1188919227 -0.4775561997 2.4901445142
O -3.6141737397 0.7139275214 0.1596651446
C -3.4104660717 2.0644327420 0.6075302382
C -2.1128259555 2.6578647667 0.0969538108
S -1.1054550331 -0.5875005204 -0.8314486707
C 0.3343420933 -0.7767620426 0.3074801794
H 0.0168506280 -0.3667116351 1.2783537078
C 0.6629585356 -2.2517094492 0.4288202560
Cl 2.0375039023 -2.4490588235 1.5509927825
N 1.4231940927 0.0215006234 -0.1523744953
C 1.7057555083 1.2657485586 0.4168954358
O 1.0644562834 1.7525862260 1.3198331327
C 2.8657668226 1.7874499575 -0.3204088741
C 3.5793307460 2.9582275304 -0.1632003776
C 4.6453549173 3.1839589473 -1.0313447303
C 4.9759511537 2.2671121460 -2.0174983627
C 4.2545732740 1.0857321806 -2.1774070478
C 3.1994768558 0.8605090640 -1.3172353084
C 2.2573738420 -0.2698059002 -1.2346529489
O 2.1667270740 -1.2533289854 -1.9303372567
H -3.1730015160 -2.4585847205 -2.2666968635
H -4.7205755554 -1.8551089724 -2.8823932402
H -3.5103230873 -0.7245411669 -2.2556551130
H -5.0166776006 -2.8223387822 -0.6024215623
H -5.3257640374 -1.0616977435 -0.5966869361
H -4.2760857222 2.5986805714 0.2126735523
H -3.4318892946 2.0750552250 1.7014865843
H -2.0968838266 3.7211813432 0.3140353129
H -1.2608444988 2.1950928259 0.5949167045
H -2.0231644551 2.5084063391 -0.9763627014
H -0.1857687832 -2.7883326973 0.8523439492
H 0.9557799341 -2.6730419133 -0.5321436040
H 3.3133509173 3.6649009843 0.6063152176
H 5.2218868454 4.0898830401 -0.9329152899
H 5.8061640372 2.4704857343 -2.6749113535
H 4.5030294600 0.3673448563 -2.9418602558
40
CONF147
C -2.3984928298 0.3430423968 3.4467852804
C -2.8326466708 -0.0204810532 2.0426933555
O -1.9311877807 0.6529456911 1.1196031582
P -1.8365581474 0.2957483598 -0.4068893127
S -0.7224910174 1.5739853087 -1.3879169937
O -3.3572896410 0.2672032491 -0.8605506855
C -3.7456985542 0.1650330757 -2.2483210241
C -4.7454502049 1.2616635370 -2.5571687955
S -1.3565662428 -1.7839098537 -0.5062348106
C 0.1935406505 -1.8027683465 0.5220141656
H -0.1129263504 -1.7730010648 1.5740611229
C 0.9108873318 -3.1011377511 0.1938819600
Cl 2.3664059717 -3.2277874235 1.2230376035
N 0.9951511313 -0.6473602846 0.2943672073
C 1.6280068638 -0.3239958883 -0.9118018522
O 1.5577730780 -0.9956503297 -1.9146748174
C 2.3586622670 0.9260015045 -0.6470845064
C 3.1415316848 1.6977205340 -1.4794721228
C 3.6967079691 2.8587870273 -0.9470017807
C 3.4686940377 3.2271529794 0.3699906426
C 2.6759101794 2.4496563300 1.2101948918
C 2.1283111860 1.2972712015 0.6844750988
C 1.2486020032 0.2934818598 1.2960023076
O 0.8004612435 0.2130924061 2.4169368813
H -3.0027666782 -0.2057273080 4.1616764594
H -1.3494099147 0.0943134894 3.5891103547
H -2.5209853771 1.4094686952 3.6115156999
H -3.8454947462 0.3230170910 1.8262871315
H -2.7728469531 -1.0975807712 1.8633431425
H -2.8558369273 0.2586896198 -2.8780440328
H -4.1817058163 -0.8274728975 -2.3782122400
H -5.0795487463 1.1603153135 -3.5845228444
H -5.5992916347 1.1863181726 -1.8903421149
H -4.2797148002 2.2355309024 -2.4270497852
H 0.2702632855 -3.9539616228 0.4085123848
H 1.2353240210 -3.1121726373 -0.8460389426
H 3.3043249730 1.4067666428 -2.5045885722
H 4.3117222882 3.4837680000 -1.5747371778
H 3.9089116250 4.1344838081 0.7518871605
H 2.4876710555 2.7297524761 2.2342184888
40
CONF381
C -5.5598274337 -0.8763434054 -0.4966748680
C -4.1773550860 -1.2915447920 -0.0349231110
O -3.2591748253 -0.2343346255 -0.3747817767
P -1.8531493101 -0.0868735193 0.3511854425
S -1.9308437135 -0.2222564184 2.3085182121
O -1.3155026886 1.2652173869 -0.2797424046
C -1.5408851048 2.5446619928 0.3508090447
C -3.0117369217 2.8933267018 0.4146865211
S -0.6746284325 -1.5064883244 -0.6611338962
C 0.8292464964 -1.3866774645 0.4209909448
H 0.4647840108 -1.1200412145 1.4230551263
C 1.5546330173 -2.7207408333 0.4414457464
Cl 0.5546513859 -3.9135943213 1.3038155752
N 1.6525344049 -0.3131100093 -0.0387045224
C 1.5839251007 0.9586340927 0.5350901803
O 0.9543353133 1.2123530556 1.5372878569
C 2.3992548108 1.8313351926 -0.3211803192
C 2.7040489763 3.1728057774 -0.2081612345
C 3.5049737983 3.7367023350 -1.1989914664
C 3.9795726545 2.9780959834 -2.2583343678
C 3.6727051436 1.6236554769 -2.3723934796
C 2.8779093856 1.0642471421 -1.3924595385
C 2.3747313158 -0.3112324919 -1.2391821491
O 2.5142496844 -1.2738462575 -1.9537681826
H -5.8740758867 0.0244737902 0.0227280447
H -5.5486857918 -0.6821702925 -1.5651420674
H -6.2608759854 -1.6762491503 -0.2826570084
H -3.8454492169 -2.2045123561 -0.5367282747
H -4.1443059874 -1.4479780245 1.0489107333
H -1.0982017575 2.5122897674 1.3515864794
H -0.9835455513 3.2406900569 -0.2781621643
H -3.5268966593 2.1938052197 1.0721304326
H -3.1262914232 3.8980436605 0.8092095749
H -3.4537800353 2.8365569589 -0.5766541144
H 1.7261543369 -3.0916219882 -0.5682265582
H 2.4947642359 -2.6271109282 0.9847643240
H 2.3311868140 3.7537517167 0.6200899397
H 3.7580486475 4.7831718348 -1.1389390987
H 4.5966835738 3.4434759610 -3.0102236916
H 4.0354706536 1.0255218664 -3.1925955367
40
CONF172
C -4.6083848068 -1.0166641073 1.8124307622
C -4.4478075136 -0.6266091272 0.3588143802
O -3.4460256441 0.3915367690 0.1614114654
P -1.9468747881 0.2863628113 0.6689270177
S -1.5629733728 0.6862926341 2.5436894802
O -1.2052178289 1.3381525824 -0.2564458863
C -1.4343212889 1.4525104731 -1.6827423877
C -2.4316893329 2.5538449642 -1.9765804903
S -1.3559289138 -1.6424343317 -0.0284506581
C 0.3480679315 -1.5624342164 0.6621138055
H 0.2634933334 -1.2428394043 1.7097109233
C 0.9529657369 -2.9504334689 0.5447876849
Cl 2.5871074410 -2.9266878728 1.2718014401
N 1.1127014149 -0.5639150480 -0.0214957480
C 1.3246512320 -0.5408113038 -1.4001263485
O 0.9109777212 -1.3770809330 -2.1687340353
C 2.1012466172 0.6838789792 -1.6605583027
C 2.5734879932 1.2105921483 -2.8459016810
C 3.2775027859 2.4108447078 -2.7811696183
C 3.4958073713 3.0515199302 -1.5708218904
C 3.0210823350 2.5185745102 -0.3740064520
C 2.3228205931 1.3302110223 -0.4373587134
C 1.7009981986 0.5260859658 0.6283286369
O 1.6794462926 0.6957423779 1.8242834130
H -4.8179799401 -0.1397952383 2.4202556893
H -5.4245673491 -1.7254821318 1.9074978564
H -3.6923859283 -1.4765266695 2.1804778442
H -5.3575243664 -0.1703117424 -0.0351240201
H -4.1723470787 -1.4946351039 -0.2465414270
H -0.4531737408 1.6871518919 -2.1024006073
H -1.7750037823 0.4877588139 -2.0693200206
H -3.3968268479 2.3134883774 -1.5394947390
H -2.0806137617 3.4915288265 -1.5547583605
H -2.5374886282 2.6586682744 -3.0516899933
H 0.3530010279 -3.6756915483 1.0903812429
H 1.0558768204 -3.2405685669 -0.5003719544
H 2.3973190301 0.7039032280 -3.7811775683
H 3.6586676969 2.8483089445 -3.6900123912
H 4.0434971678 3.9802034335 -1.5518591683
H 3.1848158032 3.0083937475 0.5724399570
40
CONF425
C -3.4545388140 -2.7993786378 0.0498597564
C -3.2622526192 -1.8030279826 -1.0756487198
O -2.1041058916 -0.9763110218 -0.8706321676
P -2.0871358545 0.1699773697 0.2400418279
S -3.8352158138 1.0022565501 0.5349309015
O -0.9549226864 1.1508576078 -0.3012118631
C -1.2107844270 1.9996776416 -1.4451669686
C -0.6018138718 3.3626271602 -1.1879476974
S -1.1462447914 -0.5641268962 1.9646449327
C 0.5008416686 -1.2852199741 1.4246625910
H 1.0228423341 -1.3288265425 2.3888873170
C 0.2932131771 -2.6712291571 0.8552698315
Cl 1.8936111975 -3.4335448643 0.6106995694
N 1.2296236393 -0.3954000812 0.5888197406
C 1.9882714369 0.6386855741 1.1546835752
O 2.1223498393 0.7953902705 2.3453031045
C 2.5323369140 1.4049661272 0.0254917754
C 3.3476284795 2.5190610049 0.0004238627
C 3.6912977321 3.0374253324 -1.2461944405
C 3.2348108009 2.4538059430 -2.4186634772
C 2.4145557733 1.3280277602 -2.3930396650
C 2.0705873568 0.8169416455 -1.1581403588
C 1.2120727917 -0.3288744362 -0.8071480531
O 0.6145273993 -1.0782885853 -1.5432855784
H -4.3433800988 -3.3905257411 -0.1463120910
H -2.5960945086 -3.4598792116 0.1319858542
H -3.5859346209 -2.2670792398 0.9919739011
H -4.1381493457 -1.1514954295 -1.1598387102
H -3.0700176663 -2.2958825225 -2.0293428211
H -0.7639282953 1.5082959290 -2.3125902877
H -2.2937644374 2.0752337110 -1.5897094048
H 0.4652035714 3.2721520702 -1.0042606075
H -0.7663003468 3.9925014237 -2.0559153915
H -1.0704843265 3.8192969225 -0.3201090626
H -0.2589382545 -3.2828123704 1.5661471090
H -0.1971367701 -2.6412615810 -0.1161925815
H 3.6966302819 2.9650312183 0.9177662580
H 4.3232988694 3.9094878644 -1.2979184700
H 3.5170687207 2.8786371710 -3.3686035951
H 2.0564037698 0.8666567359 -3.2994274150
40
CONF149
C -2.6185615503 0.3718238140 3.2302118236
C -2.7451983675 1.0195879213 1.8672540101
O -2.4069591904 0.0348034491 0.8691822391
P -1.8814925320 0.4263417080 -0.5864161969
S -0.7470837550 2.0255102058 -0.6305981550
O -3.1260646462 0.6905596421 -1.5304672061
C -4.0427500988 -0.3101792455 -2.0381515420
C -4.8128015911 -1.0093154269 -0.9375713857
S -1.1582279070 -1.4451356629 -1.2141901236
C 0.1366367688 -1.6779746572 0.0942105441
H -0.3778688329 -1.6581268452 1.0614414611
C 0.7819220900 -3.0273848200 -0.1672347446
Cl 1.9731448892 -3.3493995296 1.1252206021
N 1.0703445557 -0.6014130312 0.0941641764
C 1.9274265159 -0.2695992755 -0.9573398117
O 1.9968449872 -0.8834187408 -1.9974837251
C 2.6524406271 0.9301794995 -0.5110341156
C 3.6216374252 1.6784905439 -1.1463851555
C 4.1160779477 2.7946246664 -0.4759817309
C 3.6493235153 3.1427933663 0.7821150906
C 2.6687596570 2.3896729993 1.4231004083
C 2.1808874440 1.2828446104 0.7603837370
C 1.1481786178 0.3134492892 1.1498871761
O 0.4816495468 0.2303532965 2.1556744132
H -1.5855711504 0.0819400345 3.4030231004
H -2.9206480029 1.0848352707 3.9901647421
H -3.2533570436 -0.5076494600 3.2860293004
H -2.0636045931 1.8707585777 1.7653132026
H -3.7669627027 1.3556115409 1.6722203422
H -4.7024589044 0.2667749179 -2.6884384758
H -3.4706417820 -1.0266261164 -2.6326112218
H -5.5374590208 -1.6807995651 -1.3875111560
H -4.1371358659 -1.5866302293 -0.3106961279
H -5.3360488259 -0.2821798559 -0.3214806352
H 0.0351930561 -3.8180875906 -0.1423651312
H 1.3130285169 -3.0251888981 -1.1184225237
H 3.9740594086 1.4019577946 -2.1271119889
H 4.8730214462 3.4002796561 -0.9483588654
H 4.0481490360 4.0156863062 1.2739411118
H 2.2940315291 2.6563702508 2.3980727396
40
CONF418
C -4.1277935816 -0.4505132168 2.0615196351
C -2.6304573186 -0.6822445004 2.0715740851
O -1.9354051754 0.3152587854 1.2870398345
P -1.6429644273 0.2150824865 -0.2676954260
S -0.6662369680 1.7970864950 -0.8767660161
O -3.0259060441 -0.0469424520 -1.0157261146
C -3.6633419854 0.9446940631 -1.8435140670
C -4.4119219996 1.9601767611 -1.0033724226
S -0.8381398233 -1.7090727419 -0.5872816263
C 0.6165578007 -1.6047035069 0.5767211786
H 0.2135781567 -1.4486821452 1.5844643922
C 1.3806599523 -2.9160041288 0.4884159859
Cl 0.3462045205 -4.2364491622 1.0674528849
N 1.4376216792 -0.4779418088 0.2795744271
C 1.4433811418 0.6633588403 1.0955618554
O 0.8433616570 0.7317808219 2.1433318701
C 2.3236389798 1.6265933848 0.4215290642
C 2.7011929820 2.9028935893 0.7837733334
C 3.5422533881 3.5959804504 -0.0835073056
C 3.9824158425 3.0255986706 -1.2679060684
C 3.5997934250 1.7377442138 -1.6352020362
C 2.7687507345 1.0489245387 -0.7758767348
C 2.1808378560 -0.2941201024 -0.8908747007
O 2.2726379561 -1.1166569422 -1.7720209488
H -4.3490999770 0.5702357749 2.3617604586
H -4.5300773531 -0.6276115378 1.0675085408
H -4.5941461922 -1.1381954401 2.7602846445
H -2.3906752441 -1.6768284562 1.6832825531
H -2.2123984542 -0.5620706932 3.0731431830
H -2.9005010394 1.4395733509 -2.4520857673
H -4.3336150550 0.3694840878 -2.4835163514
H -3.7125780108 2.4734173417 -0.3438751149
H -4.8814731230 2.6890707370 -1.6562105079
H -5.1736989295 1.4725925649 -0.4014250442
H 1.6587146761 -3.1336807857 -0.5426432618
H 2.2619579028 -2.8805389165 1.1287796011
H 2.3458354981 3.3405326898 1.7026084391
H 3.8510991583 4.5972557034 0.1712646827
H 4.6291606214 3.5895025474 -1.9210137263
H 3.9316762832 1.2868730746 -2.5565340175
40
CONF364
C -5.2641196766 -0.6475046008 0.5453947459
C -4.1643692048 -1.1859383486 -0.3494339001
O -3.1711798507 -0.1714504640 -0.6025213210
P -1.8246046272 -0.0826989030 0.2378851447
S -2.0152574097 -0.1091884531 2.1916238720
O -1.1465721784 1.2026893136 -0.4021232760
C -1.3424398568 2.5204582638 0.1552699369
C -2.7863893940 2.9625460002 0.0652146332
S -0.6727764104 -1.6222857742 -0.6211707895
C 0.8101950719 -1.4413075914 0.4785541307
H 0.4307403633 -1.1719390046 1.4740050102
C 1.5782888929 -2.7513099811 0.5186863270
Cl 0.6019765933 -3.9780475971 1.3583575639
N 1.6069312164 -0.3508136729 0.0101910651
C 1.5646834568 0.9079173445 0.6145483422
O 0.9978429810 1.1365636756 1.6588981505
C 2.3212988229 1.8043395006 -0.2713663887
C 2.6168664118 3.1472941333 -0.1514950747
C 3.3496707055 3.7392515541 -1.1779569720
C 3.7681765870 3.0059411986 -2.2780501246
C 3.4714787739 1.6498560400 -2.3984679608
C 2.7439112686 1.0627191677 -1.3831005240
C 2.2644736239 -0.3205506211 -1.2261043355
O 2.3747809114 -1.2708579268 -1.9623799397
H -4.8597310233 -0.3904423907 1.5221511375
H -5.7064928574 0.2394536481 0.1006914716
H -6.0284744700 -1.4077771225 0.6688009691
H -4.5464616469 -1.4514599616 -1.3367775354
H -3.6846592144 -2.0592701898 0.1016513159
H -0.9989092395 2.5053221941 1.1950579305
H -0.6837589296 3.1522259347 -0.4431049258
H -3.4047822499 2.3269516448 0.6978426091
H -2.8697300149 3.9895976233 0.4063737084
H -3.1376435708 2.8875410603 -0.9606204019
H 1.7836181307 -3.1149871871 -0.4875815811
H 2.5024228118 -2.6254000044 1.0826077819
H 2.2871392069 3.7083038610 0.7082438240
H 3.5931234838 4.7877546669 -1.1138591751
H 4.3325676524 3.4928237086 -3.0572482509
H 3.7909906854 1.0712877047 -3.2501204339
40
CONF384
C -5.4815268381 0.3879159103 0.5187239591
C -4.5671076483 -0.6854915759 -0.0385415425
O -3.3575030309 -0.0905880936 -0.5566595100
P -1.9948867211 -0.1026376548 0.2563896744
S -2.1709540783 0.1256849129 2.1987221106
O -1.1172225999 0.9228821215 -0.5834268168
C -1.5098622442 2.2799715417 -0.8937030149
C -1.6718166271 3.1304032320 0.3486144370
S -1.0626970565 -1.9107193649 -0.3263008309
C 0.4889622308 -1.6349414013 0.6466890518
H 0.1864135132 -1.2595687550 1.6338006683
C 1.2148945887 -2.9621891499 0.7545124982
Cl 2.6738182627 -2.7342274432 1.7586526316
N 1.2683106048 -0.6122691031 0.0245727768
C 1.8078391933 -0.6939617613 -1.2615134479
O 1.7768910283 -1.6821668239 -1.9563896396
C 2.3696963562 0.6390398914 -1.5394769321
C 3.0305111933 1.1194839037 -2.6517449615
C 3.4345117070 2.4528005873 -2.6354350927
C 3.1822076846 3.2674437047 -1.5419725036
C 2.5175235165 2.7821741589 -0.4178364169
C 2.1174478553 1.4614063507 -0.4337794328
C 1.3951435180 0.6665767970 0.5717586323
O 0.9741873287 0.9834643546 1.6603452874
H -5.0110044499 0.8676966157 1.3744263430
H -5.6894268909 1.1369909494 -0.2399810732
H -6.4128159062 -0.0678139604 0.8387009491
H -5.0166672637 -1.1963026968 -0.8912974697
H -4.3096103524 -1.4138444760 0.7342658170
H -0.6912085267 2.6391142791 -1.5210992803
H -2.4346314152 2.2430907930 -1.4730686650
H -0.7884653277 3.0462492874 0.9788969356
H -1.8148265938 4.1670989955 0.0613414044
H -2.5323941528 2.7969731701 0.9259089843
H 0.5830644122 -3.7011427820 1.2425090485
H 1.5350753161 -3.3110115907 -0.2265027042
H 3.2202890444 0.4779606642 -3.4971702186
H 3.9518396559 2.8569943911 -3.4908691751
H 3.5048162607 4.2961988566 -1.5593577227
H 2.3177157705 3.4075508075 0.4375281146
40
CONF312
C -0.3980821222 2.4264177348 -2.1006135397
C -0.7326018053 2.6651715655 -0.6411520906
O -0.7621426800 1.4441798492 0.1218323259
P -1.8909333486 0.3395592159 -0.1206577485
S -3.5979547523 1.0126249710 -0.8010691803
O -1.9166843768 -0.2434278080 1.3557843251
C -3.0633854166 -0.9492315432 1.8658046587
C -3.2766311667 -2.2824826046 1.1758101637
S -0.9346450517 -1.1542546413 -1.2813468522
C 0.3997425645 -1.6600628641 -0.0824423871
H -0.0909109085 -1.9215948024 0.8607951220
C 1.1313269030 -2.8530974888 -0.6761121411
Cl 0.0329041621 -4.2494355296 -0.7442263858
N 1.2766946185 -0.5678869603 0.1911532243
C 1.3035460455 0.0758913235 1.4359304725
O 0.7292446776 -0.3311583775 2.4167258814
C 2.1689988014 1.2515213306 1.2534363820
C 2.5426368813 2.2389400789 2.1421039957
C 3.3693113743 3.2551528386 1.6668633795
C 3.8031508904 3.2733503542 0.3499215068
C 3.4282661948 2.2757265231 -0.5472912354
C 2.6083304416 1.2699782837 -0.0771250430
C 2.0287936117 0.1069496436 -0.7704465667
O 2.1334441776 -0.2406228579 -1.9240451547
H -0.3226423126 3.3814061786 -2.6103615413
H 0.5415319215 1.8895330846 -2.2058387858
H -1.1875606501 1.8383539845 -2.5685255181
H -1.7087284613 3.1514049024 -0.5524633439
H 0.0292374624 3.2667194815 -0.1423074069
H -2.8396874381 -1.0724419315 2.9264010903
H -3.9438266005 -0.3112815943 1.7401345679
H -3.4887110340 -2.1245574132 0.1182504146
H -2.3963271318 -2.9144844188 1.2677064655
H -4.1230672495 -2.7873154235 1.6305530700
H 1.4644636627 -2.6385850900 -1.6914176181
H 1.9732466099 -3.1289506444 -0.0410360094
H 2.1984605796 2.2177559186 3.1635561384
H 3.6747079292 4.0422788853 2.3377114565
H 4.4410207961 4.0741038135 0.0114355607
H 3.7594172853 2.2814169430 -1.5733502380
40
CONF117
C -4.1468864212 0.2895617596 2.4707154452
C -2.8252406952 -0.3905447102 2.1820776497
O -1.9511026914 0.4901872346 1.4274156570
P -1.8186165614 0.4680744487 -0.1358800429
S -0.6753819571 1.9187746892 -0.7891937156
O -3.3202037693 0.5308958434 -0.6434626660
C -3.6415952791 0.5063696290 -2.0524909645
C -5.0406258429 -0.0556601674 -2.2009520558
S -1.3005101662 -1.5355042414 -0.6736102780
C 0.2316087029 -1.7133796925 0.3568008321
H -0.0769576487 -1.6814266808 1.4084561164
C 0.8393764100 -3.0583562697 -0.0005784359
Cl 2.2635979886 -3.3370575624 1.0421596853
N 1.1279136703 -0.6231703866 0.1611146321
C 1.8030811546 -0.3222050949 -1.0252184117
O 1.7063951395 -0.9658590362 -2.0440232207
C 2.5878827282 0.8877372044 -0.7339769968
C 3.4392840179 1.6163647622 -1.5377727123
C 4.0317834891 2.7503364384 -0.9870809601
C 3.7720378190 3.1349457234 0.3190978360
C 2.9085744858 2.4022337968 1.1299825420
C 2.3246513134 1.2771003349 0.5863015227
C 1.3680572063 0.3231609192 1.1626314897
O 0.8575337999 0.2768879773 2.2589811692
H -4.7547383965 -0.3656136433 3.0868310119
H -3.9769307930 1.2239737021 2.9983391965
H -4.6706241033 0.5010108949 1.5424864932
H -2.9721305901 -1.3148606493 1.6167051322
H -2.2696867094 -0.5933730127 3.0999461144
H -3.5714796463 1.5307129310 -2.4268047969
H -2.9078057080 -0.1134136707 -2.5754663896
H -5.7484076715 0.5568273536 -1.6501869718
H -5.3116368534 -0.0590296332 -3.2514484786
H -5.0758190534 -1.0716968365 -1.8184954143
H 0.1257329409 -3.8590474831 0.1821411756
H 1.1763351044 -3.0682648332 -1.0365419424
H 3.6289150495 1.3125073083 -2.5546131660
H 4.7009847706 3.3414067278 -1.5917937171
H 4.2418684643 4.0207547249 0.7159945992
H 2.6932385218 2.6972699523 2.1443788841
40
CONF407
C -3.5323478682 1.5020553320 2.3132879450
C -2.4634901913 0.4287764290 2.2926666164
O -2.5859154341 -0.4039808861 1.1225326178
P -1.9897870965 -0.0710326712 -0.3166455846
S -1.0075401669 1.6336982314 -0.4187291482
O -3.2043871502 -0.2693316284 -1.3150996820
C -4.4104620923 0.5243489999 -1.2883107206
C -4.2464480634 1.8324098861 -2.0373307319
S -1.0439807099 -1.8493677075 -0.9245302035
C 0.3744277401 -1.8553200733 0.2809151856
H -0.0529974941 -1.8009109920 1.2893200937
C 1.1223693454 -3.1594483571 0.0682267469
Cl 2.4392114552 -3.2662943326 1.2688190586
N 1.1995849849 -0.7046403560 0.1158391206
C 1.2579524137 0.3036247173 1.0825006928
O 0.6787522966 0.2415326079 2.1448401718
C 2.1494916463 1.3331537327 0.5335556447
C 2.5609062574 2.5399515396 1.0600599579
C 3.4073414506 3.3259379710 0.2819891313
C 3.8200856137 2.9119495296 -0.9751410552
C 3.4030334259 1.6944023297 -1.5076516445
C 2.5657098125 0.9139899979 -0.7373175718
C 1.9461292955 -0.3901245801 -1.0225601956
O 2.0171114310 -1.0890120249 -2.0068171950
H -4.5213786355 1.0536754106 2.2628811085
H -3.4454087302 2.0698966730 3.2340775244
H -3.3965302660 2.1781992466 1.4705121919
H -2.5729603561 -0.2660521925 3.1264355356
H -1.4649755010 0.8729722947 2.3200025416
H -5.1505973854 -0.1161959829 -1.7718560902
H -4.6995940329 0.6964473652 -0.2485847842
H -5.1965075717 2.3572815161 -2.0502262388
H -3.4992544410 2.4598838686 -1.5559877584
H -3.9276290300 1.6402318639 -3.0582059206
H 0.4582731459 -4.0074290928 0.2191715870
H 1.5704808670 -3.1894630305 -0.9241034337
H 2.2288688565 2.8559277344 2.0357208213
H 3.7433378980 4.2761646355 0.6653983249
H 4.4729513720 3.5445112820 -1.5552509507
H 3.7142988098 1.3649750443 -2.4859618216
40
CONF150
C -2.5399555801 0.3491542404 3.2943894016
C -2.6907084331 1.0129369424 1.9417007199
O -2.3836636187 0.0361922292 0.9258510663
P -1.8930922505 0.4395409382 -0.5387456879
S -0.7528493732 2.0344625453 -0.5964514471
O -3.1600295430 0.7172212643 -1.4481583252
C -4.0912722194 -0.2753825686 -1.9455565499
C -4.8290810588 -0.9933748710 -0.8351629515
S -1.1924394494 -1.4278297167 -1.2031215743
C 0.1321859361 -1.6798290127 0.0717371671
H -0.3596207367 -1.6700984468 1.0508426623
C 0.7672238760 -3.0277061165 -0.2206158922
Cl 1.9860365088 -3.3689978314 1.0410219938
N 1.0688731886 -0.6059570121 0.0626385572
C 1.1738150114 0.2963660880 1.1268276323
O 0.5300783091 0.2035763065 2.1464967820
C 2.2004915354 1.2670811810 0.7250690491
C 2.7075765850 2.3641179726 1.3896394825
C 3.6766126755 3.1210069896 0.7356988376
C 4.1136624245 2.7859110937 -0.5365442256
C 3.5996843251 1.6797597368 -1.2087996241
C 2.6418097158 0.9277841145 -0.5607636962
C 1.9022006853 -0.2640054230 -1.0045779436
O 1.9450214140 -0.8651419109 -2.0535218730
H -2.8139425422 1.0580605052 4.0686925604
H -3.1847562917 -0.5225302932 3.3566618023
H -1.5069690319 0.0442853458 3.4389945261
H -2.0036183891 1.8589193994 1.8338462243
H -3.7132419588 1.3606077664 1.7730088374
H -4.7695355194 0.3121218649 -2.5665917784
H -3.5365401019 -0.9813348877 -2.5682743868
H -4.1353455551 -1.5802325659 -0.2375673067
H -5.3348774816 -0.2771917140 -0.1923016570
H -5.5658387052 -1.6581379382 -1.2753116545
H 0.0189034760 -3.8166404334 -0.1888057217
H 1.2770807737 -3.0152564263 -1.1832719262
H 2.3561540571 2.6204996650 2.3759938928
H 4.0901841566 3.9862969822 1.2287756363
H 4.8624347444 3.3941029973 -1.0185738190
H 3.9287241227 1.4136604736 -2.2004753316
40
CONF151
C -2.5471833658 0.3136397247 3.2967937913
C -2.6934072894 0.9936597133 1.9516465064
O -2.3873644084 0.0272115330 0.9257338716
P -1.8949581709 0.4423637141 -0.5347848321
S -0.7576423789 2.0397461030 -0.5805229539
O -3.1610089819 0.7235517270 -1.4446660055
C -4.0877464249 -0.2688159667 -1.9506614803
C -4.8339048549 -0.9879362818 -0.8465913391
S -1.1886066244 -1.4193337172 -1.2095723403
C 0.1314296477 -1.6740427568 0.0692838544
H -0.3630892302 -1.6597779893 1.0469757736
C 0.7615847804 -3.0254000487 -0.2173082062
Cl 1.9736438140 -3.3689939835 1.0499231964
N 1.0718746637 -0.6034298918 0.0598116081
C 1.1739322354 0.3037597404 1.1203640544
O 0.5273194994 0.2152899296 2.1386293210
C 2.2035747561 1.2712013785 0.7179360577
C 2.7082736708 2.3720206197 1.3780992997
C 3.6807063583 3.1244246248 0.7240241652
C 4.1238375142 2.7812036608 -0.5439677457
C 3.6123897467 1.6712427137 -1.2117771216
C 2.6507155340 0.9240155525 -0.5637808022
C 1.9118072042 -0.2693081998 -1.0045825458
O 1.9599805413 -0.8768088524 -2.0496473216
H -1.5145378956 0.0072525642 3.4413048629
H -2.8238727487 1.0131574963 4.0786396122
H -3.1923164387 -0.5587328753 3.3463267975
H -2.0033464183 1.8384967530 1.8548213308
H -3.7145203353 1.3463376147 1.7849233614
H -4.7612729652 0.3188915890 -2.5766201680
H -3.5279097040 -0.9741369411 -2.5695234567
H -4.1443182671 -1.5736269806 -0.2431146160
H -5.3461913397 -0.2724595278 -0.2081390999
H -5.5658469165 -1.6538835760 -1.2928988081
H 0.0093440704 -3.8106660882 -0.1864603858
H 1.2751758065 -3.0177515536 -1.1780307565
H 2.3522234199 2.6349928507 2.3610446891
H 4.0921490956 3.9927579770 1.2135327984
H 4.8754140432 3.3858982256 -1.0260381934
H 3.9462964596 1.3984312394 -2.2000030951
40
CONF385
C -5.4865260340 0.3472308957 0.5130730521
C -4.5623406356 -0.7098244066 -0.0590849765
O -3.3570854731 -0.0976393035 -0.5669086804
P -1.9978585195 -0.1018987748 0.2516823111
S -2.1792322618 0.1285183641 2.1933600634
O -1.1220601067 0.9269712330 -0.5861591465
C -1.5307703133 2.2751338853 -0.9138809673
C -1.7434965464 3.1276351833 0.3191543371
S -1.0565823378 -1.9081051265 -0.3231455690
C 0.4895614976 -1.6239080161 0.6555208999
H 0.1816748347 -1.2416454087 1.6383724711
C 1.2165243789 -2.9494255801 0.7769571129
Cl 2.6694457227 -2.7125440761 1.7878120313
N 1.2709987501 -0.6049758458 0.0298061818
C 1.8209033933 -0.6974347459 -1.2510721349
O 1.7949721888 -1.6911343850 -1.9383020779
C 2.3859064083 0.6329093993 -1.5351983623
C 3.0570170679 1.1034272435 -2.6455388315
C 3.4635478992 2.4360278846 -2.6360661118
C 3.2033438288 3.2595815945 -1.5511622524
C 2.5277434136 2.7844380238 -0.4291707008
C 2.1253508547 1.4643068271 -0.4381994059
C 1.3939846420 0.6781986846 0.5677243182
O 0.9643883274 1.0039535065 1.6502810020
H -5.6950262219 1.1087389338 -0.2329977651
H -6.4166473869 -0.1202485606 0.8191870865
H -5.0240349397 0.8143875136 1.3801387993
H -5.0065341779 -1.2109648350 -0.9203815198
H -4.2998188190 -1.4481440142 0.7024025756
H -0.7019783595 2.6469944874 -1.5201311161
H -2.4383192735 2.2180363027 -1.5182626225
H -1.9039017072 4.1592466630 0.0228366960
H -2.6103158651 2.7763750017 0.8763813324
H -0.8743119201 3.0675234668 0.9715308912
H 0.5827407488 -3.6856160308 1.2666060417
H 1.5428186518 -3.3049516978 -0.1996273606
H 3.2530664375 0.4548233510 -3.4841031545
H 3.9891453996 2.8325630454 -3.4900594054
H 3.5282196605 4.2875291224 -1.5737192739
H 2.3214515324 3.4168328095 0.4194531461
40
CONF657
C -2.9311709462 -3.5494029265 -1.3061290001
C -3.9800992192 -2.4906043181 -1.0395001466
O -3.6864832382 -1.7308892712 0.1613290356
P -2.6710937251 -0.5378301889 0.2720435888
S -2.9642446742 0.5515853167 1.8704297372
O -2.8667145169 0.2240937230 -1.1143673508
C -2.6266638219 1.6321417270 -1.3013618276
C -3.5872808091 2.1316075526 -2.3615876530
S -0.7414294378 -1.4504901217 0.1678525116
C 0.2315580956 -0.1005139728 0.9836278844
H -0.3917571929 0.8029831911 0.9466937780
C 0.5032075368 -0.5033533520 2.4192173346
Cl 1.4492880897 0.7853302194 3.2100931402
N 1.4100046292 0.1663337164 0.2263308276
C 2.5581602991 -0.6315581273 0.1865063908
O 2.7028057857 -1.6622907274 0.7987124489
C 3.4740226485 0.0499753798 -0.7450871991
C 4.7573857118 -0.2731246844 -1.1351521168
C 5.3852084301 0.5708295893 -2.0492942717
C 4.7437901778 1.6933564897 -2.5500629519
C 3.4472676454 2.0198577970 -2.1580412719
C 2.8257914100 1.1850137165 -1.2514890118
C 1.4863962976 1.2495348864 -0.6502014134
O 0.5790264245 2.0300426675 -0.8329309274
H -3.2497964685 -4.1592110467 -2.1458426492
H -1.9735130785 -3.0901095383 -1.5432788900
H -2.8040347505 -4.1815518043 -0.4315679156
H -4.9507898746 -2.9379553636 -0.8199930611
H -4.0683179341 -1.7980881567 -1.8777671984
H -2.7848800519 2.1460203324 -0.3469974610
H -1.5862575427 1.7696777234 -1.6070280823
H -3.4063755131 3.1879487637 -2.5305583601
H -3.4340573184 1.5879120320 -3.2892508896
H -4.6135769745 1.9918534198 -2.0328363427
H -0.4367762311 -0.6004176143 2.9619685824
H 1.0852792282 -1.4226896857 2.4684724799
H 5.2472982751 -1.1486457860 -0.7406726487
H 6.3887826513 0.3440654318 -2.3720881265
H 5.2556237349 2.3270911489 -3.2565791646
H 2.9405779914 2.8906996144 -2.5417159443
40
CONF333
C -0.3556296624 2.6421230913 -1.6854541449
C -0.8070277660 2.6913944579 -0.2388437038
O -0.8607911075 1.3838749515 0.3608564703
P -1.9528486636 0.3078063179 -0.0875500260
S -3.6232467199 1.0443647989 -0.7923403634
O -2.0638671560 -0.4556695053 1.3000245522
C -3.2281913503 -1.2348078988 1.6335755817
C -3.3630816210 -2.4719361032 0.7672742099
S -0.8927680521 -1.0192581351 -1.3569074568
C 0.4020921861 -1.5951207135 -0.1493387115
H -0.1133863112 -1.8539840613 0.7814978265
C 1.1064198387 -2.8015759236 -0.7484293412
Cl -0.0244543691 -4.1699081558 -0.8341516465
N 1.3081343945 -0.5350816792 0.1555295351
C 1.3200874520 0.0995465280 1.4051368407
O 0.7039298663 -0.2943174139 2.3659270146
C 2.2312440532 1.2455636785 1.2557653186
C 2.6164535630 2.2121986902 2.1624019347
C 3.4957146329 3.1984284334 1.7195847102
C 3.9699858405 3.2076651434 0.4165619686
C 3.5840750955 2.2309763954 -0.4986556198
C 2.7110936777 1.2555344693 -0.0610530031
C 2.1105582784 0.1184259430 -0.7803295195
O 2.2370918989 -0.2265583743 -1.9322165698
H -0.2696906944 3.6540734779 -2.0676481594
H 0.6054644163 2.1417358508 -1.7785545239
H -1.0889794802 2.1001271466 -2.2824787947
H -1.7998835979 3.1457623207 -0.1681097606
H -0.1020609911 3.2390474589 0.3890109703
H -3.0778604787 -1.4889815694 2.6836671229
H -4.1114389547 -0.5973632123 1.5259912539
H -3.5142876869 -2.1830905947 -0.2729406410
H -2.4728358990 -3.0932993017 0.8332914439
H -4.2217664036 -3.0472509284 1.0985201775
H 1.4519433680 -2.5876312577 -1.7597239356
H 1.9372700479 -3.1031381276 -0.1102948462
H 2.2416171472 2.1976599187 3.1731573899
H 3.8112509317 3.9687505827 2.4050519472
H 4.6489967658 3.9844953318 0.1033757891
H 3.9462357485 2.2291458413 -1.5142098647
40
CONF378
C -3.0768099556 -1.8713769268 -2.3498325787
C -2.9882769399 -0.5975333882 -1.5372212106
O -2.1790003079 -0.8791657383 -0.3718601307
P -1.9636605031 0.2199176059 0.7455713618
S -3.5969105557 1.0436674602 1.4458070431
O -0.9875594110 1.2681536392 0.0143555228
C -0.9096491266 2.6392431325 0.4407630272
C -0.3004215978 2.7782037244 1.8214617860
S -0.8052478436 -0.8660569624 2.1156376534
C 0.6196404511 -1.5721428985 1.1151119616
H 1.3476543518 -1.7697225871 1.9120511581
C 0.1785843680 -2.8571197263 0.4512637539
Cl 1.6050533033 -3.6369973994 -0.2926334905
N 1.1951081699 -0.6022255240 0.2465862281
C 0.9146900761 -0.3689344763 -1.1043915331
O 0.1772389433 -1.0252050216 -1.7991758722
C 1.7205687644 0.8083020614 -1.4768294246
C 1.8196862677 1.4752029357 -2.6805602908
C 2.6596074380 2.5856615402 -2.7340026615
C 3.3713370779 3.0040402229 -1.6195759856
C 3.2739930702 2.3287085805 -0.4053522481
C 2.4405644018 1.2291632708 -0.3530688415
C 2.1123172392 0.3260764833 0.7579292216
O 2.5031683106 0.3206776517 1.9019727290
H -3.6900800048 -1.6922542229 -3.2267955896
H -2.0799441270 -2.1714916667 -2.6618772738
H -3.5208885219 -2.6645356197 -1.7551852262
H -3.9705805321 -0.2561600618 -1.1952239567
H -2.5050291355 0.2017798008 -2.1044219657
H -0.2987328440 3.1199203057 -0.3251598354
H -1.9207095175 3.0578606279 0.4331638232
H 0.6849740034 2.3206397231 1.8660377248
H -0.2154730544 3.8308476261 2.0707367238
H -0.9421785088 2.2928617911 2.5568526698
H -0.2201663816 -3.5398461192 1.1989679586
H -0.5457070962 -2.6790917156 -0.3410788410
H 1.2631714360 1.1424942440 -3.5420423453
H 2.7556642435 3.1290485376 -3.6605183058
H 4.0121059546 3.8681924353 -1.6922024243
H 3.8231458968 2.6451734035 0.4667545053
40
CONF17
C -2.8149664019 -1.2954352906 2.7874732927
C -3.1634486531 0.0825460641 2.2616519773
O -2.0855586389 0.6406158868 1.4637724326
P -1.9442989077 0.5280942714 -0.1008360550
S -0.7738418563 1.9308368861 -0.8136584553
O -3.4511568365 0.6138431153 -0.5975969876
C -3.7980221663 0.9533743429 -1.9528619439
C -3.3475549760 -0.1028684583 -2.9403625141
S -1.4412989265 -1.4993317553 -0.5335685861
C 0.0967521870 -1.6318695755 0.4920911491
H -0.1958630934 -1.5019853161 1.5403471211
C 0.6695641080 -3.0157381016 0.2428359779
Cl 2.1014177964 -3.2402670412 1.2894703931
N 1.0174560513 -0.5844746490 0.1948519536
C 1.6729955383 -0.3926999677 -1.0235253925
O 1.5416170068 -1.1106316586 -1.9874910596
C 2.4880365875 0.8197050904 -0.8447438516
C 3.3386047654 1.4629590696 -1.7192561089
C 3.9645803812 2.6240653929 -1.2720238277
C 3.7379217221 3.1173437045 0.0034516658
C 2.8754441667 2.4707849393 0.8854958580
C 2.2581573956 1.3190553991 0.4441773018
C 1.2936800265 0.4341072641 1.1119310461
O 0.8047557515 0.4869094088 2.2179104869
H -3.5891533314 -1.6100016306 3.4805295210
H -2.7559478809 -2.0161962146 1.9753729052
H -1.8641141819 -1.2622246133 3.3147757645
H -3.2714530149 0.7991991192 3.0773877777
H -4.0722798271 0.0634866304 1.6587998029
H -4.8847548321 1.0438663903 -1.9255106904
H -3.3475649474 1.9216877456 -2.1913444377
H -3.7061506626 -1.0836117292 -2.6381072994
H -3.7363672825 0.1372893127 -3.9246660814
H -2.2593404344 -0.1280157381 -2.9896556406
H -0.0582674063 -3.7821446319 0.5003157755
H 0.9926777475 -3.1205127552 -0.7921796158
H 3.5027233560 1.0746125414 -2.7115070478
H 4.6340963840 3.1501307689 -1.9337423124
H 4.2333744197 4.0214568471 0.3197793469
H 2.6856955618 2.8505206336 1.8766000376
40
CONF76
C -5.1364943334 0.5587837585 2.2935114333
C -3.7100694575 0.0531801040 2.2216026423
O -3.1593094844 0.4740745812 0.9543601253
P -1.6053649599 0.3782027750 0.6526609022
S -0.4471456650 1.2956040594 1.9389856373
O -1.4934218930 1.0263913381 -0.7762587107
C -2.3797175009 0.6748992568 -1.8720999174
C -3.4047370243 1.7693313245 -2.0763099886
S -1.3990919631 -1.7335352978 0.4142257066
C 0.4466807694 -1.9438054516 0.4192037568
H 0.7533293508 -2.0806499948 1.4628293904
C 0.7392475330 -3.1787473753 -0.4166001141
Cl 2.4967756654 -3.5062361302 -0.3590578165
N 1.1077246021 -0.7738141052 -0.0555921226
C 0.9655390512 -0.2233379469 -1.3262701735
O 0.2926925226 -0.7073317328 -2.2092799609
C 1.7845591199 0.9987424561 -1.3228781130
C 1.9660893625 1.9576034177 -2.2981844063
C 2.7952772086 3.0346113975 -1.9955954350
C 3.4160555166 3.1386912212 -0.7601055466
C 3.2352322983 2.1696083250 0.2239801065
C 2.4126242104 1.1033036866 -0.0747949292
C 2.0162832554 -0.0556280979 0.7391687118
O 2.3835613762 -0.4190131402 1.8305937458
H -5.7161410040 0.1527371019 1.4697668848
H -5.5778133027 0.2429895640 3.2329619367
H -5.1521269021 1.6434821788 2.2375276500
H -3.6692677174 -1.0383212506 2.2660156479
H -3.0919916195 0.4696050644 3.0232896524
H -1.7222869000 0.5593102385 -2.7361871221
H -2.8547079079 -0.2838263564 -1.6497381043
H -4.0355945946 1.8579131452 -1.1957548864
H -2.9059692431 2.7190738614 -2.2477533202
H -4.0185836576 1.5236297896 -2.9369428988
H 0.2210703323 -4.0447353091 -0.0100081061
H 0.4645583004 -3.0157922504 -1.4581591560
H 1.4792831385 1.8680165921 -3.2560149819
H 2.9546589661 3.8018223142 -2.7364791664
H 4.0500463615 3.9861609529 -0.5533417217
H 3.7077501890 2.2425235233 1.1902011631
40
CONF383
C -5.7335627756 0.3560298486 -0.1716894457
C -4.5697605565 -0.5942142561 0.0301083545
O -3.3620369414 0.0690775842 -0.3971372774
P -1.9700963918 -0.1293590222 0.3364701473
S -2.0943693483 -0.2809896715 2.2907255722
O -1.1004385136 1.0311315077 -0.3139101314
C -1.4770418124 2.4277061819 -0.3325155980
C -1.5580066475 3.0200482158 1.0587787270
S -1.0968790307 -1.7975123600 -0.6251409583
C 0.4918220645 -1.7433280479 0.3259839663
H 0.2294116217 -1.5727092506 1.3788975299
C 1.1954459948 -3.0733556311 0.1359540076
Cl 2.6910086208 -3.0715571633 1.1118064562
N 1.2686589232 -0.6248821383 -0.1045668099
C 1.4373797698 0.5148353633 0.6849831721
O 1.0602162350 0.6082620618 1.8303473963
C 2.1375178249 1.4899613534 -0.1655735279
C 2.5604745354 2.7761776396 0.1018550834
C 3.1915924999 3.4735369377 -0.9259441635
C 3.3896115325 2.8957461148 -2.1708949150
C 2.9628729687 1.5972264276 -2.4409960398
C 2.3353012590 0.9069620095 -1.4239716801
C 1.7608777872 -0.4491847515 -1.4003772825
O 1.6881157305 -1.2755108071 -2.2790251542
H -5.6118625764 1.2377532218 0.4517241645
H -5.7880723394 0.6620449726 -1.2124291641
H -6.6538629861 -0.1488230690 0.1027910484
H -4.6786930456 -1.4954951166 -0.5766291126
H -4.4618273906 -0.8747891858 1.0832520953
H -0.6820421634 2.8922391690 -0.9197841578
H -2.4297502473 2.5172939940 -0.8583097297
H -1.6916909158 4.0946355020 0.9871899847
H -2.3957326572 2.5905706082 1.6056054643
H -0.6467617631 2.8031763572 1.6129708444
H 0.5661469316 -3.8884082476 0.4867465504
H 1.4761721418 -3.2192395513 -0.9063927570
H 2.4030155145 3.2166975520 1.0733692377
H 3.5305615116 4.4814442071 -0.7472368475
H 3.8815740668 3.4606670902 -2.9465265026
H 3.1104403072 1.1390712647 -3.4056845657
40
CONF617
C -4.0107008005 -2.7661497708 -1.7435328864
C -4.3680771563 -1.4055417627 -1.1799311670
O -3.8085194007 -1.2554142665 0.1528167296
P -2.6014311219 -0.3120191742 0.4980844487
S -2.1452684060 -0.3828769424 2.3966236678
O -3.1218402000 1.0806005259 -0.0773592714
C -2.5124905678 2.3511504397 0.2240334917
C -3.2792921778 3.0468384497 1.3318189447
S -1.0452159594 -0.8971102969 -0.8616661859
C 0.3843135480 -0.9694145163 0.3085492797
H 0.0147112662 -0.5453116281 1.2552741854
C 0.7917155400 -2.4159730677 0.5006994887
Cl 2.1413436065 -2.4791059580 1.6682664374
N 1.4332270589 -0.1208246842 -0.1573018006
C 1.4837093832 1.2194110122 0.2292459965
O 0.6641600654 1.7372267815 0.9558826070
C 2.6590445009 1.7904537247 -0.4414073876
C 3.2038265580 3.0573945786 -0.3847407795
C 4.3410136158 3.3033655755 -1.1510834446
C 4.9028104674 2.3132529785 -1.9426610051
C 4.3509704196 1.0350215207 -2.0021962008
C 3.2260233691 0.7896706331 -1.2420246947
C 2.4181682425 -0.4353519839 -1.0996799873
O 2.5270539455 -1.4968940232 -1.6643679381
H -4.3185195619 -3.5456777031 -1.0524051321
H -4.5247617458 -2.9028920884 -2.6895974527
H -2.9386496316 -2.8412992501 -1.9073516447
H -5.4454042652 -1.3040042057 -1.0402383225
H -4.0010747870 -0.5990903019 -1.8167321644
H -1.4680288770 2.2076431184 0.5125739509
H -2.5618117743 2.9140771660 -0.7101524687
H -4.3246194907 3.1520832979 1.0550413349
H -3.2141450019 2.4662521818 2.2496394554
H -2.8481363779 4.0275637257 1.5037588819
H -0.0365759420 -2.9801876983 0.9263279552
H 1.1385109409 -2.8634615604 -0.4295016642
H 2.7592243629 3.8205978126 0.2334561288
H 4.7903115251 4.2833121640 -1.1269546009
H 5.7828743885 2.5345645839 -2.5251481398
H 4.7791497553 0.2590156493 -2.6159281280
40
CONF631
C -0.8878283530 3.4802938250 -0.3094010199
C -0.7327859056 2.2069290677 -1.1171758105
O -0.9973857466 1.0799720300 -0.2624469257
P -1.8274756114 -0.2030036025 -0.7563994969
S -3.1662184956 0.2000830412 -2.1284725399
O -2.2878507014 -0.8637354854 0.6031463321
C -2.9380244372 -0.1783792531 1.6990849927
C -4.0977300402 0.6820199288 1.2496787575
S -0.4311373144 -1.6346801112 -1.3943753919
C 0.6252925847 -1.8053271952 0.1374881772
H -0.0536396994 -2.0360875167 0.9645495386
C 1.6154099661 -2.9334827624 -0.1035134414
Cl 0.7374968346 -4.4725686416 -0.2621700755
N 1.2791738987 -0.5743121292 0.4422657986
C 2.1833309712 0.0795907176 -0.3999013325
O 2.5959192656 -0.3710300362 -1.4425123950
C 2.4727297097 1.3672871220 0.2547343404
C 3.3095115671 2.3976443140 -0.1241229551
C 3.3715221206 3.5157513123 0.7049230704
C 2.6224333735 3.5899787045 1.8695107422
C 1.7772252349 2.5503250531 2.2525844347
C 1.7126736165 1.4436333680 1.4297327104
C 0.9161254434 0.2129397863 1.5410628880
O 0.1091706158 -0.1227649613 2.3754942527
H -0.2271938910 3.4601856820 0.5528382298
H -0.6349767198 4.3275093302 -0.9379995693
H -1.9138733944 3.5843823259 0.0323810610
H 0.2853945782 2.0978292083 -1.5018881413
H -1.4365274277 2.1810654431 -1.9566508488
H -3.2694615450 -0.9952461709 2.3424564447
H -2.1776928460 0.4095455289 2.2187348334
H -4.8248648112 0.0843604892 0.7040847076
H -4.5742061681 1.1241648266 2.1190088310
H -3.7458384816 1.4753909129 0.5915372293
H 2.1714989773 -2.7694352588 -1.0262968001
H 2.2903010070 -3.0278927351 0.7471260740
H 3.8885171167 2.3297819485 -1.0310483752
H 4.0146363211 4.3374835872 0.4335557504
H 2.6911885026 4.4687921859 2.4904959071
H 1.1901742898 2.6001002477 3.1556946415
40
CONF450
C -4.7245187624 -1.7707205174 1.1303968967
C -4.4278886760 -1.5436579905 -0.3365051699
O -3.5870446971 -0.3966844567 -0.5748040648
P -2.2496118706 -0.0473595339 0.2094079937
S -2.4651111966 0.7450416627 1.9955684496
O -1.5369063535 0.9181199136 -0.8362307238
C -2.0595619244 2.2497910626 -1.0650728936
C -0.9133207994 3.1712378196 -1.4258440312
S -1.0722041747 -1.7830847930 0.0379392386
C 0.3644515744 -1.1510367066 1.0120047676
H -0.0393100812 -0.4685941780 1.7734665239
C 1.0627653937 -2.3396575402 1.6469486440
Cl 2.4217854595 -1.7374747048 2.6386887871
N 1.2196642401 -0.3848125717 0.1634044764
C 1.9074871417 -0.8964536587 -0.9403760380
O 1.8983457744 -2.0582341644 -1.2720693139
C 2.5842588574 0.2594454710 -1.5519948745
C 3.4128874648 0.3324346030 -2.6530859122
C 3.9127139188 1.5853352852 -3.0015907210
C 3.5909785841 2.7167427247 -2.2675622317
C 2.7551475309 2.6432857988 -1.1554147804
C 2.2567474608 1.4030728206 -0.8114079866
C 1.3602905862 0.9979193146 0.2838631282
O 0.8214685487 1.6617231387 1.1398496561
H -5.1611573762 -0.8789931157 1.5740429656
H -5.4173822627 -2.5997670571 1.2321349566
H -3.8060422981 -2.0070845997 1.6661043707
H -5.3360261380 -1.3156639012 -0.8974668743
H -3.9305348586 -2.4152597043 -0.7702166344
H -2.7886339074 2.1737355818 -1.8745003819
H -2.5637800431 2.5876470770 -0.1533354728
H -1.3119353079 4.1499552061 -1.6720964248
H -0.2349352082 3.2634836964 -0.5818179942
H -0.3696894192 2.7752112688 -2.2793415631
H 0.3805236061 -2.8750093700 2.3036197992
H 1.4719019592 -3.0031186812 0.8859617610
H 3.6579180017 -0.5541803347 -3.2153881828
H 4.5621484006 1.6741644488 -3.8578006570
H 3.9932663194 3.6732529852 -2.5606047902
H 2.5031696532 3.5187995463 -0.5788818497
40
CONF31
C -3.6386619028 1.5906937876 2.1434435798
C -2.4121661268 0.7103473203 2.2565863608
O -2.2872478723 -0.1642861287 1.1215369977
P -1.8990494756 0.3747918269 -0.3314248119
S -0.7945431043 1.9953965401 -0.3374184094
O -3.2198500031 0.6660350222 -1.1531076283
C -4.1244833440 -0.3219328808 -1.7025465066
C -4.8125956924 -1.1400905017 -0.6305211660
S -1.1783125638 -1.4113867625 -1.1902915434
C 0.2164303534 -1.7265017317 -0.0095147293
H -0.2212170914 -1.7908770672 0.9932450812
C 0.8525628680 -3.0407306171 -0.4251836462
Cl 2.1436303102 -3.4440909394 0.7423110192
N 1.1358688126 -0.6374927615 0.0058529047
C 1.2495472815 0.2171925623 1.1072879819
O 0.6307611959 0.0657503410 2.1368073162
C 2.2482295325 1.2253582022 0.7273972805
C 2.7543862651 2.2983326264 1.4309753988
C 3.6913272146 3.1042648557 0.7890566877
C 4.0987639520 2.8397429138 -0.5094318949
C 3.5862673592 1.7576515763 -1.2207403542
C 2.6601527752 0.9570084633 -0.5846996090
C 1.9316467907 -0.2270226813 -1.0662018654
O 1.9572948739 -0.7746545313 -2.1443827126
H -3.7048862508 2.2298806138 3.0180683327
H -3.5592254787 2.2141177053 1.2526570879
H -4.5362822694 0.9824311171 2.0726153325
H -2.4682082006 0.0313504973 3.1082557952
H -1.5024693354 1.3134545709 2.3352555191
H -4.8358726045 0.2808523441 -2.2694135365
H -3.5587615883 -0.9636022551 -2.3826540582
H -5.5091870089 -1.8253579447 -1.1032769880
H -4.0807204054 -1.7124981666 -0.0650755736
H -5.3576421718 -0.4900670499 0.0488005415
H 0.1174705211 -3.8424089802 -0.4051437605
H 1.3081822677 -2.9565035419 -1.4111564644
H 2.4264721638 2.4998247163 2.4379402441
H 4.1029740534 3.9522525800 1.3128208123
H 4.8229688398 3.4847905722 -0.9809488820
H 3.8927180736 1.5455963564 -2.2324736877
40
CONF590
C -4.1770333278 -1.1821292627 -1.7159690055
C -2.9437775843 -1.6998536883 -1.0014937950
O -1.9755562036 -0.6490291239 -0.8181500966
P -1.9153437491 0.2070526434 0.5239700199
S -3.6034928591 0.9761305473 1.1481947538
O -0.7704480563 1.2554731041 0.1839749029
C -1.0829757690 2.5384297463 -0.4021343593
C -1.5769794619 2.3946003927 -1.8253282115
S -0.9979035182 -1.0118934758 1.9746916703
C 0.6424049572 -1.5914364142 1.2554805507
H 1.2257470507 -1.7404991200 2.1724325024
C 0.4339282704 -2.8998002456 0.5255568226
Cl 2.0337114134 -3.5746435975 0.0939026141
N 1.2862061908 -0.5732463608 0.5007364910
C 1.9988344836 0.4380830218 1.1594010171
O 2.1675092628 0.4662107952 2.3561518586
C 2.4441999863 1.3674961553 0.1132134081
C 3.1799342271 2.5328424059 0.1960154163
C 3.4304684122 3.2213385300 -0.9887611010
C 2.9606838091 2.7519415262 -2.2062940179
C 2.2212212784 1.5742093466 -2.2895574548
C 1.9704085680 0.8935887330 -1.1157415531
C 1.2046768199 -0.3434113782 -0.8770592229
O 0.6267268842 -1.0407153230 -1.6756181403
H -3.8976178665 -0.7381681980 -2.6672935136
H -4.8593185442 -2.0075471591 -1.8914569355
H -4.6776142394 -0.4322387814 -1.1074252053
H -2.4260266930 -2.4492291947 -1.6039580674
H -3.2052418474 -2.1234452558 -0.0264677008
H -1.8351446918 3.0286564792 0.2237484679
H -0.1397700175 3.0848821069 -0.3480554659
H -1.6611727555 3.3767559037 -2.2791429379
H -0.8867965348 1.7830463881 -2.4013659461
H -2.5547763878 1.9155538439 -1.8271675453
H -0.0612673702 -3.6138411836 1.1804052283
H -0.1166225523 -2.7654827669 -0.4033829266
H 3.5397200785 2.8887989978 1.1480116915
H 3.9993306655 4.1367948561 -0.9556368119
H 3.1690927035 3.3081232753 -3.1062268210
H 1.8545960178 1.2006391677 -3.2323347171
40
CONF21
C -3.5004746103 1.4353963616 2.4247942477
C -2.2200816077 0.6539784026 2.6229638795
O -1.9931245769 -0.2945301777 1.5585543015
P -1.7860241296 0.1299572523 0.0500455573
S -0.8755094114 1.8478613634 -0.2780076622
O -3.2680260885 0.0962178875 -0.5223240729
C -3.6240753715 0.6894145366 -1.7824649693
C -3.0163362194 -0.0584156444 -2.9516015147
S -0.9555024631 -1.6517472367 -0.6973790452
C 0.5842022548 -1.7187737676 0.3448378839
H 0.2534329615 -1.7373625304 1.3896338576
C 1.3471158602 -2.9824089465 -0.0180349379
Cl 0.3867236154 -4.4037032474 0.4444154463
N 1.3726557086 -0.5428382407 0.1684446734
C 2.0290977461 -0.1721607718 -1.0109362295
O 2.0682967351 -0.8522318405 -2.0090012808
C 2.6046330139 1.1537328340 -0.7400977020
C 3.3689758591 1.9776486973 -1.5407576875
C 3.7594031192 3.2065101508 -1.0143956327
C 3.3918183589 3.5892770029 0.2664453826
C 2.6177468187 2.7602410223 1.0746189954
C 2.2319194592 1.5424406732 0.5540318354
C 1.4082626752 0.4723220741 1.1321912850
O 0.8697179560 0.3841057614 2.2136000769
H -3.6777058869 2.0594056583 3.2950833794
H -3.4145182672 2.0716533997 1.5444656398
H -4.3372541530 0.7552057198 2.2877806559
H -2.2563208861 0.0291568047 3.5162472494
H -1.3526645850 1.3185150590 2.6790312667
H -4.7136351558 0.6428402156 -1.7955742641
H -3.2935282968 1.7332444208 -1.7799608836
H -3.2684649213 -1.1145676997 -2.8971464688
H -3.3923856814 0.3564590838 -3.8812194240
H -1.9309018454 0.0408175136 -2.9339594486
H 1.5258393990 -3.0327089527 -1.0918879926
H 2.2859878562 -3.0249793883 0.5339273981
H 3.6451356576 1.6720427840 -2.5370549915
H 4.3548524849 3.8731069678 -1.6176400629
H 3.7054999735 4.5489856113 0.6451373790
H 2.3203703460 3.0528735829 2.0686238235
40
CONF596
C -4.2486795319 -1.2486219383 -1.6086704872
C -3.0096232945 -1.7481222558 -0.8912826443
O -2.0234393268 -0.7035622119 -0.7784310006
P -1.9258877209 0.2127356988 0.5211223570
S -3.5957982213 1.0155598635 1.1521264158
O -0.7862924637 1.2409511365 0.1099167947
C -1.1096327974 2.4995192445 -0.5216288271
C -1.6297891351 2.2982648377 -1.9283729323
S -0.9742416512 -0.9440148666 2.0013588415
C 0.6440241657 -1.5582770620 1.2657275405
H 1.2332946365 -1.7173273727 2.1773435448
C 0.4045380100 -2.8633539461 0.5392947260
Cl 1.9876492899 -3.5740178104 0.1041983387
N 1.3008565075 -0.5533676344 0.5038100893
C 2.0504298946 0.4369954676 1.1528391670
O 2.2427223767 0.4557457716 2.3462228297
C 2.4996773830 1.3593000524 0.1018434952
C 3.2679975625 2.5040927134 0.1748977139
C 3.5154667807 3.1900125981 -1.0120062967
C 3.0111303286 2.7379906984 -2.2222702788
C 2.2391574740 1.5806437748 -2.2958718336
C 1.9916106671 0.9025149840 -1.1199145579
C 1.2008166719 -0.3167719007 -0.8717316989
O 0.5949831768 -0.9990383346 -1.6626222588
H -4.7272928317 -0.4617186682 -1.0299596709
H -3.9810410741 -0.8574904959 -2.5861574248
H -4.9455898015 -2.0716464667 -1.7296406194
H -2.5146805748 -2.5350022032 -1.4642122904
H -3.2589580378 -2.1182945006 0.1083280148
H -1.8503674668 3.0147800113 0.0978474670
H -0.1658494925 3.0474319048 -0.5070144835
H -1.7248325733 3.2613335152 -2.4194485767
H -0.9494138216 1.6646638321 -2.4920522090
H -2.6062984151 1.8179452082 -1.8925844241
H -0.1041417251 -3.5651181644 1.1971370175
H -0.1451900196 -2.7182280482 -0.3885039154
H 3.6548205096 2.8466308286 1.1211775475
H 4.1098405207 4.0893559952 -0.9862743548
H 3.2183297664 3.2914949075 -3.1241357044
H 1.8458447570 1.2205777435 -3.2330731003
40
CONF598
C -4.6269278284 -0.8520219583 -0.5263815829
C -3.3337084857 -1.4849431653 -0.0506544905
O -2.2286524392 -0.5742813207 -0.2156687105
P -1.7247309594 0.3418448134 0.9864255029
S -3.1114479389 1.2717981688 2.0077368711
O -0.6579464460 1.2779063313 0.2719010214
C -1.0439712742 2.5410530935 -0.3138029851
C -1.9070700662 2.3460247416 -1.5416395356
S -0.4984084052 -0.8753963025 2.1902811501
C 0.8072373310 -1.6185364946 1.0606254969
H 1.5873950778 -1.8662135264 1.7912015064
C 0.2617408158 -2.8674221327 0.4042910150
Cl 1.6053087289 -3.7117198319 -0.4218928050
N 1.3506379977 -0.6540111637 0.1679292011
C 0.9308516234 -0.3573001252 -1.1334539205
O 0.0799134833 -0.9491894716 -1.7529898982
C 1.7518008343 0.7909493700 -1.5596411461
C 1.7622634578 1.4862697316 -2.7515301164
C 2.6402982489 2.5621618963 -2.8623441990
C 3.4756339022 2.9194396012 -1.8144682998
C 3.4673145425 2.2159287891 -0.6122452520
C 2.5945660044 1.1518088911 -0.5018343086
C 2.3355361497 0.2360882445 0.6169113794
O 2.8248916105 0.1906169776 1.7214186030
H -4.8732490017 0.0086637934 0.0916093728
H -4.5263021278 -0.5314535806 -1.5594837220
H -5.4280783910 -1.5802716428 -0.4523640484
H -3.0740197131 -2.3537014602 -0.6587580116
H -3.4064581895 -1.7779656987 1.0013996317
H -1.5723971503 3.1247269982 0.4464885199
H -0.0914845044 3.0171994575 -0.5533194232
H -2.0404791482 3.2985314630 -2.0442766070
H -1.4381183553 1.6362949654 -2.2189254300
H -2.8809281782 1.9576430078 -1.2485128400
H -0.1362209748 -3.5400207773 1.1614309089
H -0.4831536747 -2.6363701713 -0.3545644964
H 1.1115101616 1.2007069728 -3.5624210388
H 2.6685112877 3.1269084307 -3.7804641998
H 4.1443812235 3.7574486973 -1.9296438377
H 4.1121374833 2.4848249457 0.2089000358
40
CONF164
C -0.9585438205 0.8005114941 -3.3407366221
C -0.9451885879 1.8605142275 -2.2573274814
O -0.6916990479 1.3035923158 -0.9529514572
P -1.7693765762 0.3771924932 -0.2293599927
S -3.6386593030 0.7644216765 -0.6599703493
O -1.3251446729 0.7163067310 1.2605116913
C -2.2291394620 0.5609783853 2.3705883520
C -2.2593334086 -0.8661791387 2.8801598538
S -1.1950439177 -1.6256031050 -0.6003612306
C 0.4227784751 -1.7871858268 0.3331381627
H 0.1584372604 -2.0072621319 1.3724757593
C 1.1844298072 -2.9436960105 -0.2949928654
Cl 0.2211124089 -4.4312198216 -0.1351433562
N 1.1710168625 -0.5754539488 0.3294561294
C 1.3830859670 0.1766413898 1.4922167225
O 1.0575293366 -0.1878846605 2.5966730114
C 2.0822922143 1.3928267537 1.0535972581
C 2.5166553562 2.4878060874 1.7726156387
C 3.1490500821 3.5110581779 1.0698826579
C 3.3381545366 3.4315781913 -0.3013943266
C 2.9023687982 2.3252203798 -1.0272996741
C 2.2740715098 1.3127970517 -0.3319261449
C 1.6937177969 0.0459176917 -0.8056770233
O 1.6564920752 -0.4232154473 -1.9192652246
H -1.7923437385 0.1170842225 -3.1792713738
H -1.0759520403 1.2775143375 -4.3082875127
H -0.0313500709 0.2320357086 -3.3282887663
H -1.9031706095 2.3888356787 -2.2251776488
H -0.1311571373 2.5729142286 -2.3983242146
H -1.8385226735 1.2426316623 3.1273087928
H -3.2258438981 0.8863274686 2.0538722145
H -2.6193407437 -1.5379983743 2.1016104307
H -1.2622913670 -1.1691815339 3.1912807085
H -2.9295312641 -0.9249972580 3.7317758123
H 1.3515187659 -2.7693304202 -1.3575465911
H 2.1277122192 -3.1025150681 0.2273205390
H 2.3656566886 2.5411686115 2.8387725699
H 3.4963873509 4.3808030206 1.6045064985
H 3.8306938377 4.2402479123 -0.8175460545
H 3.0467888963 2.2536619374 -2.0935115042
40
CONF338
C -2.4648174103 0.7396310806 3.4145838431
C -2.7334511380 1.0037376455 1.9485858259
O -2.1735291358 -0.0924065879 1.1845986153
P -1.7276669579 0.0783378665 -0.3182985948
S -0.7752695907 1.7437247978 -0.7716005856
O -3.1057611083 -0.0580601382 -1.0986280942
C -3.2585719082 0.2639981600 -2.4955681934
C -4.6795162503 0.7423066816 -2.7179529602
S -0.8094688873 -1.7734778145 -0.6726773852
C 0.5772234327 -1.6617737628 0.5698720537
H 0.1009226710 -1.5580012861 1.5512576841
C 1.3925147527 -2.9412625925 0.4792927707
Cl 0.3767869272 -4.3219507533 0.9454876207
N 1.3711243619 -0.4983142267 0.3540848143
C 2.1793322076 -0.2577341008 -0.7630189520
O 2.3584117992 -1.0527470442 -1.6555337274
C 2.7052911930 1.1034970641 -0.5817943783
C 3.5646810453 1.8425716905 -1.3686526044
C 3.8721461568 3.1347234440 -0.9496167627
C 3.3326566278 3.6605954618 0.2142145971
C 2.4627882793 2.9170326399 1.0080460539
C 2.1595793943 1.6365700601 0.5941639316
C 1.2737062827 0.6256720219 1.1857528313
O 0.5999763581 0.6535183361 2.1901671662
H -1.3926803863 0.7074936816 3.5896568234
H -2.9028219626 1.5376384402 4.0050011765
H -2.9023848034 -0.2104118674 3.7072261384
H -2.2611938578 1.9346905404 1.6170796196
H -3.8029478627 1.0412886710 1.7305983830
H -2.5305874976 1.0390342583 -2.7586709394
H -3.0461297996 -0.6407958858 -3.0701048369
H -4.8245035725 0.9430734264 -3.7743003741
H -5.3813421525 -0.0215411304 -2.3959798510
H -4.8617955010 1.6517103934 -2.1520610495
H 1.7390507518 -3.1087423933 -0.5402941015
H 2.2321430564 -2.8997434026 1.1730080501
H 3.9745167985 1.4258342630 -2.2745470840
H 4.5388770855 3.7372711766 -1.5456474012
H 3.5855241656 4.6662567730 0.5101211562
H 2.0313866610 3.3202061338 1.9099455140
40
CONF19
C -2.3415527171 0.2421213054 3.5269549513
C -2.8051736772 -0.0293902196 2.1113043475
O -1.8958849660 0.6659385726 1.2143569229
P -1.8780865069 0.4341632632 -0.3438004164
S -0.7682529142 1.7732818100 -1.2469046207
O -3.4200099281 0.5012341429 -0.7236365623
C -3.8753425973 0.7132991222 -2.0732243006
C -3.4860981226 -0.4267580049 -2.9910391970
S -1.4609440273 -1.6451236064 -0.5830505484
C 0.0903123245 -1.7620088520 0.4311934353
H -0.2019910803 -1.7831221785 1.4874853670
C 0.7731739697 -3.0566704459 0.0230243899
Cl 2.2321920163 -3.2805549121 1.0318159799
N 0.9204999835 -0.6157742653 0.2570474557
C 1.2481761979 0.2391123662 1.3118477101
O 0.8439354533 0.0923155189 2.4428779043
C 2.1390636666 1.2552602471 0.7367906159
C 2.7486132406 2.3474565820 1.3196752195
C 3.5372419026 3.1556672315 0.5049188706
C 3.7014934403 2.8752820766 -0.8428987658
C 3.0837418979 1.7753494846 -1.4329411124
C 2.3047482593 0.9733385942 -0.6258895043
C 1.5201969820 -0.2297817229 -0.9473526833
O 1.3893842835 -0.8279080007 -1.9899898311
H -1.2948708970 -0.0329310190 3.6351816669
H -2.4415494168 1.2987151834 3.7573210525
H -2.9434056921 -0.3381010207 4.2187138033
H -3.8105120919 0.3545679003 1.9301850367
H -2.7812241284 -1.0963469959 1.8725890815
H -4.9578146433 0.7988733981 -1.9696488889
H -3.4572174574 1.6583973364 -2.4329202338
H -3.9400767324 -0.2757770424 -3.9651276556
H -2.4028498124 -0.4551349931 -3.1090394739
H -3.8179263941 -1.3767333038 -2.5792118494
H 0.1128207475 -3.9046875414 0.1918049330
H 1.0904228405 -3.0146108858 -1.0183120226
H 2.6102129004 2.5595996384 2.3677258599
H 4.0250330496 4.0175263075 0.9317450875
H 4.3155794095 3.5220353357 -1.4491131686
H 3.1968628190 1.5531004111 -2.4816583144
40
CONF451
C -4.7291298131 -1.9860632477 0.6382091111
C -4.4936467463 -1.2237222241 -0.6481421706
O -3.6233580788 -0.0858670828 -0.4829661795
P -2.2407294227 -0.0802099821 0.3007241642
S -2.3480992497 -0.0143351435 2.2626821662
O -1.5400200092 1.1950678757 -0.3442509980
C -2.0192111581 2.5243262004 -0.0252084649
C -0.8599505005 3.4950214265 -0.1087655926
S -1.1347723100 -1.6433716101 -0.5722764672
C 0.3642936294 -1.4484209935 0.4895062626
H 0.0187637054 -1.0900123366 1.4697113555
C 1.0418468881 -2.8018734893 0.6017087809
Cl 2.4593259687 -2.6405136384 1.6776949790
N 1.2124076650 -0.4390857000 -0.0586826483
C 1.4083658275 0.7977115815 0.5563685715
O 0.9293681529 1.1071672829 1.6233615148
C 2.2734193768 1.5629733855 -0.3566003941
C 2.8026066390 2.8326544454 -0.2436039367
C 3.5935044702 3.2975580817 -1.2920367374
C 3.8424091697 2.5132022251 -2.4079160028
C 3.3117579107 1.2300029850 -2.5212598192
C 2.5275774953 0.7695233959 -1.4832966426
C 1.8345009812 -0.5177280227 -1.3077233335
O 1.7688298096 -1.4731551262 -2.0443691273
H -5.1118609926 -1.3228411206 1.4104061623
H -5.4460572526 -2.7806588546 0.4582003295
H -3.7956759584 -2.4225646202 0.9911855442
H -5.4182273450 -0.7852866631 -1.0280171350
H -4.0495459565 -1.8732255083 -1.4071209977
H -2.8028920899 2.7657106768 -0.7464622303
H -2.4469757488 2.5075447297 0.9829915135
H -1.2313244785 4.5021745137 0.0497105148
H -0.1261557540 3.2597480961 0.6575004999
H -0.3889711351 3.4311815607 -1.0859724236
H 0.3658553257 -3.5296030130 1.0452861516
H 1.3964909528 -3.1418260287 -0.3705614123
H 2.6077850096 3.4364545274 0.6281255535
H 4.0183251016 4.2867432147 -1.2315239985
H 4.4581783364 2.9010959067 -3.2036082577
H 3.5002143004 0.6107055951 -3.3833853975
40
CONF577
C -5.3688264574 -0.6945350814 -1.4816078020
C -4.2070514129 -1.6314562274 -1.2233077637
O -3.6814941479 -1.4624809048 0.1169339650
P -2.5273411332 -0.4694919475 0.5061616618
S -2.0188593351 -0.6609890957 2.3833250514
O -3.1149998382 0.9412697715 0.0601091577
C -2.5379485458 2.2006036650 0.4598747827
C -3.3122672797 2.7800097053 1.6277014484
S -0.9906613404 -0.8893550155 -0.9378729042
C 0.4588791066 -1.0533567988 0.1981109581
H 0.1028060204 -0.7195977631 1.1854375095
C 0.8810651586 -2.5069772175 0.2521909038
Cl 2.2471612793 -2.6638639937 1.3906270764
N 1.4896197023 -0.1538856221 -0.2088157117
C 1.5105207281 1.1567196008 0.2721481949
O 0.6844649001 1.6006175102 1.0389338408
C 2.6660641355 1.8030794056 -0.3635065727
C 3.1804960761 3.0758758094 -0.2202286829
C 4.3043207851 3.4041150088 -0.9754075299
C 4.8828930509 2.4872642024 -1.8398171276
C 4.3617072122 1.2032268176 -1.9866513234
C 3.2498034706 0.8765205652 -1.2379758694
C 2.4722035705 -0.3746910188 -1.1795981704
O 2.6011728115 -1.3887684317 -1.8222252205
H -6.1340177902 -0.8337906107 -0.7228256073
H -5.0351388933 0.3389204392 -1.4581492720
H -5.7885820289 -0.9135978163 -2.4585125559
H -3.3974337204 -1.4709937321 -1.9407865879
H -4.5242743417 -2.6753160226 -1.2518085457
H -1.4868540446 2.0637560512 0.7267768536
H -2.6114009202 2.8374056941 -0.4237975388
H -4.3624294378 2.8819222351 1.3690143490
H -3.2239974804 2.1256925766 2.4924402491
H -2.9043121869 3.7534537127 1.8794006967
H 0.0631473462 -3.1152779630 0.6354682011
H 1.2176724327 -2.8653107228 -0.7194604827
H 2.7230558816 3.7817507166 0.4541641962
H 4.7299056001 4.3907168897 -0.8845660744
H 5.7520797523 2.7712831557 -2.4113263215
H 4.8029245928 0.4837868773 -2.6574265569
40
CONF24
C -1.8070114074 1.6813818734 2.9293041680
C -2.7268517327 0.5913551194 2.4175883880
O -2.0779489784 -0.2373523289 1.4242302773
P -1.9909513874 0.1314852331 -0.1116272995
S -1.0121391342 1.7657152715 -0.6186660275
O -3.5245529718 0.1901211023 -0.5230065818
C -3.9619127891 0.7525380242 -1.7722683519
C -3.5609525334 -0.1171968006 -2.9456618671
S -1.3263394680 -1.7315900853 -0.8469900125
C 0.2272522136 -1.8981256988 0.1560576232
H -0.0751308987 -2.0332097501 1.2005871001
C 0.9564384765 -3.1178613759 -0.3799170254
Cl 2.4188812397 -3.3926022806 0.6084794771
N 1.0155459981 -0.7110990584 0.0993359102
C 1.5740579776 -0.1666689020 -1.0619055295
O 1.4587822424 -0.6531254774 -2.1625299120
C 2.2716656786 1.0544390282 -0.6282795226
C 2.9883295437 1.9822097355 -1.3544454749
C 3.5179139950 3.0703167537 -0.6643674396
C 3.3284951422 3.2176131247 0.7008532704
C 2.6012793429 2.2830485498 1.4340605384
C 2.0800299513 1.2033676401 0.7517590716
C 1.2577620226 0.0810222821 1.2237664959
O 0.8391246269 -0.1755882545 2.3298809115
H -2.2892318154 2.1991279584 3.7521158070
H -0.8742136047 1.2415580930 3.2751127944
H -1.5828185620 2.3958445071 2.1396082947
H -3.6396486181 1.0070680714 1.9848591168
H -2.9802828042 -0.1143814775 3.2104501919
H -5.0455424341 0.8167370356 -1.6666750157
H -3.5340480429 1.7557568473 -1.8697120123
H -2.4751071780 -0.1342146818 -3.0413159187
H -3.9116077128 -1.1354207697 -2.7984101800
H -3.9885730812 0.2858358131 -3.8579940879
H 0.3268969152 -4.0017989276 -0.3038000463
H 1.2736550687 -2.9564139426 -1.4095754692
H 3.1226403034 1.8627605441 -2.4174087071
H 4.0812049247 3.8135439615 -1.2058637985
H 3.7462240597 4.0736207954 1.2064351914
H 2.4424742626 2.3929420118 2.4948108027
40
CONF691
C -0.2919104306 3.3808300846 -1.4684042767
C -0.9594624210 2.6038598685 -0.3525904956
O -0.7504106991 1.1890641537 -0.5721668159
P -1.9568142381 0.1516399174 -0.4708502540
S -3.6088807084 0.6932324371 -1.3718995048
O -2.0976548686 0.0216545636 1.1175507269
C -3.3020383061 -0.4666971333 1.7344854224
C -3.4381411288 -1.9698277103 1.5991479681
S -1.0196362677 -1.5905369577 -1.1635448142
C 0.1601397269 -1.8696435156 0.2449822920
H -0.4466965638 -1.9332164917 1.1577515661
C 0.8639710269 -3.2037920989 0.0586689860
Cl 1.8430439918 -3.2607160914 -1.4430655518
N 1.0283143659 -0.7477298752 0.4308707458
C 1.0714806646 -0.0929570609 1.6672224961
O 0.4905323731 -0.4829368898 2.6530211477
C 1.9275688781 1.0851002251 1.4708226472
C 2.3311305773 2.0640701712 2.3570453004
C 3.1408410887 3.0844210788 1.8641830792
C 3.5290815790 3.1146307361 0.5332110736
C 3.1209089634 2.1269223024 -0.3607366200
C 2.3171037924 1.1171171579 0.1267458530
C 1.6968180728 -0.0289243362 -0.5647271373
O 1.7089441099 -0.3072623287 -1.7396434131
H 0.7619928660 3.1222021319 -1.5241663351
H -0.7612817564 3.1420571802 -2.4194948282
H -0.3954975096 4.4431929088 -1.2737093897
H -2.0361863983 2.8012301673 -0.3261016218
H -0.5227160174 2.8377628176 0.6212212244
H -3.2063936426 -0.1606512888 2.7770077049
H -4.1537073079 0.0403748666 1.2695158028
H -3.4726799416 -2.2447453769 0.5451985140
H -2.6014184034 -2.4745898704 2.0750669847
H -4.3604743066 -2.2870888970 2.0751015112
H 1.5432501450 -3.3813878064 0.8917626508
H 0.1243632950 -3.9982517751 -0.0175636779
H 2.0228697276 2.0318321166 3.3897035129
H 3.4702547456 3.8650918201 2.5310361977
H 4.1561609508 3.9176667415 0.1801885039
H 3.4179042811 2.1411530089 -1.3976293364
40
CONF244
C -4.7042824777 -1.9045486247 1.0877324019
C -4.5421368950 -1.0209021625 -0.1303752976
O -3.7325680469 0.1432186001 0.1285952959
P -2.2570574994 0.1104053866 0.7116488205
S -2.0195545791 -0.1618343439 2.6346963746
O -1.7282265726 1.5454483807 0.3084058428
C -2.0218323511 2.2448516847 -0.9267345911
C -0.9331247255 2.0354808387 -1.9613707059
S -1.2939553097 -1.3415906024 -0.5295718289
C 0.2985656459 -1.3671649245 0.3920668696
H 0.0646495284 -1.0899284528 1.4306469546
C 0.8701022839 -2.7706460766 0.3138303469
Cl 2.3826406797 -2.8228549154 1.2654389497
N 1.1809496476 -0.3689941230 -0.1253447130
C 1.4954670612 0.7941969050 0.5806873966
O 1.0838566225 1.0467616429 1.6896225393
C 2.3800042048 1.5684717078 -0.3066968851
C 2.9966544527 2.7887326511 -0.1188901508
C 3.7828940983 3.2798718964 -1.1593100897
C 3.9404643343 2.5691904665 -2.3394747870
C 3.3179676720 1.3373177649 -2.5298088083
C 2.5396191458 0.8502235934 -1.4998401660
C 1.7565270880 -0.3934527778 -1.3984817515
O 1.5891422703 -1.2734090842 -2.2089903960
H -5.3850841934 -2.7169188545 0.8550853299
H -3.7414733987 -2.3189921260 1.3818532863
H -5.0978006303 -1.3308963089 1.9233539718
H -5.4978054246 -0.6003186382 -0.4482844833
H -4.0847285883 -1.5759430675 -0.9538387617
H -2.9919571208 1.9128221799 -1.2984233629
H -2.0803547292 3.2921041546 -0.6254209838
H -0.8656354519 0.9882811984 -2.2500180618
H -1.1691370604 2.6257588707 -2.8411984831
H 0.0279595814 2.3577243955 -1.5671688774
H 0.1769812194 -3.4863864487 0.7507115527
H 1.1129212280 -3.0394980387 -0.7135486278
H 2.8659025419 3.3336003444 0.8023570753
H 4.2764588478 4.2312720710 -1.0411291348
H 4.5554759160 2.9762304093 -3.1260406379
H 3.4325518326 0.7771936249 -3.4436336346
40
CONF15
C -2.8166336199 -1.2979041698 2.7248258246
C -3.0954240558 0.1149958078 2.2536620602
O -2.0183594556 0.6309431789 1.4271774679
P -1.9213067211 0.5175135378 -0.1412950542
S -0.7634640086 1.9152454625 -0.8842522221
O -3.4402771352 0.6114197513 -0.5971077167
C -3.8202521118 0.9538504252 -1.9427653853
C -3.4092850065 -0.1092602512 -2.9399430857
S -1.4370643619 -1.5120464209 -0.5870110630
C 0.1013300922 -1.6706329845 0.4347353610
H -0.1953502384 -1.6089348549 1.4879169215
C 0.7021662089 -3.0261121300 0.1063031271
Cl 2.1350774425 -3.2847689055 1.1435821633
N 1.0028816716 -0.5904952786 0.2018641530
C 1.2886336461 0.3598228715 1.1859467972
O 0.8142266253 0.3327238191 2.2990036572
C 2.2378435173 1.2970604802 0.5695652585
C 2.8512126968 2.4211059986 1.0822871081
C 3.6967458671 3.1354161901 0.2368374971
C 3.9108114008 2.7341794747 -1.0726004705
C 3.2881023908 1.6017351367 -1.5921889605
C 2.4542985409 0.8917069283 -0.7542070259
C 1.6450047371 -0.3112318405 -1.0074615599
O 1.5100932105 -0.9652132501 -2.0152894597
H -1.8521319813 -1.3390211454 3.2261590622
H -3.5899398298 -1.5889569753 3.4290900474
H -2.8227080124 -1.9927975508 1.8883606540
H -3.1238067353 0.8116366417 3.0929539636
H -4.0267510203 0.1718670164 1.6888367279
H -4.9046482497 1.0573734728 -1.8859246013
H -3.3648788932 1.9164144212 -2.1949615521
H -3.8209519285 0.1341950591 -3.9140914218
H -2.3231084815 -0.1479129611 -3.0175443249
H -3.7718976654 -1.0849127384 -2.6263014317
H -0.0116705493 -3.8201599688 0.3146362329
H 1.0302723807 -3.0630270506 -0.9317965552
H 2.6717199031 2.7290838996 2.0998618412
H 4.1885944946 4.0200061123 0.6090358978
H 4.5673370305 3.3110202510 -1.7043624151
H 3.4416206287 1.2853412447 -2.6112761984
40
CONF367
C -2.3479835395 0.0925729140 3.4874361622
C -2.7178301746 -0.1896239113 2.0464668401
O -1.8602456565 0.6327914295 1.2078091868
P -1.6393584170 0.3766562246 -0.3260388928
S -0.5682980408 1.7920275890 -1.1538496301
O -3.1248367368 0.2756925953 -0.8830095867
C -3.3906227306 0.1514167783 -2.2957423753
C -4.8525628368 0.4768568800 -2.5231067218
S -1.0001044473 -1.6420364330 -0.5353515238
C 0.5033442162 -1.6176534335 0.5648421092
H 0.1398089706 -1.5678168920 1.5976718908
C 1.2731140552 -2.9057205029 0.3162078375
Cl 0.2492555316 -4.2912687292 0.7459039049
N 1.3073647665 -0.4615675213 0.3465934465
C 1.4186569844 0.5591866081 1.2991824647
O 0.8870697009 0.5159044487 2.3842850642
C 2.2859431255 1.5756744446 0.6914716110
C 2.7339375344 2.7835962543 1.1849799185
C 3.5384342630 3.5600232759 0.3542116403
C 3.8732582773 3.1368755742 -0.9225831186
C 3.4173471440 1.9194980558 -1.4234477204
C 2.6240118466 1.1483348963 -0.6003413492
C 1.9769279479 -0.1498755746 -0.8432796843
O 1.9803678538 -0.8591438067 -1.8215918463
H -1.2807493228 -0.0564081910 3.6335336706
H -2.5848498325 1.1219599030 3.7392363827
H -2.9018457788 -0.5770008429 4.1373206951
H -3.7521283223 0.0820244107 1.8292327289
H -2.5609937887 -1.2400544136 1.7840739379
H -2.7344025462 0.8428028059 -2.8347528166
H -3.1552498187 -0.8730337128 -2.5971236459
H -5.0762188508 0.3838505698 -3.5806497560
H -5.4777598813 -0.2101086460 -1.9604432952
H -5.0622138658 1.4924361193 -2.1993934050
H 1.5391274596 -2.9996800241 -0.7366195068
H 2.1615602705 -2.9406222187 0.9465201149
H 2.4615365800 3.1073975120 2.1765777226
H 3.9017939753 4.5103664380 0.7115670300
H 4.4936281969 3.7626468051 -1.5442066818
H 3.6641259498 1.5852275559 -2.4180975959
40
CONF435
C -3.3280520357 -2.3616868204 -2.1555773486
C -3.9588422024 -2.5542090844 -0.7929639960
O -3.1412326890 -2.0282709301 0.2818466122
P -2.7181307414 -0.5172260421 0.4666117142
S -2.3729598576 -0.1093624684 2.3525288472
O -3.9274915812 0.2640765259 -0.2042096529
C -4.1979133364 1.6497561108 0.0785224753
C -3.0730765955 2.5627964498 -0.3641806066
S -1.0672374338 -0.2060916566 -0.8559389418
C 0.2705861462 -0.4279027218 0.3949490457
H -0.0592862312 0.0931271028 1.3056732748
C 0.4464178295 -1.9122628444 0.6486711790
Cl 1.7160643414 -2.1461266868 1.8803164939
N 1.4584730029 0.2191087535 -0.0549350574
C 1.9017566471 1.4226597559 0.5010162443
O 1.3310101484 2.0020845843 1.3954289622
C 3.1310863284 1.7663950138 -0.2304676616
C 3.9946268161 2.8330548729 -0.0853476568
C 5.0945136664 2.8925702801 -0.9385511325
C 5.3134722310 1.9163798805 -1.8983510985
C 4.4414348577 0.8397551607 -2.0459870005
C 3.3520138167 0.7797983789 -1.2012716912
C 2.2666074092 -0.2118229498 -1.1092836174
O 2.0572868670 -1.1980622881 -1.7753911254
H -2.3338247319 -2.7998901866 -2.1839653437
H -3.9512674915 -2.8429744611 -2.9028698562
H -3.2481262387 -1.3017133514 -2.3886534247
H -4.0525104435 -3.6108212030 -0.5375419451
H -4.9361388854 -2.0708592847 -0.7441069725
H -5.1182975427 1.8498652311 -0.4718799834
H -4.3742605507 1.7538383417 1.1533289149
H -2.8191355218 2.3779924296 -1.4049564601
H -3.3840748915 3.5958783955 -0.2461775591
H -2.1887971337 2.3933175174 0.2499477355
H -0.4769985867 -2.3372425816 1.0450825921
H 0.7614428113 -2.4307776162 -0.2564375367
H 3.8151597483 3.5870054949 0.6640190209
H 5.7866129998 3.7145777057 -0.8487837508
H 6.1739528341 1.9900188431 -2.5440316363
H 4.6026720142 0.0759481576 -2.7894409010
40
CONF66
C -5.3664913012 0.6568937755 1.6167736354
C -3.9371309163 0.1682163362 1.7326239256
O -3.2797449107 0.4289872391 0.4734502544
P -1.7003907980 0.3760802502 0.3353613763
S -0.7237929194 1.5182096204 1.5932861955
O -1.4692941183 0.8384157859 -1.1490297235
C -2.1785978975 0.2600696821 -2.2768520948
C -3.2669931098 1.2025828238 -2.7430233084
S -1.4009646212 -1.7367307287 0.3996634576
C 0.4392691746 -1.8973714805 0.6230917779
H 0.6197774770 -1.9872705997 1.7007346640
C 0.8514385998 -3.1571483265 -0.1198630889
Cl 2.5950567102 -3.4415534361 0.1589760303
N 1.1315629422 -0.7328618605 0.1849589029
C 1.8758708988 0.0647394947 1.0707968402
O 2.0563466818 -0.2164136945 2.2312584417
C 2.3821488019 1.1804325942 0.2583644119
C 3.1278220812 2.2840633908 0.6171102195
C 3.4506910760 3.1960317465 -0.3849074372
C 3.0397239502 3.0014337169 -1.6948200203
C 2.2878143295 1.8869025237 -2.0575254390
C 1.9668020763 0.9834953720 -1.0652643786
C 1.1802244056 -0.2581511705 -1.1228649290
O 0.6612356901 -0.8078071144 -2.0692519883
H -5.3813612420 1.7243352213 1.4153920462
H -5.8726351721 0.1365223416 0.8089769917
H -5.8846150395 0.4619305131 2.5498292738
H -3.8952481125 -0.9074634994 1.9223628276
H -3.3933172355 0.6950428539 2.5232774225
H -1.4104529901 0.1078820819 -3.0378020155
H -2.5888605333 -0.7079424636 -1.9777774075
H -2.8408189313 2.1704528565 -2.9913829385
H -3.7453947263 0.7830267230 -3.6222633819
H -4.0066648616 1.3352977652 -1.9578789862
H 0.3041940686 -4.0176327282 0.2593940141
H 0.7007094418 -3.0428367663 -1.1927144679
H 3.4354734304 2.4277670283 1.6402439098
H 4.0290626223 4.0707528274 -0.1334236092
H 3.3039995274 3.7268444278 -2.4477175999
H 1.9628108004 1.7277145946 -3.0731221914
40
CONF502
C -2.4133151941 3.0370079817 1.1161878449
C -1.1410600355 2.2267713878 1.2383233665
O -0.8897616254 1.3849865498 0.0895253620
P -1.9147460602 0.2975162786 -0.4660681011
S -3.4906665922 0.9278149793 -1.4458721958
O -2.2373664611 -0.5403012642 0.8530952783
C -3.4008596737 -1.3791932722 0.9433133986
C -3.2661480657 -2.6271953553 0.0946067026
S -0.5994462356 -0.8378768345 -1.6453375104
C 0.5359459182 -1.5112329259 -0.3291582528
H -0.0918192240 -1.8031922151 0.5195028111
C 1.2819888222 -2.7030882463 -0.9067262444
Cl 0.1428890095 -4.0314575229 -1.2108543052
N 1.4221876123 -0.4921138419 0.1311959390
C 2.3475729454 0.1841996627 -0.6690110127
O 2.5999156756 -0.1070928624 -1.8140273060
C 2.8936925078 1.2557658041 0.1813158633
C 3.8553578503 2.2092749027 -0.0843165010
C 4.1656587062 3.1126080437 0.9302615136
C 3.5323093114 3.0556387298 2.1625135786
C 2.5620213360 2.0928934444 2.4320385071
C 2.2535683990 1.1983171599 1.4269569764
C 1.2852838731 0.0916340503 1.3934010750
O 0.5098070625 -0.2968387983 2.2357617057
H -2.4116316895 3.6076275970 0.1902353264
H -3.2826423751 2.3815896452 1.1138676533
H -2.4837869121 3.7171494965 1.9591967205
H -1.1640248678 1.5877495273 2.1249302131
H -0.2612424449 2.8731784158 1.2705590271
H -3.4740844643 -1.6157178395 2.0055744769
H -4.2713981260 -0.7963946170 0.6251276616
H -3.1878778629 -2.3521318518 -0.9572368460
H -2.3826020751 -3.1954486290 0.3752674285
H -4.1455354346 -3.2487831761 0.2286499109
H 1.7537948308 -2.4419495321 -1.8538098373
H 2.0214738185 -3.0632474721 -0.1912693594
H 4.3417028397 2.2456063510 -1.0457879917
H 4.9121972261 3.8697429434 0.7508496449
H 3.7931609569 3.7694283245 2.9274805753
H 2.0644134762 2.0411918881 3.3870536972
40
CONF259
C -3.5635854338 1.5440548278 2.0189790912
C -2.2735891227 0.7875537023 2.2551222208
O -2.0235102359 -0.1723504640 1.2095376699
P -1.6430137806 0.2735837478 -0.2772106048
S -0.6711406068 1.9643310448 -0.4503366626
O -2.9851093545 0.3592506307 -1.1153948110
C -3.9664362928 -0.7094925758 -1.1284396981
C -5.3250239256 -0.0913997341 -1.3876587382
S -0.7946764291 -1.5234987294 -0.9663439972
C 0.6052044904 -1.6742573389 0.2505414198
H 0.1501167601 -1.6969666989 1.2471012892
C 1.3536705568 -2.9631174506 -0.0480504764
Cl 0.2807994650 -4.3480356144 0.2377352880
N 1.4553956678 -0.5306313946 0.1952657328
C 1.4344023035 0.4546131876 1.1913481999
O 0.7869047453 0.3585684432 2.2091080199
C 2.3520559812 1.5048878288 0.7314243103
C 2.7286778587 2.6913803752 1.3256733671
C 3.6116487728 3.5097955943 0.6255078741
C 4.0929340050 3.1469518701 -0.6229830374
C 3.7118166567 1.9496879176 -1.2239086675
C 2.8390476485 1.1366066016 -0.5303224554
C 2.2444026719 -0.1568554027 -0.8982095349
O 2.3623924572 -0.8141983155 -1.9058328163
H -4.4011467932 0.8540637421 1.9526836056
H -3.7303088286 2.2333217106 2.8406341375
H -3.4914781352 2.1111019828 1.0907208695
H -2.3093327691 0.1821717763 3.1616487677
H -1.4208137395 1.4705218383 2.3088406236
H -3.6841519881 -1.4035121599 -1.9233408808
H -3.9359726305 -1.2307582360 -0.1680832694
H -5.3086294554 0.4548136368 -2.3263001924
H -6.0687875727 -0.8797743704 -1.4425560523
H -5.5873341676 0.5969448483 -0.5889983786
H 1.6720070735 -2.9942046405 -1.0899629737
H 2.2080006872 -3.0628854551 0.6214513529
H 2.3434389157 2.9685199593 2.2934808569
H 3.9213982747 4.4454267321 1.0630743204
H 4.7718066038 3.8043272684 -1.1424201715
H 4.0764321644 1.6601996346 -2.1963242602
40
CONF632
C -2.8916371361 -2.7099204066 -2.1931802980
C -4.0578762070 -2.2691939416 -1.3361540311
O -3.6460555688 -1.8126462368 -0.0223928110
P -2.6499236549 -0.6355590167 0.2785645121
S -2.8965476929 0.1263073632 2.0649434367
O -2.9050350485 0.3752406434 -0.9261144841
C -2.6938396555 1.7976802441 -0.8443522228
C -3.7267460686 2.4742104668 -1.7230012065
S -0.7193033539 -1.4936008947 -0.0388618389
C 0.2723873433 -0.2884757658 0.9610356204
H -0.3580415800 0.6003417134 1.0979348255
C 0.5988618887 -0.9215696386 2.2988163469
Cl 1.5601468700 0.2310251992 3.2620769177
N 1.4205174752 0.1165960241 0.2183049261
C 2.5729182353 -0.6473026459 0.0068455408
O 2.7515919881 -1.7604666472 0.4394699343
C 3.4447510497 0.1883082407 -0.8374567661
C 4.7137859317 -0.0495503062 -1.3238111021
C 5.2966604773 0.9383804790 -2.1151821551
C 4.6259352307 2.1167722462 -2.4046641965
C 3.3440274314 2.3576806450 -1.9148607827
C 2.7669739999 1.3799213281 -1.1299406922
C 1.4523270988 1.3271992215 -0.4751964689
O 0.5320064252 2.1136268643 -0.4945926297
H -3.2711668922 -3.1411842716 -3.1143797938
H -2.2583274736 -1.8587437033 -2.4347081954
H -2.2931669829 -3.4515882189 -1.6694766035
H -4.7272887217 -3.0996675017 -1.1073344108
H -4.6135058864 -1.4622798500 -1.8172280437
H -2.7952949774 2.1099747295 0.2007714817
H -1.6769506497 2.0159517868 -1.1803907343
H -3.5638431600 3.5465255363 -1.6954611470
H -3.6335080347 2.1225417411 -2.7463312694
H -4.7278790132 2.2551822821 -1.3612738928
H -0.3202595514 -1.1223461292 2.8488148747
H 1.1909883166 -1.8271631020 2.1739542872
H 5.2264744395 -0.9695431853 -1.0937512230
H 6.2879204622 0.7806860659 -2.5092779438
H 5.1029431987 2.8621247674 -3.0208389774
H 2.8147643049 3.2707768604 -2.1349305405
40
CONF610
C -3.9759278550 -1.6266646600 -1.3107358991
C -3.4376461597 -1.3337170465 0.0754569688
O -2.2531836194 -0.5283545461 -0.0743620732
P -1.7060966603 0.3996220185 1.0964939846
S -3.0943752735 1.3324089953 2.1134033511
O -0.6557608513 1.3281589133 0.3476127002
C -1.0619978797 2.5644524111 -0.2807652684
C -1.9576389654 2.3214134201 -1.4766530558
S -0.4321307060 -0.8013523039 2.2649855968
C 0.7775591163 -1.5925096439 1.0630983541
H 1.5771461535 -1.8889821582 1.7534908954
C 0.1437236826 -2.8039673849 0.4158204813
Cl 1.4077514956 -3.6970847725 -0.4814741376
N 1.3257590683 -0.6401304811 0.1599753649
C 0.8733029276 -0.3110089178 -1.1226630435
O -0.0163697404 -0.8645498021 -1.7224803856
C 1.7197788500 0.8140329067 -1.5616423868
C 1.7138775724 1.5263258052 -2.7435665636
C 2.6274293228 2.5702917120 -2.8714043735
C 3.5127075162 2.8804487006 -1.8498619047
C 3.5205596325 2.1599786831 -0.6577724029
C 2.6126405880 1.1277008946 -0.5303286540
C 2.3595102422 0.2055905967 0.5844157262
O 2.8869043030 0.1249689965 1.6692463975
H -4.8202268548 -2.3031625747 -1.2297168149
H -4.2969022908 -0.7078364018 -1.7926174577
H -3.2001387897 -2.0853095560 -1.9177330207
H -3.1637750016 -2.2535601263 0.5996874599
H -4.1614791053 -0.7804518839 0.6835644027
H -1.5702004105 3.1785135477 0.4691566283
H -0.1170533695 3.0307620409 -0.5653937255
H -2.0921170782 3.2505290078 -2.0211119988
H -1.5141578975 1.5739912405 -2.1302460315
H -2.9291568323 1.9613062590 -1.1422340564
H -0.2489802608 -3.4692474900 1.1822401349
H -0.6226630725 -2.5277956188 -0.3057003100
H 1.0241858684 1.2779775429 -3.5342136364
H 2.6441358536 3.1473890398 -3.7821032787
H 4.2082560774 3.6944485129 -1.9778377556
H 4.2040245301 2.3921632235 0.1430605973
40
CONF302
C -2.5777644306 0.2694445741 3.2397332277
C -2.7229821490 1.0004328742 1.9214740289
O -2.5283159370 0.0494330925 0.8517893780
P -1.9283112776 0.4343537185 -0.5759038892
S -0.7521900460 2.0048934231 -0.6101930174
O -3.1476231001 0.7003151233 -1.5533731047
C -4.4560575649 0.0796770814 -1.4810952093
C -4.4161409904 -1.4302236475 -1.5772399824
S -1.1579267085 -1.4191950635 -1.2045142766
C 0.1363466257 -1.6527283138 0.1061872987
H -0.3766532009 -1.6172755003 1.0738135039
C 0.7653767393 -3.0124459286 -0.1403765441
Cl 1.9563919110 -3.3339681424 1.1522290462
N 1.0836026112 -0.5877377101 0.0961817790
C 1.9482434085 -0.2774340132 -0.9550101553
O 2.0201281015 -0.9059139921 -1.9862010243
C 2.6809303191 0.9227253195 -0.5209949070
C 3.6606505446 1.6535840592 -1.1605250891
C 4.1614806784 2.7741380614 -0.5023413050
C 3.6908903376 3.1433644011 0.7483138452
C 2.7001963499 2.4075489163 1.3937804024
C 2.2059645018 1.2964315374 0.7430583116
C 1.1636969180 0.3402553007 1.1396501852
O 0.4922963810 0.2741129203 2.1436664959
H -2.8143437572 0.9521190780 4.0491662895
H -3.2552534358 -0.5788896673 3.2722104079
H -1.5554015412 -0.0788650574 3.3576963650
H -1.9794285528 1.7981175543 1.8231073371
H -3.7226755498 1.4276840080 1.8082722589
H -4.9326598551 0.3963263348 -0.5504987681
H -4.9790676981 0.5218403408 -2.3306804130
H -5.4324355838 -1.8012129978 -1.6696204617
H -3.8415241433 -1.7395771507 -2.4469186956
H -3.9618078578 -1.8580534350 -0.6868675264
H 0.0095757803 -3.7938571846 -0.1044530092
H 1.2939344279 -3.0272391927 -1.0927437891
H 4.0161699611 1.3605982631 -2.1353608889
H 4.9267864500 3.3663350947 -0.9783121337
H 4.0951435295 4.0189812059 1.2307808648
H 2.3228615029 2.6902660756 2.3631991722
40
CONF139
C -4.7499548833 -1.7831150270 0.3866496852
C -4.3289328931 -1.0771416859 -0.8853164069
O -3.4537403803 0.0406861318 -0.6435327776
P -2.1199939986 -0.0122085999 0.2157002737
S -2.3103083443 0.0654255301 2.1691685792
O -1.3013395123 1.2003781537 -0.4152662691
C -1.3731948349 2.5289524783 0.1383610158
C -2.7521238101 3.1287073657 -0.0296504705
S -1.0856336621 -1.6652341873 -0.5971141939
C 0.4025996282 -1.5158491993 0.4871448156
H 0.0475345003 -1.1940728087 1.4763909964
C 1.0740763719 -2.8745322088 0.5550315178
Cl 2.4755395780 -2.7628449296 1.6580596252
N 1.2587550045 -0.4867631801 -0.0116379209
C 1.4022355983 0.7422214954 0.6321972727
O 0.8896808460 1.0141866114 1.6944937994
C 2.2610639756 1.5544416708 -0.2433293207
C 2.7377787393 2.8409227144 -0.0932231764
C 3.5393272234 3.3533052658 -1.1111000554
C 3.8476059138 2.5984044944 -2.2327192584
C 3.3661105800 1.2998114257 -2.3846550184
C 2.5713260619 0.7920043730 -1.3772490020
C 1.9124047283 -0.5189800348 -1.2468600541
O 1.8907419770 -1.4564732137 -2.0084136414
H -3.8835157524 -2.2327226453 0.8698215587
H -5.2033130020 -1.0793276745 1.0806005570
H -5.4654091062 -2.5626595509 0.1456594686
H -5.1829954501 -0.6268621397 -1.3943366790
H -3.8154429678 -1.7682961447 -1.5596468711
H -1.0913909772 2.4783985744 1.1958873616
H -0.6152049597 3.0842843648 -0.4169929071
H -3.0427405750 3.1122095881 -1.0766765256
H -3.4740308600 2.5491997560 0.5450264326
H -2.7474958175 4.1515645549 0.3334163297
H 0.3882640972 -3.6165456389 0.9580486930
H 1.4428192262 -3.1764584784 -0.4244798437
H 2.4925426512 3.4193064526 0.7831689967
H 3.9253763140 4.3562354929 -1.0225171650
H 4.4710362400 3.0226245357 -3.0035064849
H 3.5996094996 0.7047479506 -3.2527760829
40
CONF541
C -2.3979292216 -2.7616705963 2.4999980363
C -3.5155925388 -2.3260739302 1.5722606762
O -3.4049459710 -0.9135172167 1.2594152125
P -2.8246772026 -0.3299056724 -0.0860636135
S -3.0100415228 1.6186257028 -0.0604505003
O -3.6470421365 -1.1575874114 -1.1648650134
C -3.2868404868 -1.3067573442 -2.5513810407
C -3.0359900010 0.0189391028 -3.2388102386
S -0.8406323180 -1.0881814307 -0.3203371782
C 0.0321557162 0.3607486986 0.4158939550
H -0.4290389228 1.2610183026 -0.0151409390
C -0.1441858143 0.3254278327 1.9220638654
Cl 0.6896324953 1.7343587560 2.6329685364
N 1.3984426116 0.3417830108 0.0093812787
C 2.3370371003 -0.6130459052 0.4074338968
O 2.0958103452 -1.5409547068 1.1429260723
C 3.5917361014 -0.2312962379 -0.2620570705
C 4.8447442339 -0.8072677686 -0.2136899644
C 5.8561731302 -0.2149549281 -0.9670382191
C 5.6128602531 0.9115656094 -1.7377579418
C 4.3478331259 1.4935047564 -1.7877588778
C 3.3456323435 0.9076993800 -1.0415472386
C 1.9289078987 1.2745707704 -0.8856641879
O 1.2876665599 2.1675768302 -1.3883548169
H -1.4350749274 -2.7136089082 1.9971757330
H -2.3718137643 -2.1234514950 3.3790610381
H -2.5800602788 -3.7855234395 2.8110309617
H -4.4890286874 -2.4183238061 2.0564498570
H -3.5107650026 -2.8999121997 0.6443080720
H -2.4002202551 -1.9446236578 -2.6053290424
H -4.1452280154 -1.8234123464 -2.9842720261
H -2.8609254580 -0.1495286917 -4.2965464452
H -3.8919821556 0.6783905573 -3.1157501995
H -2.1624934453 0.5097135303 -2.8101031805
H -1.2005175236 0.4077891733 2.1808837018
H 0.2995944925 -0.5734727466 2.3493688268
H 5.0238403006 -1.6833219092 0.3884843177
H 6.8459265713 -0.6425600549 -0.9491644387
H 6.4157383187 1.3474064987 -2.3106582505
H 4.1482886422 2.3692139375 -2.3841502040
40
CONF320
C -4.3608311722 -2.5981816204 -0.9652797835
C -4.2665339242 -1.1633587593 -1.4380562268
O -3.8576050212 -0.2581934345 -0.3935940553
P -2.5528818479 -0.4263849698 0.4927790782
S -2.5668968132 -1.7042040851 1.9736908229
O -2.3332114451 1.0201948834 1.0721539931
C -2.3123402784 2.2253550463 0.2706721757
C -3.6383959504 2.9493434362 0.3740657004
S -1.0170338152 -0.7296660112 -0.9626854585
C 0.3520696531 -0.8117538627 0.2799253994
H -0.0471645046 -0.3838911705 1.2098716075
C 0.7386602978 -2.2632606006 0.4785436831
Cl 2.0616119213 -2.3449751695 1.6728591922
N 1.4292000123 0.0251104457 -0.1358586791
C 1.5958140362 1.3111158057 0.3832248383
O 0.8553273203 1.8065574148 1.2025723833
C 2.7833604773 1.8610975641 -0.2859387925
C 3.4196782317 3.0765777324 -0.1349135770
C 4.5422583896 3.3180534114 -0.9239902858
C 5.0019517907 2.3733689270 -1.8288215790
C 4.3586225941 1.1468981295 -1.9830228167
C 3.2478934916 0.9060379494 -1.2006993394
C 2.3634107153 -0.2703812693 -1.1346014668
O 2.3787667483 -1.2874977489 -1.7848368836
H -4.7531863157 -3.2168582680 -1.7658385265
H -3.3752046259 -2.9653614171 -0.6829825005
H -5.0145505989 -2.6707558893 -0.0993335360
H -5.2409653805 -0.7786702269 -1.7438879412
H -3.5532693636 -1.0739912299 -2.2621631748
H -1.4928124554 2.8150901606 0.6881658262
H -2.0842874220 1.9598234630 -0.7657026132
H -3.5839597847 3.8744237587 -0.1910206895
H -4.4359389100 2.3278619662 -0.0248787274
H -3.8572991008 3.1750409053 1.4139488082
H -0.1052628185 -2.8205879665 0.8857572604
H 1.0983028116 -2.7078767463 -0.4486582636
H 3.0547729704 3.8049092660 0.5712871702
H 5.0610860367 4.2584178747 -0.8276543066
H 5.8733977428 2.5897743279 -2.4258996465
H 4.7073037726 0.4062510615 -2.6844630989
40
CONF141
C -4.7147633932 -1.8644161798 0.3951818296
C -4.3396058162 -1.1291094004 -0.8744810656
O -3.4856039569 0.0058379081 -0.6359620519
P -2.1434900556 -0.0212718111 0.2113741559
S -2.3205304508 0.0422598026 2.1667617342
O -1.3566652025 1.2104825400 -0.4215956644
C -1.4483520990 2.5348564589 0.1387969693
C -2.8417923135 3.1062827225 -0.0073355998
S -1.0779663225 -1.6467355977 -0.6169980589
C 0.4008262582 -1.4878291621 0.4784967920
H 0.0361726435 -1.1552916693 1.4608573714
C 1.0696972829 -2.8464531866 0.5686893631
Cl 2.4653029200 -2.7214411409 1.6777050520
N 1.2634316620 -0.4649020525 -0.0217502647
C 1.3939875099 0.7736963321 0.6060710409
O 0.8538647010 1.0642579125 1.6497138352
C 2.2796667069 1.5689139155 -0.2581674604
C 2.7604236030 2.8544989290 -0.1134657948
C 3.5958926067 3.3458345332 -1.1143117325
C 3.9322709005 2.5718396666 -2.2145952399
C 3.4461698685 1.2743682806 -2.3614346318
C 2.6181774420 0.7872236487 -1.3707266104
C 1.9493622766 -0.5186272725 -1.2387940030
O 1.9440615119 -1.4673355112 -1.9865312612
H -5.1666592146 -1.1821073903 1.1111727213
H -5.4187076449 -2.6555758531 0.1581157764
H -3.8275683851 -2.3026581403 0.8503733178
H -5.2156854694 -0.6922868457 -1.3571316949
H -3.8251885012 -1.7973983338 -1.5706840575
H -1.1503652394 2.4856379612 1.1918891419
H -0.7099493078 3.1080715122 -0.4246248782
H -3.1461541701 3.0896134682 -1.0505072019
H -3.5435478300 2.5081824202 0.5732937085
H -2.8541329845 4.1268637988 0.3618522954
H 0.3803838201 -3.5812897036 0.9788226705
H 1.4433776825 -3.1631620428 -0.4042600808
H 2.4939752667 3.4474706858 0.7468147966
H 3.9871346259 4.3470249975 -1.0288002932
H 4.5821362246 2.9798328455 -2.9722171087
H 3.7012924086 0.6646021675 -3.2131174626
40
CONF434
C -3.2026432414 -2.4322674666 -2.1647795895
C -3.8477830466 -2.6340640414 -0.8101975982
O -3.0741689711 -2.0556439859 0.2703282939
P -2.7255932281 -0.5234375700 0.4398242271
S -2.4331675679 -0.0704915067 2.3243016327
O -3.9569264149 0.1896980240 -0.2651256519
C -4.3000659774 1.5642435210 -0.0076079425
C -3.2186051793 2.5249772334 -0.4571028391
S -1.0658946804 -0.1519843069 -0.8547474637
C 0.2564616719 -0.3708063007 0.4126547513
H -0.0745940940 0.1651638279 1.3139142079
C 0.4185398652 -1.8536595350 0.6859459020
Cl 1.6815379330 -2.0819460974 1.9253673639
N 1.4558645642 0.2557091982 -0.0366981550
C 1.9395380009 1.4358191438 0.5348378616
O 1.3940981170 2.0181087188 1.4431394460
C 3.1744173392 1.7524498240 -0.2001253531
C 4.0710078145 2.7901014289 -0.0454969112
C 5.1673379522 2.8280747503 -0.9045691718
C 5.3508477700 1.8594445659 -1.8794139327
C 4.4457373770 0.8118327903 -2.0363896914
C 3.3600530272 0.7730502482 -1.1856316015
C 2.2473239485 -0.1879242698 -1.0984127997
O 2.0070308750 -1.1626949806 -1.7710003121
H -3.1693114813 -1.3734830771 -2.4137202759
H -2.1882513867 -2.8226719464 -2.1694908619
H -3.7888457366 -2.9543335698 -2.9146352816
H -3.8973005915 -3.6901058793 -0.5404007525
H -4.8469383900 -2.1957289896 -0.7852895720
H -5.2246218830 1.7081927649 -0.5684723058
H -4.4908166021 1.6768348411 1.0639212139
H -2.3321671664 2.4087778738 0.1659352741
H -2.9473746895 2.3359695989 -1.4927160001
H -3.5814649306 3.5430774578 -0.3585755599
H -0.5091373297 -2.2677623489 1.0837738386
H 0.7333784700 -2.3850798847 -0.2117835281
H 3.9191655116 3.5384565228 0.7155810260
H 5.8848938899 3.6270957472 -0.8072714812
H 6.2094172435 1.9159710241 -2.5293698804
H 4.5793697787 0.0538504455 -2.7912270795
40
CONF391
C -4.3625908921 -1.2898402216 -1.6934892217
C -4.3169083059 -1.9365676733 -0.3269457807
O -3.8929561578 -1.0233741634 0.7167999802
P -2.5952049537 -0.1421650338 0.7294773192
S -2.1397041240 0.4432797314 2.5418411503
O -2.9905594097 1.0419325077 -0.2625367998
C -2.1597073657 2.1909523954 -0.4905466590
C -1.4171125611 2.0573416958 -1.8075932664
S -1.1115319121 -1.3329971140 -0.2591247789
C 0.3532816474 -0.9371776714 0.7911593664
H -0.0093119490 -0.2672633832 1.5865646135
C 0.8886302405 -2.2288320413 1.3787167344
Cl 2.2731693640 -1.8426992775 2.4404279696
N 1.3168407668 -0.2109467106 0.0280614270
C 2.1416562877 -0.7465962895 -0.9661043497
O 2.1576610739 -1.9088249250 -1.2944809167
C 2.9123365085 0.3938837364 -1.4915636293
C 3.8892284728 0.4412931689 -2.4649232992
C 4.4433903421 1.6847949733 -2.7615297948
C 4.0276420004 2.8327652125 -2.1043266441
C 3.0408253482 2.7859078386 -1.1219863462
C 2.4929216354 1.5541420689 -0.8266448649
C 1.4506456181 1.1751355164 0.1392683180
O 0.7904826891 1.8582816629 0.8891830091
H -3.3567667206 -1.0283061635 -2.0166269053
H -4.7886954675 -1.9919736397 -2.4034758809
H -4.9717852515 -0.3903870995 -1.6644869762
H -3.6369987121 -2.7917878950 -0.3236741754
H -5.3078308720 -2.2473386186 0.0070909748
H -2.8469110694 3.0387659392 -0.5129374328
H -1.4655819453 2.3169677796 0.3477088398
H -0.8282953755 2.9535298579 -1.9751363688
H -0.7508665579 1.1970247840 -1.7880032832
H -2.1243127070 1.9312458822 -2.6221992783
H 0.1261153809 -2.7053871824 1.9920525891
H 1.2449709345 -2.9022656580 0.6002262718
H 4.2046342357 -0.4569473290 -2.9707009995
H 5.2096048292 1.7533550821 -3.5171038335
H 4.4748623989 3.7809853136 -2.3565379637
H 2.7109955960 3.6726332622 -0.6049778870
40
CONF330
C -3.6295790779 -1.5829453697 -2.5389866245
C -2.3025531921 -0.8914229493 -2.3041647198
O -1.8644995438 -1.0951329328 -0.9402617750
P -2.0537994186 0.0199277946 0.1662830623
S -3.8655858184 0.7186405039 0.4193074615
O -1.0082506933 1.1469053372 -0.3062114155
C -1.1545839345 2.5202776025 0.0935909041
C -0.9349145104 2.7133639470 1.5806162562
S -1.2098575351 -0.9670265346 1.8145091529
C 0.4864735529 -1.5399513434 1.2479136521
H 0.9879843564 -1.6752995487 2.2145646201
C 0.3559267454 -2.8565598144 0.5158102928
Cl 1.9933883871 -3.5039273480 0.2055895976
N 1.1887023766 -0.5191038903 0.5468581723
C 1.8659878970 0.4749979165 1.2670491128
O 1.9492773022 0.4887949022 2.4729120179
C 2.3932666344 1.4136850921 0.2678077746
C 3.1173714226 2.5794466742 0.4195761432
C 3.4639522526 3.2755343774 -0.7359619431
C 3.0969038148 2.8133582177 -1.9910660743
C 2.3675569289 1.6358964557 -2.1433711444
C 2.0220238112 0.9477346899 -0.9985676383
C 1.2485828582 -0.2962724438 -0.8326143052
O 0.7726491227 -1.0055392691 -1.6867573234
H -4.3981641882 -1.1403844852 -1.9085868006
H -3.9132210195 -1.4674114820 -3.5801378744
H -3.5480942907 -2.6399127468 -2.3023746299
H -2.3755114003 0.1814849810 -2.5006483631
H -1.5030774696 -1.3173389951 -2.9138235366
H -0.4080117061 3.0492188275 -0.5012416826
H -2.1600516932 2.8527343755 -0.1825268510
H -1.7022612029 2.1766097307 2.1384529036
H 0.0399152513 2.3417424492 1.8871331831
H -1.0036285097 3.7699749305 1.8178252885
H -0.1716664480 -3.5747992130 1.1403274020
H -0.1355018382 -2.7409885903 -0.4481429934
H 3.3971232278 2.9299810756 1.3999699641
H 4.0273127295 4.1909621784 -0.6508306598
H 3.3792631000 3.3748291294 -2.8673841520
H 2.0770896857 1.2690749738 -3.1147388531
40
CONF140
C -4.7706032964 -1.7084943969 0.4325084548
C -4.3309496623 -1.0426170864 -0.8546904743
O -3.4324754320 0.0615798733 -0.6363668093
P -2.0989170520 -0.0032719040 0.2224263501
S -2.2864064690 0.1160312513 2.1741155456
O -1.2549561573 1.1808166187 -0.4301458729
C -1.3084510927 2.5227151820 0.0925518416
C -2.6734420348 3.1442182585 -0.1069859122
S -1.0997078562 -1.6899951218 -0.5642126888
C 0.4024570406 -1.5420511042 0.5009862747
H 0.0607240551 -1.2275957765 1.4970912350
C 1.0789775947 -2.8992056538 0.5488402628
Cl 2.4989344066 -2.7903043344 1.6283153676
N 1.2486850542 -0.5072079490 -0.0029410888
C 1.4065281962 0.7134265261 0.6533134770
O 0.9199886332 0.9712586841 1.7311572971
C 2.2417411741 1.5386337560 -0.2328277163
C 2.7176375988 2.8249073206 -0.0783447848
C 3.4895524819 3.3538623181 -1.1104603577
C 3.7699418768 2.6149373156 -2.2499300743
C 3.2898194587 1.3163213533 -2.4058133714
C 2.5244533798 0.7919440899 -1.3841731186
C 1.8725730245 -0.5226020152 -1.2537149326
O 1.8354667858 -1.4514561037 -2.0251907881
H -5.5038535809 -2.4764472849 0.2084761162
H -3.9157571556 -2.1666766747 0.9279898549
H -5.2083381838 -0.9780181499 1.1085333713
H -5.1735423563 -0.5860089891 -1.3770706823
H -3.8307551536 -1.7607222471 -1.5107347589
H -1.0415540082 2.4908986687 1.1547264291
H -0.5331681269 3.0512823550 -0.4650779908
H -3.4133808349 2.5915743130 0.4710661648
H -2.6538736500 4.1748595040 0.2328145718
H -2.9509009122 3.1092190641 -1.1570979388
H 0.4024951717 -3.6461391823 0.9584747748
H 1.4317577712 -3.1933894319 -0.4389051954
H 2.4935986543 3.3905011516 0.8119684097
H 3.8740768888 4.3571246050 -1.0190702860
H 4.3700885548 3.0520835787 -3.0319194097
H 3.5016178046 0.7339639169 -3.2880143354
40
CONF331
C -2.2846830870 0.5365057776 3.5007689245
C -2.4666912378 1.0960506603 2.1058793927
O -2.1003258873 0.0677941362 1.1594369905
P -1.7051681379 0.4229308675 -0.3487511374
S -0.6543877731 2.0601725502 -0.5773971228
O -3.0605072075 0.5868272214 -1.1580009591
C -4.1008010261 -0.4233271698 -1.1740939841
C -4.0630258472 -1.2057823024 -2.4710588505
S -0.9523764265 -1.4377649520 -0.9471550677
C 0.4366447711 -1.6027005017 0.2798083875
H -0.0235950728 -1.6019616867 1.2740123266
C 1.1528263832 -2.9139488019 -0.0022885597
Cl 0.0332872605 -4.2664800894 0.2595523279
N 1.3187628532 -0.4840347882 0.2149033676
C 1.3625838661 0.4874930878 1.2237607368
O 0.7393982799 0.4039623536 2.2562887667
C 2.3075629022 1.5078061016 0.7525522617
C 2.7409181852 2.6727459604 1.3505086819
C 3.6372475622 3.4661592316 0.6386095245
C 4.0754864817 3.1001243380 -0.6246267982
C 3.6364618277 1.9247083746 -1.2293758898
C 2.7510874548 1.1361284398 -0.5240021467
C 2.0978414204 -0.1289523327 -0.8915759858
O 2.1663316868 -0.7795574386 -1.9082866251
H -2.8840054355 -0.3608680057 3.6243305778
H -1.2378819579 0.2940681895 3.6618732884
H -2.5959192547 1.2827028543 4.2242463330
H -1.8241234794 1.9666827587 1.9375295423
H -3.5055267901 1.3771997023 1.9126772122
H -3.9765264882 -1.0805313523 -0.3095183133
H -5.0306013219 0.1406925697 -1.0809989721
H -4.8977629555 -1.8992647020 -2.4913994493
H -4.1373386424 -0.5270558837 -3.3160713087
H -3.1330079171 -1.7651349864 -2.5517872900
H 1.4912098984 -2.9546100810 -1.0376584062
H 1.9897385262 -3.0388691100 0.6847307619
H 2.3882740637 2.9526021927 2.3299680465
H 3.9914572317 4.3847794923 1.0785078171
H 4.7656837958 3.7382647076 -1.1530738362
H 3.9670267509 1.6339518843 -2.2134933322
40
CONF5
C -3.6827006571 0.6597862823 2.7388604501
C -2.4470681511 -0.1064821734 2.3161043793
O -1.6975525248 0.6379687869 1.3212109221
P -1.8156435450 0.4292718412 -0.2352318077
S -0.7598419041 1.7709293703 -1.1964999162
O -3.3781349408 0.5156844557 -0.5103504474
C -3.9152571951 0.7488065449 -1.8257839455
C -3.5872036746 -0.3774826421 -2.7836539006
S -1.4375122548 -1.6509601580 -0.5319438115
C 0.1573139378 -1.8035354705 0.4065761457
H -0.0903296089 -1.8625652347 1.4728891140
C 0.8213575448 -3.0821975409 -0.0753330378
Cl 2.3207484396 -3.3402622446 0.8635675497
N 0.9778211777 -0.6493633848 0.2381656970
C 1.3184843426 0.1888024569 1.3025231454
O 0.9334643425 0.0196279922 2.4376181598
C 2.1906920564 1.2223623839 0.7297099816
C 2.8043868234 2.3077362782 1.3211213439
C 3.5692467574 3.1383364929 0.5061966706
C 3.7066444173 2.8863715227 -0.8502330441
C 3.0844751342 1.7936818509 -1.4489944770
C 2.3291409151 0.9695195726 -0.6417668746
C 1.5463338323 -0.2323499275 -0.9714653623
O 1.3954041691 -0.8078998814 -2.0238531124
H -4.1797994353 0.1152734856 3.5356027463
H -3.4043577584 1.6467783036 3.0976453320
H -4.3625197293 0.7691354755 1.8981535865
H -2.7137633417 -1.0831659990 1.9031300367
H -1.7426911771 -0.2250097965 3.1429463107
H -4.9891979583 0.8357903588 -1.6562808086
H -3.5164689884 1.6980685058 -2.1960719253
H -4.0998151189 -0.2101056605 -3.7254288926
H -2.5134597857 -0.4064475663 -2.9688760240
H -3.8959270136 -1.3332387423 -2.3673517715
H 0.1674949355 -3.9355654646 0.0920041836
H 1.0952329087 -3.0043905665 -1.1268624998
H 2.6869333752 2.4976920645 2.3759681382
H 4.0596145303 3.9952984818 0.9398638067
H 4.3024959984 3.5500595432 -1.4563331903
H 3.1761070204 1.5935106225 -2.5042366533
40
CONF379
C -1.9187168932 -1.9324210635 -3.2312930366
C -2.1909004262 -0.6978499087 -2.3991133190
O -1.7674121022 -0.9803901370 -1.0451281502
P -2.0696282794 0.0445470757 0.1228112378
S -3.9247041876 0.6604379269 0.2460531575
O -1.0248032477 1.2274288237 -0.1868692247
C -1.2472704533 2.5668347457 0.2882014541
C -1.1945268321 2.6593730020 1.7999546023
S -1.3278557587 -1.0343806209 1.7603635532
C 0.4011209319 -1.5708620072 1.2511138295
H 0.8681576360 -1.7105924662 2.2340276887
C 0.3115287233 -2.8804631428 0.5011816917
Cl 1.9645028493 -3.5119712866 0.2467853752
N 1.1073988532 -0.5294768702 0.5848527351
C 1.6588155529 0.5159554962 1.3379003416
O 1.6271162081 0.5591887053 2.5458341595
C 2.2222195080 1.4650944444 0.3696231569
C 2.8595208411 2.6752432134 0.5583781143
C 3.2710279522 3.3685754681 -0.5774019376
C 3.0509077924 2.8605222343 -1.8489972865
C 2.4080293134 1.6389063134 -2.0382200698
C 1.9968772506 0.9541029272 -0.9132859840
C 1.2798480515 -0.3284011047 -0.7892484143
O 0.9219940692 -1.0753469408 -1.6673659042
H -2.4699530161 -2.7800813606 -2.8343759848
H -2.2299542001 -1.7476387895 -4.2541324839
H -0.8551215931 -2.1551812989 -3.2113169227
H -3.2551320971 -0.4415144958 -2.3770015848
H -1.6208245259 0.1605654890 -2.7632389019
H -0.4539464109 3.1485820963 -0.1841116219
H -2.2246569153 2.8996763418 -0.0740463520
H -2.0064346035 2.0743745191 2.2320927495
H -0.2516742673 2.2808596254 2.1870565063
H -1.3119206500 3.6958656832 2.0989327605
H -0.2324117006 -3.6092759733 1.0988623890
H -0.1461024595 -2.7586989980 -0.4786526332
H 3.0259216166 3.0612603200 1.5512010502
H 3.7691808779 4.3181489001 -0.4636555470
H 3.3809829376 3.4205971335 -2.7093892073
H 2.2322490435 1.2365518537 -3.0230276760
40
CONF212
C -5.7558288433 0.3092185987 0.4826598218
C -4.4669758408 -0.4628051708 0.6782608499
O -3.3731133579 0.3924284319 0.2797416775
P -1.8973499902 0.0979426317 0.7743142198
S -1.7004137597 -0.1944719088 2.7003146550
O -1.0943020393 1.3559707976 0.2485932472
C -1.4762601453 2.2025941392 -0.8679282177
C -1.5541846123 1.4569331442 -2.1833299501
S -1.2969368068 -1.5728077501 -0.4125481175
C 0.3942662242 -1.6908445567 0.3164070414
H 0.2812187638 -1.5980174666 1.4052892941
C 0.9787244356 -3.0361525085 -0.0703896662
Cl 2.5840793083 -3.2028495831 0.6979305013
N 1.1848661057 -0.5827781442 -0.1219685453
C 1.5876751236 0.4431093670 0.7382007876
O 1.4100194246 0.4334298566 1.9339859990
C 2.2439324400 1.4442290128 -0.1179388889
C 2.8155333050 2.6598724122 0.1974526994
C 3.3558056569 3.4076695529 -0.8468741301
C 3.3227162309 2.9467586912 -2.1543798814
C 2.7479420325 1.7184328195 -2.4728951596
C 2.2117230358 0.9783079379 -1.4386773830
C 1.5295149990 -0.3277688842 -1.4505867953
O 1.2751362873 -1.0596237611 -2.3784197744
H -6.5923870263 -0.3230571968 0.7609744939
H -5.7574951979 1.1985399731 1.1065624182
H -5.8596811760 0.6054536655 -0.5569291558
H -4.4364606543 -1.3597306980 0.0547917320
H -4.3218091859 -0.7474508381 1.7254209806
H -2.4355045051 2.6625759419 -0.6265651826
H -0.6909087811 2.9608938157 -0.8789925086
H -0.6137548846 0.9602649735 -2.4101589024
H -2.3422248558 0.7082279173 -2.1495005535
H -1.7752812735 2.1675459160 -2.9736495743
H 0.3468068024 -3.8430228309 0.2945480471
H 1.1153224748 -3.1062263604 -1.1489289490
H 2.8340270792 3.0086140593 1.2175854762
H 3.8069608642 4.3629561642 -0.6307188749
H 3.7487994170 3.5492085861 -2.9405914518
H 2.7166714537 1.3509657718 -3.4859887754
40
CONF138
C -4.7364372434 -1.6744267024 0.7566876379
C -4.2629474837 -1.4422860301 -0.6629479689
O -3.4123960846 -0.2869122509 -0.7896590886
P -2.1281520174 0.0030526943 0.0973720673
S -2.4294730178 0.7577030142 1.8857473912
O -1.2856187530 0.9384680852 -0.8792727177
C -1.4020594973 2.3741769879 -0.8362311705
C -2.7728439099 2.8354224806 -1.2807306427
S -1.0344932535 -1.7998926478 -0.0294872188
C 0.3871326961 -1.2387962592 1.0082730681
H -0.0276244047 -0.6024638250 1.8028065618
C 1.0659793193 -2.4684761394 1.5815228465
Cl 2.4023388280 -1.9385765548 2.6428457646
N 1.2608813207 -0.4239352560 0.2251477105
C 1.9865523993 -0.8661598293 -0.8849015966
O 2.0197882065 -2.0110171876 -1.2689109676
C 2.6384592480 0.3358608438 -1.4325859094
C 3.4857267189 0.4834546387 -2.5118328641
C 3.9435502711 1.7672868978 -2.8006363928
C 3.5619409013 2.8569067595 -2.0325022370
C 2.7073548829 2.7085111846 -0.9422279764
C 2.2539760223 1.4368084385 -0.6558280570
C 1.3537106739 0.9562294674 0.4036096551
O 0.7769104676 1.5669805931 1.2750813026
H -5.4330084376 -2.5064151082 0.7722784144
H -3.8894953178 -1.9077109711 1.4006079555
H -5.2277820988 -0.7852127258 1.1443922422
H -5.0966723001 -1.2197920129 -1.3312611291
H -3.7101349927 -2.3102539552 -1.0331446610
H -1.1855148345 2.7079563865 0.1845848586
H -0.6158407699 2.7201359042 -1.5096596831
H -2.7998131851 3.9202828122 -1.3004191079
H -2.9971796671 2.4446903166 -2.2696518667
H -3.5242339920 2.4722978547 -0.5802434248
H 0.3653154115 -3.0414005541 2.1850140634
H 1.4916769233 -3.0836861746 0.7897568114
H 3.7758737510 -0.3701142835 -3.1030251947
H 4.6065761864 1.9141450172 -3.6382484569
H 3.9316455519 3.8387732655 -2.2815233181
H 2.4050587075 3.5489098887 -0.3380371312
40
CONF554
C -2.6793136879 -1.0390843573 3.1517560680
C -2.5065940000 0.3170301969 2.4942048013
O -3.0228556979 0.2803427718 1.1484944313
P -2.1276932333 0.3192269496 -0.1507710800
S -0.8839456360 1.8430367226 -0.2899702076
O -3.3225304920 0.3519925576 -1.1749503279
C -3.0878886330 0.5440079220 -2.5864829388
C -4.4016360493 0.9535028772 -3.2202252923
S -1.3571631292 -1.6364888929 -0.5024365098
C 0.2188382814 -1.6861576533 0.4947597999
H -0.0543973729 -1.5993189436 1.5524818860
C 0.8500295759 -3.0360718073 0.1986676750
Cl 2.3140916054 -3.2150033582 1.2073563093
N 1.0812733179 -0.5932429468 0.2041235081
C 1.3190501493 0.4196622259 1.1398823580
O 0.8321943542 0.4266257827 2.2491054990
C 2.2482157464 1.3519902653 0.4897966310
C 2.8281832672 2.5137133874 0.9551155024
C 3.6682511999 3.2061447719 0.0865488388
C 3.9097277040 2.7472148866 -1.1991814687
C 3.3209285682 1.5763673206 -1.6705145971
C 2.4919412582 0.8872737683 -0.8096448898
C 1.7225246659 -0.3507115029 -1.0122487242
O 1.6122256672 -1.0496905378 -1.9928940930
H -2.1276819635 -1.8042582393 2.6106270863
H -2.3086281273 -0.9886246816 4.1704754011
H -3.7302103347 -1.3132073273 3.1604106279
H -1.4578669440 0.6328427903 2.4875323707
H -3.0986394590 1.0777470937 3.0071706930
H -2.3218647110 1.3170993749 -2.7136994334
H -2.7190885015 -0.3968217401 -3.0042370535
H -4.7533731956 1.8824099040 -2.7805327570
H -4.2551962831 1.0920674347 -4.2863107510
H -5.1469834089 0.1814820314 -3.0541426859
H 0.1649503361 -3.8419058115 0.4526594329
H 1.1531197805 -3.1003460344 -0.8455185410
H 2.6281086397 2.8659258985 1.9541569109
H 4.1353140452 4.1185127562 0.4217761743
H 4.5622078097 3.3078976545 -1.8494369026
H 3.4984434315 1.2137431509 -2.6702421082
40
CONF99
C -3.9967557310 -0.0172313308 2.6201092236
C -2.5883856324 -0.5130903535 2.3662103710
O -1.8309598236 0.4505352398 1.5919643594
P -1.7042511559 0.4465486786 0.0224927041
S -0.6703815897 1.9841522922 -0.6127748137
O -3.2147210577 0.4338175671 -0.4762148181
C -3.5855982241 0.8071934952 -1.8154749148
C -3.0618669362 -0.1701190304 -2.8474689950
S -1.0564980089 -1.5151110200 -0.4822422043
C 0.5061276811 -1.5730734128 0.5209967082
H 0.2186224984 -1.4692550004 1.5740444425
C 1.1770435027 -2.9132368563 0.2636364729
Cl 0.1391215886 -4.2170116366 0.8759056636
N 1.3618814947 -0.4740775719 0.2135809109
C 1.9831070980 -0.2448059224 -1.0184310564
O 1.9146096303 -0.9974295455 -1.9616549572
C 2.6762616920 1.0441840243 -0.8746544985
C 3.4573462827 1.7444630226 -1.7705563983
C 3.9699747514 2.9716286865 -1.3567769178
C 3.7023911125 3.4729746148 -0.0923493603
C 2.9107636022 2.7688053448 0.8118131228
C 2.4050419023 1.5522577731 0.4035163874
C 1.5332847319 0.5975183347 1.1005796563
O 1.0489254955 0.6255182626 2.2089611452
H -3.9665206500 0.9590324941 3.0961197936
H -4.5426286614 0.0641486845 1.6841052531
H -4.5054212648 -0.7197660421 3.2729852755
H -2.5983623340 -1.4699002004 1.8359242650
H -2.0243097045 -0.6066257340 3.2966130218
H -4.6759877160 0.8200763005 -1.7893613415
H -3.2044032227 1.8144154801 -2.0099460622
H -1.9744265546 -0.1171222362 -2.8941015301
H -3.3513604367 -1.1860798218 -2.5899203790
H -3.4663182904 0.0847781030 -3.8217113480
H 1.3243612869 -3.0739637153 -0.8042896687
H 2.1254834858 -2.9665736031 0.7980536777
H 3.6541975370 1.3485077430 -2.7537491110
H 4.5819648481 3.5432510572 -2.0361366933
H 4.1089785109 4.4287103756 0.1977305801
H 2.6887883797 3.1540070935 1.7939430713
40
CONF29
C -3.3923673555 -0.6060155264 3.1521834610
C -3.7003542113 0.6745251823 2.4045505104
O -3.2715221388 0.6272926245 1.0301623727
P -1.7446128402 0.4987443018 0.6053055692
S -0.4953266850 1.5455762709 1.6945211132
O -1.7811067053 1.0326992763 -0.8780286367
C -2.7729685153 0.5838136496 -1.8407745206
C -2.3401598106 1.0638357603 -3.2092544056
S -1.5475612508 -1.6207967102 0.4605914681
C 0.2957767587 -1.8879486362 0.4430805635
H 0.6030369425 -2.0530537425 1.4822444341
C 0.5380832019 -3.1208892909 -0.4115195913
Cl 2.2814847329 -3.5190346047 -0.3625227563
N 0.9978402243 -0.7380809861 -0.0166901696
C 0.8940931133 -0.1796768429 -1.2872252824
O 0.2155578651 -0.6382195634 -2.1788935352
C 1.7562718224 1.0121258554 -1.2690690851
C 1.9919693627 1.9630501815 -2.2405733492
C 2.8547645019 3.0087282678 -1.9223662274
C 3.4553003602 3.0911445508 -0.6753497584
C 3.2176490183 2.1318736844 0.3060713478
C 2.3618059448 1.0968880940 -0.0082614603
C 1.8995386366 -0.0392235681 0.8025700411
O 2.2118369672 -0.4004935109 1.9119705258
H -3.8426671075 -0.5606144420 4.1385898855
H -3.7843748384 -1.4647205042 2.6130802509
H -2.3148597182 -0.7204550511 3.2638093045
H -3.2124289182 1.5274178697 2.8857571260
H -4.7743231173 0.8511656687 2.3318559644
H -2.8247665659 -0.5077380960 -1.7983226792
H -3.7352540760 1.0052737477 -1.5450169537
H -1.3903705241 0.6068816303 -3.4731367519
H -3.0915346654 0.7778573823 -3.9380230070
H -2.2285473602 2.1442380617 -3.2072901489
H -0.0134801413 -3.9710329989 -0.0157242411
H 0.2696021841 -2.9332521545 -1.4503584678
H 1.5193167444 1.8924571840 -3.2070544468
H 3.0562157199 3.7690567351 -2.6600856259
H 4.1165495175 3.9145053246 -0.4567937818
H 3.6718579423 2.1893359631 1.2820516273
40
CONF242
C -5.1708233140 0.5773564448 2.2574779823
C -3.7112973269 0.1711566696 2.2295753252
O -3.2786078911 0.1776145368 0.8529992981
P -1.7440699633 0.1631393499 0.4528496416
S -0.6699862156 1.5309947225 1.3818286106
O -1.8095226447 0.3101236157 -1.1176551137
C -1.7719952608 1.5897397021 -1.7830252348
C -3.0473082869 2.3729725188 -1.5584635042
S -1.3105362975 -1.8867164015 0.6696876070
C 0.5591308339 -1.9772468257 0.6194270234
H 0.8911203413 -2.0228228142 1.6633047969
C 0.9013299600 -3.2519602770 -0.1314302038
Cl 2.6746497458 -3.4726710383 -0.1047725275
N 1.1398260005 -0.8102262575 0.0525645810
C 1.0554260113 -0.4136454039 -1.2807325253
O 0.4861666136 -1.0350442515 -2.1497623271
C 1.7813715363 0.8649406515 -1.3591252311
C 1.9789458653 1.7167822194 -2.4272531136
C 2.6978356401 2.8863207259 -2.1942954518
C 3.1978916338 3.1836116263 -0.9353857196
C 3.0011364779 2.3237190965 0.1424438426
C 2.2874335109 1.1656297681 -0.0876603608
C 1.9021479466 0.0823528662 0.8281537433
O 2.1783408140 -0.1110733129 1.9874640018
H -5.5284262780 0.5470540592 3.2813659863
H -5.2887939027 1.5836208065 1.8660133557
H -5.7551970753 -0.1078828432 1.6506546408
H -3.5695756700 -0.8370187326 2.6277950148
H -3.0861017268 0.8710877549 2.7940395488
H -0.9045341527 2.1482374708 -1.4142687491
H -1.6276479514 1.3282778978 -2.8321717500
H -3.1312119941 2.6423670111 -0.5066018876
H -3.0225324980 3.2787169739 -2.1560303802
H -3.9090949895 1.7737710093 -1.8390837051
H 0.4467188635 -4.1112314712 0.3569348923
H 0.5902510355 -3.1867720571 -1.1733300924
H 1.5849924157 1.4760386123 -3.4016321493
H 2.8653559297 3.5729898992 -3.0086057368
H 3.7479038760 4.0987172679 -0.7843326142
H 3.3790213280 2.5469024783 1.1269583481
40
CONF16
C -3.0284883673 -1.3889473874 2.5989450000
C -3.1863563652 0.0819975996 2.2717079435
O -2.0742526424 0.5901266006 1.4888672706
P -1.9394778679 0.5249007520 -0.0790459913
S -0.7724485194 1.9464450134 -0.7623408097
O -3.4473351154 0.6198710664 -0.5677064469
C -3.7997779606 0.9917092664 -1.9130457902
C -3.3647952337 -0.0476723642 -2.9249285676
S -1.4080196252 -1.4830162063 -0.5713193231
C 0.1033645104 -1.6158232994 0.4907629879
H -0.2111103669 -1.4580409875 1.5289612981
C 0.6645347246 -3.0112652010 0.2859022075
Cl 2.0643901418 -3.2312977982 1.3759556218
N 1.0410201846 -0.5842440326 0.1893747545
C 1.7161830120 -0.4227914606 -1.0224272627
O 1.6034094889 -1.1666219724 -1.9690771854
C 2.5235536650 0.7973686397 -0.8633550480
C 3.3834423881 1.4222053167 -1.7423163821
C 3.9961041501 2.5985477578 -1.3172938530
C 3.7479701201 3.1241986327 -0.0587949986
C 2.8769163494 2.4958393057 0.8278830740
C 2.2724607542 1.3292921733 0.4083850969
C 1.3022252846 0.4573759550 1.0851692286
O 0.8024398768 0.5333310778 2.1850158529
H -2.0822014416 -1.5619087666 3.1060949764
H -3.8378741218 -1.6869410320 3.2583161616
H -3.0698386933 -1.9916229592 1.6948137942
H -3.1551084336 0.6945402734 3.1741617187
H -4.1105813648 0.2695672066 1.7236411738
H -4.8854978258 1.0908210523 -1.8769753929
H -3.3422561135 1.9609129005 -2.1339930001
H -3.7575431231 0.2161574412 -3.9016075719
H -2.2772224824 -0.0815897409 -2.9812557807
H -3.7303373658 -1.0311263699 -2.6405381306
H -0.0799022909 -3.7629787543 0.5392010384
H 1.0142523973 -3.1415372408 -0.7375046890
H 3.5645270364 1.0082105653 -2.7211641209
H 4.6717247089 3.1113104499 -1.9832266259
H 4.2330355676 4.0397548144 0.2402265778
H 2.6704485905 2.9004611514 1.8056988764
40
CONF547
C -2.5741965263 0.7200933451 3.1672791956
C -2.6646005836 1.1444999265 1.7168500426
O -2.1895336381 0.0518678231 0.8985469318
P -1.6204520792 0.2829488698 -0.5759889978
S -0.5991826325 1.9322620275 -0.8421916019
O -2.8614264074 0.2949931921 -1.5645230071
C -3.8593600642 -0.7590260849 -1.5739401222
C -5.1980310800 -0.1371505879 -1.9154889252
S -0.7602727670 -1.5991322612 -0.9147687814
C 0.4963862487 -1.5977841233 0.4597797617
H -0.0658284334 -1.4976444352 1.3947557831
C 1.2534829580 -2.9148220084 0.4031867562
Cl 0.1298103373 -4.2551694299 0.7062262521
N 1.3650948641 -0.4719233371 0.3586382213
C 2.2536677024 -0.2252711342 -0.6934069422
O 2.4453707157 -0.9882345603 -1.6115262003
C 2.8391165179 1.0940807874 -0.4133393495
C 3.7828412815 1.8204828911 -1.1100050183
C 4.1315414518 3.0722857188 -0.6087405917
C 3.5501059037 3.5716261507 0.5464710040
C 2.5955655911 2.8405908657 1.2494439112
C 2.2514685022 1.6000227829 0.7542967985
C 1.2797053599 0.6131131283 1.2420619639
O 0.5506083076 0.6298148753 2.2061322251
H -1.5351255587 0.5448114868 3.4318866371
H -2.9748608048 1.5110861267 3.7925285594
H -3.1436572530 -0.1911591168 3.3259624271
H -2.0428387961 2.0235586946 1.5179249820
H -3.6946133366 1.3609232199 1.4214141685
H -3.5522637436 -1.4869642848 -2.3279069800
H -3.8780232535 -1.2417651947 -0.5932131183
H -5.4867792147 0.5838624750 -1.1554203181
H -5.1346807737 0.3727189786 -2.8724492274
H -5.9483107817 -0.9191768757 -1.9724464983
H 1.6962993794 -3.0643983488 -0.5814662496
H 2.0171366813 -2.9407494150 1.1804694008
H 4.2250645501 1.4251662338 -2.0102879069
H 4.8644267554 3.6642441334 -1.1334582357
H 3.8370610360 4.5465626789 0.9070000333
H 2.1322265703 3.2236388316 2.1441428147
40
CONF253
C -3.4964507805 0.0199955284 -2.4238536429
C -4.0079810478 -0.8016547698 -1.2593516065
O -3.6173367300 -0.2518609089 0.0209725843
P -2.1413817941 -0.1598941546 0.5857689726
S -2.1616193722 0.0024978001 2.5329834036
O -1.3795602406 1.0363824116 -0.1756615263
C -1.3949966902 2.3750378293 0.3498905278
C -2.7752315549 2.9928324488 0.2720544012
S -1.1619828856 -1.8178237668 -0.2731955644
C 0.4271261199 -1.6001815933 0.6423620830
H 0.1712313392 -1.2797232482 1.6620133823
C 1.1481483047 -2.9354495216 0.6434003329
Cl 2.6541772845 -2.7690785221 1.5908782555
N 1.1895514523 -0.5503027857 0.0462330891
C 1.6803720707 -0.5643901010 -1.2626163017
O 1.5763773286 -1.4981252563 -2.0216348318
C 2.2938435638 0.7592706634 -1.4660619854
C 2.9400991678 1.2888049295 -2.5644854183
C 3.4156608492 2.5946000573 -2.4646776653
C 3.2457354215 3.3354091197 -1.3048111312
C 2.5937862064 2.8013067448 -0.1953665515
C 2.1227373353 1.5077304429 -0.2939369651
C 1.3993631910 0.6746994008 0.6796359071
O 1.0285927130 0.9290446002 1.8032210440
H -3.8617963391 -0.4137138590 -3.3494407133
H -3.8479968939 1.0454152491 -2.3468987758
H -2.4083810758 0.0166109376 -2.4384490226
H -3.6425105066 -1.8301270760 -1.3176472173
H -5.0980035972 -0.7978081949 -1.2105998475
H -1.0398525172 2.3447522033 1.3857736202
H -0.6729736528 2.9110606582 -0.2691829130
H -2.7385056658 4.0043689891 0.6637288010
H -3.1220164380 3.0158519962 -0.7575069334
H -3.4719403281 2.4053064520 0.8699955808
H 0.5351904766 -3.6979573627 1.1192478691
H 1.4203598272 -3.2311673790 -0.3691916500
H 3.0668506304 0.7046789142 -3.4616773708
H 3.9248219221 3.0357830272 -3.3066303755
H 3.6237710427 4.3441895354 -1.2577428858
H 2.4563564437 3.3684598926 0.7113406131
40
CONF115
C -3.5805700177 1.6466436281 2.2132082717
C -2.4210594708 0.6742507990 2.2694654155
O -2.3814353553 -0.1683648833 1.1017529980
P -1.9371263111 0.3705668306 -0.3344383042
S -0.7989007258 1.9689632885 -0.3436443060
O -3.2398177211 0.6664452843 -1.1821855223
C -4.5234183989 -0.0012764732 -1.0840621320
C -4.4397062336 -1.5069764547 -1.2072281530
S -1.1676903878 -1.3918975807 -1.2030202860
C 0.2230042437 -1.7144974681 -0.0169010917
H -0.2174027142 -1.7753203747 0.9848857603
C 0.8519936529 -3.0332287292 -0.4284763273
Cl 2.1379094078 -3.4435956007 0.7419366288
N 1.1498441016 -0.6314144860 0.0014517090
C 1.2566719955 0.2270315711 1.0998024059
O 0.6298548288 0.0797325665 2.1254150597
C 2.2597251790 1.2324380469 0.7246253059
C 2.7620485857 2.3072902170 1.4280866115
C 3.7057003151 3.1089691679 0.7906771931
C 4.1234262267 2.8382633358 -0.5032391916
C 3.6147213932 1.7542165539 -1.2143709824
C 2.6816100944 0.9580487456 -0.5830079630
C 1.9545916573 -0.2268760219 -1.0657081993
O 1.9898485444 -0.7790579375 -2.1413093189
H -4.5257352752 1.1122579894 2.1626286322
H -3.5699639065 2.2678825966 3.1031634596
H -3.4796475076 2.2867584900 1.3363056971
H -2.5133466156 -0.0285322480 3.0983523101
H -1.4686449852 1.2058031478 2.3507978567
H -4.9786214179 0.2854652273 -0.1337234519
H -5.0872076868 0.4376220225 -1.9089429549
H -3.9187701372 -1.9306740202 -0.3516485182
H -5.4472200546 -1.9103638252 -1.2440162174
H -3.9089392280 -1.7864055345 -2.1142406816
H 0.1117011824 -3.8299498496 -0.4088575620
H 1.3103652178 -2.9532920182 -1.4134081531
H 2.4263093021 2.5133950566 2.4315121186
H 4.1148512717 3.9581837415 1.3144087168
H 4.8529685609 3.4797992518 -0.9713226318
H 3.9291685206 1.5374784262 -2.2226680391
40
CONF20
C -2.2722890096 1.6111649196 2.9043747607
C -2.9940190231 0.3790397478 2.3986897949
O -2.2163743353 -0.3406649245 1.4141150263
P -2.0187329929 0.1141291287 -0.0864947430
S -1.0087701118 1.7667401079 -0.4598063385
O -3.5176119588 0.1846800591 -0.6072195126
C -3.8682553613 0.8122388960 -1.8526997265
C -3.3786389591 0.0085838745 -3.0394206638
S -1.2627783792 -1.6967972560 -0.8672027921
C 0.2375931589 -1.8382855588 0.2191285743
H -0.1208477012 -1.8674467881 1.2542343368
C 0.9380026766 -3.1283261351 -0.1659889499
Cl 2.3327934090 -3.3685658716 0.9233659646
N 1.0704260415 -0.6879010168 0.0972540998
C 1.1781542378 0.2585960117 1.1214305326
O 0.6349730130 0.1458216478 2.1974886309
C 2.0690754550 1.3063700386 0.6042639773
C 2.5255785070 2.4681805538 1.1911055129
C 3.3554135934 3.2894827798 0.4319101719
C 3.7078879173 2.9535199374 -0.8660937106
C 3.2450402517 1.7817433847 -1.4596643971
C 2.4255288872 0.9659721782 -0.7073008694
C 1.7654686485 -0.3028784140 -1.0524491098
O 1.7688456676 -0.9263894024 -2.0885240677
H -2.1965530820 2.3611822497 2.1194665062
H -2.8181126511 2.0282660201 3.7445133481
H -1.2672039196 1.3415995106 3.2218897600
H -3.9613953819 0.6322053402 1.9590858638
H -3.1271998935 -0.3547098166 3.1954860756
H -4.9570479900 0.8675935545 -1.8221232230
H -3.4410852815 1.8202902141 -1.8653616489
H -3.7416390714 0.4602735868 -3.9569083817
H -2.2888174940 -0.0010652871 -3.0570315421
H -3.7329158940 -1.0168206733 -2.9738114126
H 0.2666506204 -3.9757193438 -0.0451737767
H 1.3160042773 -3.0751020756 -1.1863041335
H 2.2399830819 2.7250908251 2.1984016754
H 3.7254343431 4.2061044091 0.8629356610
H 4.3485370348 3.6125241582 -1.4301425497
H 3.5084132713 1.5134868069 -2.4701388278
40
CONF47
C -3.6756494622 1.4829825941 2.2467612345
C -2.4208865061 0.6691234177 2.4725926768
O -2.2457179447 -0.3288889986 1.4446982590
P -1.9936625015 0.0409400126 -0.0682232822
S -0.9865604219 1.7051106309 -0.3953437705
O -3.4655528924 0.0050468591 -0.6599143526
C -3.7677016915 0.0331039029 -2.0695595986
C -3.8647839366 1.4526588732 -2.5941000987
S -1.1867016331 -1.7698909474 -0.8046256391
C 0.3149816747 -1.8563732973 0.2850021661
H -0.0456914444 -1.8425368086 1.3200891858
C 1.0192273346 -3.1603722470 -0.0409518016
Cl 2.4101193594 -3.3483753434 1.0633127183
N 1.1426758106 -0.7095276990 0.1153270493
C 1.8606047656 -0.3793732496 -1.0377866830
O 1.8939212085 -1.0568413916 -2.0386567725
C 2.5018100436 0.9119203338 -0.7447337198
C 3.3330346291 1.6940201442 -1.5200057445
C 3.7756253455 2.8978965516 -0.9775633185
C 3.3932955014 3.2970564651 0.2939459900
C 2.5519666211 2.5099525535 1.0762446472
C 2.1145363156 1.3168638447 0.5396094332
C 1.2190453912 0.2907149370 1.0898555358
O 0.6527006990 0.2259124951 2.1592097715
H -3.8163863158 2.1674352866 3.0773007480
H -3.5791725028 2.0561633544 1.3250407973
H -4.5378499857 0.8266321175 2.1636997875
H -2.4675989493 0.0847639053 3.3921326350
H -1.5311707907 1.3057889394 2.4920580912
H -3.0065994305 -0.5378690455 -2.6092753349
H -4.7273268212 -0.4820972070 -2.1429070243
H -4.6131317460 2.0080804269 -2.0355994471
H -2.9080829155 1.9609550869 -2.4965761801
H -4.1457578799 1.4261057019 -3.6419639513
H 0.3489546416 -4.0029389904 0.1150039612
H 1.4010267040 -3.1513501232 -1.0612019670
H 3.6206722774 1.3759158082 -2.5091873155
H 4.4245611535 3.5317467007 -1.5606238782
H 3.7489715554 4.2367539542 0.6855265165
H 2.2435833514 2.8152656535 2.0631133328
40
CONF220
C -3.4942131470 1.5497362361 2.5914282674
C -2.1597207194 0.8425484389 2.6870312686
O -2.0359195310 -0.1990696373 1.6966261904
P -1.8890622405 0.1027712077 0.1492043237
S -0.9239537648 1.7652228751 -0.2883018556
O -3.3946355308 0.1003215812 -0.3606584343
C -3.7667865883 0.6168178418 -1.6493408728
C -3.2138136944 -0.2292835978 -2.7782065541
S -1.1723864654 -1.7743760791 -0.4758139067
C 0.3455109851 -1.8126572685 0.5800442350
H 0.0033002172 -1.7242408379 1.6204510489
C 1.0470290240 -3.1538719445 0.4326914048
Cl 1.6131971357 -3.4512526740 -1.2405800761
N 1.1827929359 -0.6750996699 0.3382427689
C 1.5472301036 -0.1458357301 -0.9065341371
O 1.2150165392 -0.5996825436 -1.9752379461
C 2.3417770638 1.0578023747 -0.6043395958
C 2.9887115806 1.9357698568 -1.4477700285
C 3.6342417966 3.0261268581 -0.8689462728
C 3.6183878538 3.2266861502 0.5027586501
C 2.9567855739 2.3452632871 1.3538611164
C 2.3254832015 1.2599226473 0.7811910075
C 1.5290689496 0.1855950413 1.3859191225
O 1.1792310852 0.0142006983 2.5320959545
H -3.5551393169 2.0988223769 1.6527882559
H -4.3041577266 0.8263034762 2.6291957735
H -3.5908645931 2.2480149151 3.4167003792
H -2.0407070422 0.3152296938 3.6342875175
H -1.3321091841 1.5472956955 2.5548006679
H -4.8572245745 0.6052430287 -1.6322414960
H -3.4039355985 1.6471050951 -1.7282569884
H -3.5035600248 -1.2692093529 -2.6488702082
H -3.5937265364 0.1375819870 -3.7263172401
H -2.1245211645 -0.1717129755 -2.7901954647
H 1.9236229486 -3.1841679637 1.0789115784
H 0.3537643010 -3.9554597366 0.6797733515
H 2.9854364287 1.7765310845 -2.5141189249
H 4.1496695949 3.7297252081 -1.5031714426
H 4.1216001409 4.0843705155 0.9198833754
H 2.9300970999 2.4975124884 2.4208379373
40
CONF134
C -3.5132240760 1.5446282141 2.2490261943
C -2.2432552015 0.7365064048 2.4126890226
O -2.0389567346 -0.1644034336 1.3071651512
P -1.7039636265 0.3566978497 -0.1673516418
S -0.7019486199 2.0358141526 -0.2819819987
O -3.0773768773 0.5289929267 -0.9387091124
C -4.0865036598 -0.5091353126 -1.0097806466
C -4.0681499965 -1.1739496241 -2.3712864826
S -0.8999058641 -1.4130460582 -0.9647751328
C 0.5274024897 -1.6371362475 0.2045198394
H 0.1014437021 -1.6899527757 1.2127642989
C 1.2415907280 -2.9273791406 -0.1646397317
Cl 0.1531168200 -4.3029763031 0.1074417466
N 1.3991640085 -0.5084494004 0.1680273108
C 2.1582313260 -0.1054890610 -0.9358662152
O 2.2274076491 -0.7228023255 -1.9729316959
C 2.7930886167 1.1591503847 -0.5362551742
C 3.6579935859 1.9832570469 -1.2266432644
C 4.0859530997 3.1459522614 -0.5905251901
C 3.6572370324 3.4648515858 0.6887598741
C 2.7821928775 2.6353132553 1.3857781631
C 2.3590969167 1.4830005043 0.7565881613
C 1.4363504952 0.4321433991 1.2054468340
O 0.8260550806 0.3039655141 2.2427174379
H -4.3721384613 0.8858835755 2.1483243379
H -3.6471347087 2.1804812758 3.1183638292
H -3.4384725824 2.1715189826 1.3604193145
H -2.2833072852 0.0776688697 3.2810549618
H -1.3688255833 1.3888867050 2.4926073959
H -3.9131072176 -1.2339477782 -0.2103630756
H -5.0296701999 0.0130835048 -0.8394201337
H -3.1239821792 -1.6914113925 -2.5297291425
H -4.8806112303 -1.8914829113 -2.4274010481
H -4.1922148237 -0.4270660516 -3.1504151581
H 1.5252174069 -2.9262725352 -1.2170346042
H 2.1155347917 -3.0662181167 0.4718178577
H 3.9814596889 1.7280198619 -2.2229138548
H 4.7599035508 3.8112030924 -1.1063460791
H 4.0025020007 4.3745712691 1.1535415860
H 2.4377473873 2.8787332444 2.3777514072
40
CONF228
C -4.7340636373 -1.4844224146 1.5035934770
C -4.5378081140 -0.9043346076 0.1194634933
O -3.6750849238 0.2505378619 0.1156270442
P -2.1958756614 0.2763908645 0.6879691622
S -1.9486634959 0.4174826317 2.6245800596
O -1.6033777775 1.5612874903 -0.0217592846
C -1.9418515067 2.0371550812 -1.3487396718
C -1.0285492147 1.4575462251 -2.4111415756
S -1.3113659630 -1.4563565990 -0.2005090494
C 0.3033874512 -1.3107532952 0.6685330147
H 0.0951738813 -0.8531568461 1.6468833608
C 0.8844494341 -2.7039122315 0.8239946312
Cl 2.4183825582 -2.5825599273 1.7344679171
N 1.1635501272 -0.4175552838 -0.0428866112
C 1.6875651099 -0.6599991541 -1.3152095859
O 1.4921321975 -1.6648757230 -1.9563705625
C 2.4610253764 0.5464097768 -1.6583720782
C 3.1914334999 0.8510850865 -2.7888952921
C 3.8156895605 2.0957982886 -2.8359642996
C 3.7065287021 2.9952499111 -1.7862691787
C 2.9688961869 2.6882222679 -0.6445538005
C 2.3503927720 1.4555687464 -0.5971559566
C 1.5091213296 0.8444794635 0.4456947900
O 1.1529811643 1.2786512657 1.5167816287
H -3.7900121612 -1.8667771516 1.8880102175
H -5.0962397644 -0.7207950148 2.1876168401
H -5.4531371002 -2.2956876620 1.4550658140
H -5.4749415475 -0.5228369514 -0.2898789468
H -4.1099314484 -1.6497421800 -0.5562742223
H -2.9859535924 1.7956015652 -1.5508447920
H -1.8202152682 3.1189670793 -1.2719433051
H 0.0071885598 1.7150364730 -2.2029480248
H -1.1218394476 0.3744038016 -2.4564295379
H -1.3069486586 1.8731857488 -3.3744217384
H 0.2068362067 -3.3353484688 1.3946100732
H 1.1064818308 -3.1469045173 -0.1461886967
H 3.2677792304 0.1451313851 -3.5998861446
H 4.3933879770 2.3632691394 -3.7061964341
H 4.2001324384 3.9517025655 -1.8516646162
H 2.8758527310 3.3804100853 0.1768966575
40
CONF332
C -5.3298893911 0.8334815736 1.6842688060
C -4.0612499486 0.0145910930 1.8153261421
O -3.2957582737 0.1754628876 0.6019849597
P -1.7123302069 0.1068952638 0.5780889802
S -0.8397199970 1.0233088215 2.0859364639
O -1.3824710505 0.6329492119 -0.8788275042
C -1.9693022573 1.8106471686 -1.4819339502
C -1.4621785301 3.0873761702 -0.8447330500
S -1.3334176122 -1.9634751414 0.3779949524
C 0.5158182873 -1.9661857211 0.5695431891
H 0.7392089036 -1.8899766379 1.6404540776
C 1.0083045698 -3.2792944544 -0.0140868902
Cl 2.7767528623 -3.3849026034 0.2231500039
N 1.0876929910 -0.8194244055 -0.0573990868
C 0.9633517413 -0.4946486221 -1.4093776211
O 0.4239003500 -1.1935040365 -2.2350216890
C 1.6256635545 0.8129615484 -1.5601144341
C 1.7393924129 1.6380704073 -2.6602475821
C 2.3986486801 2.8533022462 -2.4893584039
C 2.9256746200 3.2185334399 -1.2596096356
C 2.8180928995 2.3825848118 -0.1503029332
C 2.1608716240 1.1808970072 -0.3186687014
C 1.8691927790 0.1080403121 0.6452039639
O 2.2245314944 -0.0391496219 1.7900663831
H -5.8903150078 0.5125343021 0.8110208244
H -5.9363024211 0.6903166766 2.5725010176
H -5.0886725000 1.8880546935 1.5835466843
H -4.2809932860 -1.0490886590 1.9297525691
H -3.4517652065 0.3526731221 2.6601544522
H -1.6656022941 1.7322910658 -2.5272611896
H -3.0550038040 1.7320547527 -1.4030915117
H -0.3766804084 3.1333357478 -0.8973815328
H -1.8841550587 3.9400084593 -1.3670204814
H -1.7571695586 3.1278288837 0.2024877628
H 0.5477815655 -4.1207839105 0.4990631443
H 0.8115483163 -3.3227740449 -1.0847030440
H 1.3260422753 1.3445510352 -3.6117716708
H 2.4975665728 3.5221987975 -3.3292970942
H 3.4273661025 4.1674199671 -1.1562587129
H 3.2201113550 2.6561535395 0.8119101706
40
CONF575
C -3.4819837229 -2.3240189728 -2.1247919330
C -4.2059410901 -2.3371263271 -0.7948211549
O -3.3601681886 -1.9272257005 0.3078489967
P -2.7165703227 -0.5017999317 0.5130268406
S -2.2555379540 -0.2995516808 2.4083399682
O -3.8355195606 0.4466549092 -0.0975674990
C -3.6357860199 1.8186230423 -0.4837006319
C -3.0236454899 2.6599743030 0.6168440637
S -1.0811075100 -0.3086335052 -0.8541642412
C 0.2884559344 -0.5308584289 0.3595051877
H -0.0403797503 -0.0476194728 1.2919593144
C 0.5052154715 -2.0164260712 0.5684521643
Cl 1.8121419710 -2.2502870039 1.7606647164
N 1.4472785101 0.1641614826 -0.0934344837
C 1.8223531281 1.3974371036 0.4485246916
O 1.2096128542 1.9609153182 1.3253306865
C 3.0390385915 1.7944590599 -0.2766485341
C 3.8473332716 2.9043538159 -0.1369475969
C 4.9480033472 3.0106563277 -0.9845757199
C 5.2210131308 2.0379729448 -1.9341651320
C 4.4047935786 0.9177235820 -2.0762657715
C 3.3150794717 0.8110577556 -1.2365624277
C 2.2794193252 -0.2324251587 -1.1430863192
O 2.1206751397 -1.2288873719 -1.8077074209
H -3.2115871163 -1.3074687128 -2.4035907016
H -2.5760970293 -2.9222452311 -2.0724245927
H -4.1371471356 -2.7365099465 -2.8857238208
H -4.5066436358 -3.3472188595 -0.5122698784
H -5.0783341493 -1.6820552259 -0.8167418001
H -3.0043493786 1.8320530709 -1.3764527911
H -4.6410058382 2.1629536848 -0.7332975688
H -3.0017584981 3.6998487882 0.3070040235
H -3.6046825024 2.5696869242 1.5317355420
H -2.0044208666 2.3357756322 0.8276391881
H -0.3979115378 -2.4696738498 0.9796026325
H 0.8076927456 -2.5062266933 -0.3566427373
H 3.6261761216 3.6554892049 0.6041300554
H 5.5977495196 3.8669588480 -0.8987874038
H 6.0802438357 2.1487518876 -2.5762166933
H 4.6079016344 0.1562582338 -2.8118683212
40
CONF289
C -3.9385518991 -2.3817471466 -1.5797469642
C -4.6904799650 -1.5581712896 -0.5545594319
O -3.9742975099 -0.3667437782 -0.1829232409
P -2.6107241378 -0.4136684066 0.6261666237
S -2.5186507389 -1.7819386782 2.0226497872
O -2.5036283271 1.0196141157 1.2683115253
C -2.3008227346 2.2988260392 0.6207763345
C -3.1484174626 2.4897541547 -0.6171279331
S -1.1031740243 -0.5279725416 -0.8807814528
C 0.3204370567 -0.7147962353 0.2905558862
H -0.0170120499 -0.3098606579 1.2546547267
C 0.6638418484 -2.1857589738 0.4127681211
Cl 2.0406692465 -2.3612894991 1.5343706750
N 1.4113470671 0.0943499012 -0.1462621697
C 1.6542457521 1.3510636067 0.4101766063
O 0.9619889543 1.8474201335 1.2711446575
C 2.8398979941 1.8745765884 -0.2818934152
C 3.5341915598 3.0553189750 -0.1118384663
C 4.6365092754 3.2778299695 -0.9343624468
C 5.0203307104 2.3488274915 -1.8893891093
C 4.3178947893 1.1578353050 -2.0630105314
C 3.2272359711 0.9355246075 -1.2477456830
C 2.2943609278 -0.2035882802 -1.1903590973
O 2.2415720581 -1.1945949286 -1.8774809916
H -3.0388087472 -2.8014713851 -1.1328593086
H -4.5721461332 -3.1937931773 -1.9215902271
H -3.6530629860 -1.7643171974 -2.4275276362
H -4.8767521129 -2.1461916265 0.3494634260
H -5.6328011291 -1.1801391443 -0.9532171086
H -2.5625956291 3.0136174876 1.4028443766
H -1.2345302183 2.3916545196 0.3970822618
H -4.1992794362 2.3506004453 -0.3775804808
H -2.9958866146 3.4965353193 -0.9941712097
H -2.8643841295 1.7755964581 -1.3874792431
H -0.1766476458 -2.7329395423 0.8402332707
H 0.9620227992 -2.6026738823 -0.5483332827
H 3.2275890568 3.7717956882 0.6331466929
H 5.1995896105 4.1908517222 -0.8244951857
H 5.8778951324 2.5499856379 -2.5113861340
H 4.6073433147 0.4299616149 -2.8036501214
40
CONF611
C -4.1337628545 -1.9744917868 2.4294300040
C -3.3330303842 -2.5629275296 1.2837564250
O -3.3787123403 -1.7176097285 0.1232837939
P -2.4447966665 -0.4674892735 -0.1484137261
S -2.6920460942 1.1568054919 0.9306667207
O -2.8895764679 -0.3173097296 -1.6622844831
C -2.8765242151 0.9265896445 -2.3767984733
C -1.4876935169 1.2803104460 -2.8716274748
S -0.4919189932 -1.3100181450 -0.2004254652
C 0.4337081799 -0.1260368783 0.8962036146
H -0.2284766668 0.7447722869 1.0183082675
C 0.7412433159 -0.7712090306 2.2365343551
Cl -0.7732486438 -0.9873034478 3.1430862735
N 1.6139298942 0.3160580460 0.2254700351
C 2.7745979748 -0.4438420721 0.0405566791
O 2.9576982022 -1.5412892146 0.5096470197
C 3.6517586544 0.3797855637 -0.8086353932
C 4.9297259518 0.1422569955 -1.2722704355
C 5.5162223969 1.1185076957 -2.0751416291
C 4.8410763105 2.2859559420 -2.3972849546
C 3.5505989556 2.5268275952 -1.9304677645
C 2.9697316365 1.5603959344 -1.1344908243
C 1.6431922015 1.5090638758 -0.5035822330
O 0.7151007345 2.2823024687 -0.5634015587
H -4.1234579109 -2.6644054937 3.2670425203
H -3.7010465401 -1.0278363334 2.7471305431
H -5.1593749608 -1.7985521212 2.1167588835
H -3.7674765702 -3.5043771413 0.9415572007
H -2.2916615805 -2.7280806127 1.5747846609
H -3.5649697531 0.7581560692 -3.2065545576
H -3.2671047009 1.7159750711 -1.7257684062
H -1.0432257691 0.4281735051 -3.3800306480
H -1.5542700143 2.1165333281 -3.5600642910
H -0.8530906878 1.5711399337 -2.0356082888
H 1.2015694226 -1.7499871215 2.1090407283
H 1.3833768941 -0.1177351107 2.8271934009
H 5.4455876846 -0.7693340535 -1.0175304077
H 6.5136231593 0.9603930577 -2.4532173297
H 5.3210016273 3.0223116120 -3.0219413154
H 3.0170391218 3.4307489877 -2.1761630263
40
CONF196
C -0.9142977860 3.5574006091 0.2733191649
C -1.3175922132 2.4511553929 -0.6787125528
O -1.2550655732 1.1983270102 0.0427469196
P -2.0191896141 -0.0797150590 -0.5175253532
S -1.9750303516 -0.4063746111 -2.4555388031
O -3.4946130107 0.2248006542 0.0002006788
C -4.6479455947 -0.4584398429 -0.5185064191
C -4.6667323767 -1.9187198344 -0.1161818798
S -1.3793173361 -1.5206017374 0.8804636970
C 0.4100819895 -1.8221704051 0.4928459316
H 0.7182597515 -2.4655044815 1.3271890915
C 0.5422993244 -2.5508767381 -0.8291053284
Cl 2.2618298724 -2.9491196947 -1.0941442815
N 1.1758085272 -0.6232731465 0.5949221582
C 1.7919588925 -0.2626178716 1.8027524983
O 1.7557914051 -0.9408154753 2.8008111394
C 2.4382918092 1.0327145973 1.5494678513
C 3.1869665753 1.8436476972 2.3788591854
C 3.6753383346 3.0346147403 1.8459399253
C 3.4210411148 3.3918868563 0.5302652326
C 2.6671723983 2.5729096114 -0.3077649267
C 2.1811680711 1.3941936108 0.2207704016
C 1.3578325165 0.3392746181 -0.3940328463
O 0.9095320612 0.2777383090 -1.5177472238
H -0.9415471435 4.5051835705 -0.2541696085
H -1.6027132266 3.5905177432 1.1128920517
H 0.0903123125 3.3818614259 0.6485509871
H -0.6393290895 2.3731873352 -1.5341908883
H -2.3369824283 2.5938967897 -1.0479162410
H -5.4902556418 0.0899287921 -0.0949883895
H -4.6457203750 -0.3609835757 -1.6090862992
H -3.8447599574 -2.4440132049 -0.6008973569
H -4.5564077634 -2.0154874781 0.9608797988
H -5.6049313031 -2.3665135926 -0.4274075719
H -0.0148815637 -3.4851124861 -0.7957282740
H 0.2212834754 -1.9398229407 -1.6725839706
H 3.3796760579 1.5561210504 3.3997590223
H 4.2621034095 3.6895784563 2.4699242461
H 3.8118879033 4.3203692200 0.1458559200
H 2.4648487102 2.8416551841 -1.3322967718
40
CONF388
C -4.5393879007 -0.3480621488 -1.6536889639
C -4.4445418616 -1.5062947314 -0.6855416470
O -3.8767013970 -1.1288413474 0.5942734260
P -2.5203528390 -0.3809795987 0.8426016842
S -1.8958194722 -0.6179357518 2.6832782735
O -2.8994977157 1.1214299107 0.4647200967
C -2.0104690146 2.2336983217 0.6489227303
C -1.3661676729 2.6242525292 -0.6689670652
S -1.2036263246 -1.1093538591 -0.6849991282
C 0.3635922315 -1.2225080621 0.2826443410
H 0.1046053163 -0.9634223447 1.3212522318
C 0.8821614811 -2.6450781190 0.1949501456
Cl 2.3698172214 -2.7723149412 1.1771828904
N 1.2939156402 -0.2438499607 -0.1818353014
C 1.5130762006 0.9506753336 0.5083536222
O 0.9642858665 1.2402385972 1.5475586445
C 2.4791606481 1.7081522742 -0.3012898798
C 3.0602941057 2.9414023983 -0.0870058923
C 3.9506095101 3.4095267373 -1.0509012033
C 4.2414435192 2.6643668489 -2.1835192367
C 3.6535634100 1.4199725686 -2.4009265873
C 2.7719818975 0.9552996533 -1.4464936926
C 1.9938817711 -0.2946922620 -1.3915418842
O 1.9172133361 -1.1948832070 -2.1931713249
H -5.0716184179 0.4820379592 -1.1968875381
H -3.5426517933 -0.0176879655 -1.9398429216
H -5.0712522349 -0.6725577143 -2.5427601697
H -3.8343341117 -2.3118052593 -1.1008070642
H -5.4296715407 -1.8877924320 -0.4132647087
H -2.6398435429 3.0399570429 1.0302733862
H -1.2570441151 1.9825948060 1.4037391265
H -0.7330354277 3.4916272511 -0.5116402246
H -0.7573511050 1.8096007018 -1.0564848007
H -2.1323630703 2.8635469511 -1.4007132479
H 0.1521831181 -3.3366077726 0.6113199209
H 1.1371696440 -2.9125008137 -0.8297363418
H 2.8273100933 3.5126106802 0.7972009452
H 4.4205964542 4.3699338356 -0.9113814354
H 4.9349198027 3.0537636210 -2.9116769613
H 3.8720998603 0.8336158494 -3.2787638936
40
CONF659
C -3.4181037051 -2.4803159278 0.8431363196
C -3.4415785232 -1.4757173499 -0.2912584444
O -2.1952074311 -0.7699330239 -0.4172830290
P -1.7237827507 0.2911466144 0.6813132742
S -3.2047731030 1.2380185384 1.5467191619
O -0.7333399365 1.2164899410 -0.1568160544
C -1.2614987576 2.1486654082 -1.1307515892
C -0.5484891191 3.4765085717 -0.9789616146
S -0.3692040723 -0.6350287259 1.9824642715
C 0.9386858926 -1.4459674544 0.9039901660
H 1.7027153935 -1.6551882470 1.6630632442
C 0.4400156394 -2.7280176836 0.2675907515
Cl 0.0495381596 -3.9038486434 1.5478943020
N 1.4963878577 -0.5246937265 -0.0270955289
C 1.0896708883 -0.3118427134 -1.3473977292
O 0.2764752382 -0.9780914406 -1.9434375917
C 1.8760353205 0.8407581893 -1.8215750151
C 1.8982528548 1.4609985007 -3.0544313249
C 2.7395228822 2.5610066729 -3.2079561701
C 3.5285766423 3.0144056249 -2.1613410654
C 3.5106673117 2.3855461486 -0.9181657184
C 2.6750893827 1.2970241969 -0.7654586202
C 2.4222148505 0.4393780018 0.4002363659
O 2.8777243087 0.4794614744 1.5181489423
H -4.3785565159 -2.9830645979 0.8953048838
H -2.6368457820 -3.2213672466 0.6971464236
H -3.2404808314 -1.9638393634 1.7870056252
H -4.2361371888 -0.7408732069 -0.1266705315
H -3.5716130178 -1.9570170160 -1.2612487337
H -1.0961074437 1.7037903653 -2.1145431497
H -2.3372196776 2.2619369358 -0.9606127089
H 0.5228670287 3.3477019373 -1.1043520287
H -0.9202877964 4.1647606094 -1.7308455576
H -0.7401228753 3.8880766025 0.0087204798
H -0.4545624692 -2.5662045272 -0.3304413111
H 1.2246144250 -3.1650934959 -0.3506155094
H 1.2829351314 1.1012680376 -3.8633919027
H 2.7745097998 3.0691827856 -4.1582381879
H 4.1678939802 3.8699434147 -2.3095024967
H 4.1201773761 2.7292923046 -0.0980742247
40
CONF4
C -3.5801544369 0.7969746779 2.7564649294
C -2.3862490586 -0.0218432397 2.3131960031
O -1.6428451211 0.6781912301 1.2819267775
P -1.7995557794 0.4278867873 -0.2648579615
S -0.7562763381 1.7354264880 -1.2850868410
O -3.3676018816 0.5216548703 -0.5032923912
C -3.9375826953 0.7187097445 -1.8107560637
C -3.6526091065 -0.4442600439 -2.7381178097
S -1.4487474988 -1.6635522675 -0.5169123889
C 0.1563976278 -1.8216789623 0.4046363645
H -0.0832343473 -1.8994964204 1.4715993473
C 0.8225422941 -3.0893473157 -0.1026334326
Cl 2.3318180437 -3.3537241031 0.8183050311
N 0.9681411770 -0.6596976816 0.2487745913
C 1.3036829135 0.1668756249 1.3239317749
O 0.9242427888 -0.0221412002 2.4578043760
C 2.1650976808 1.2158530785 0.7640050989
C 2.7654125491 2.3014516088 1.3688458914
C 3.5234609509 3.1487865896 0.5651033082
C 3.6679196956 2.9120799844 -0.7934362605
C 3.0599337121 1.8188088796 -1.4054713850
C 2.3104155028 0.9784823321 -0.6094818545
C 1.5418166604 -0.2287112162 -0.9539687384
O 1.4086920726 -0.8009716625 -2.0106010096
H -4.2800215435 0.9156272327 1.9336140494
H -4.0728238344 0.2864126739 3.5779973751
H -3.2553502765 1.7795699384 3.0872115122
H -2.6990667221 -0.9957507038 1.9272239690
H -1.6615120011 -0.1502906317 3.1209045442
H -5.0050568589 0.8275525389 -1.6149473925
H -3.5358551080 1.6488785280 -2.2238607674
H -2.5851397321 -0.4955586684 -2.9521838153
H -3.9626464392 -1.3805589297 -2.2806128033
H -4.1895940384 -0.3014853203 -3.6703167393
H 0.1743654472 -3.9483265635 0.0581160065
H 1.0865865205 -2.9946856956 -1.1553109264
H 2.6429046451 2.4786540181 2.4253397203
H 4.0030366283 4.0065736456 1.0090779000
H 4.2583919528 3.5884006317 -1.3907619891
H 3.1569595975 1.6305719370 -2.4624143684
40
CONF198
C -0.9342272954 3.5682460915 0.2447706380
C -1.3487762564 2.4537113991 -0.6925757150
O -1.2794511769 1.2076150297 0.0397747570
P -2.0294484685 -0.0810163692 -0.5147568388
S -1.9866206490 -0.4147863378 -2.4515817651
O -3.5074445120 0.2093645749 0.0043969018
C -4.6541345303 -0.4885513348 -0.5092812967
C -4.6592143601 -1.9460100137 -0.0963710848
S -1.3742896986 -1.5101328201 0.8884010621
C 0.4124924637 -1.8136004423 0.4912779241
H 0.7232697493 -2.4609597963 1.3215789694
C 0.5386058740 -2.5368544025 -0.8343044876
Cl 2.2559806480 -2.9404976950 -1.1050556379
N 1.1813758383 -0.6168679563 0.5952662904
C 1.8170842160 -0.2702022988 1.7971092050
O 1.7948057417 -0.9586500589 2.7884717907
C 2.4625719530 1.0261602327 1.5469770031
C 3.2263637735 1.8264692212 2.3728598978
C 3.7091982302 3.0218746622 1.8448361781
C 3.4347310395 3.3937265814 0.5372966085
C 2.6658937420 2.5852725664 -0.2973718565
C 2.1856568164 1.4019851582 0.2262064069
C 1.3519099849 0.3543395827 -0.3869519930
O 0.8884500070 0.3031133999 -1.5050893436
H -1.6119151761 3.6081014501 1.0927236750
H 0.0752409235 3.3965261522 0.6085801033
H -0.9690085950 4.5114578613 -0.2904288636
H -0.6798238681 2.3673891283 -1.5545885316
H -2.3720817074 2.5937475585 -1.0518536312
H -5.5017212776 0.0547881192 -0.0898277533
H -4.6527933271 -0.3989985444 -1.6005609341
H -3.8325174524 -2.4672473984 -0.5773310124
H -4.5479162047 -2.0338504402 0.9813473229
H -5.5932582118 -2.4047110758 -0.4041605007
H -0.0221417656 -3.4690619764 -0.8041108278
H 0.2180836349 -1.9207072646 -1.6742407851
H 3.4345980838 1.5276363443 3.3874523463
H 4.3075840026 3.6687167454 2.4662448528
H 3.8215721595 4.3254260730 0.1566196686
H 2.4481867145 2.8652775929 -1.3157308827
40
CONF293
C -3.5837027765 -2.5604945888 0.1660592843
C -3.3581363453 -1.5624689088 -0.9520618145
O -2.1413199218 -0.8178893585 -0.7733952132
P -2.0194085177 0.3038784073 0.3531339392
S -3.6918112729 1.2379956016 0.7563275891
O -0.8431688368 1.2352942463 -0.1828110101
C -1.1005492028 2.3193785385 -1.1008959629
C -1.5226410079 1.8194652240 -2.4667208187
S -1.0577766318 -0.5739684387 2.0075039188
C 0.5225009677 -1.3486740194 1.3577112046
H 1.0711548133 -1.4945974084 2.2967768271
C 0.2172362052 -2.6742474429 0.6963961424
Cl 1.7621891467 -3.5041448961 0.3406896605
N 1.2754742802 -0.4384723488 0.5646220125
C 2.0825644905 0.5250392666 1.1835867902
O 2.2482376614 0.5915328556 2.3792037350
C 2.6275166741 1.3535716256 0.0999231646
C 3.4813476910 2.4378222387 0.1369295466
C 3.8148295002 3.0360636345 -1.0759407272
C 3.3093081767 2.5584631734 -2.2758308369
C 2.4500997962 1.4624349002 -2.3128015179
C 2.1179856424 0.8706657807 -1.1111469142
C 1.2313502877 -0.2723237665 -0.8230966765
O 0.5994006581 -0.9517126733 -1.5966426075
H -2.7686982817 -3.2769339894 0.2145991248
H -3.6523917384 -2.0354376608 1.1188301960
H -4.5149802432 -3.0891178679 -0.0109624144
H -4.1913699051 -0.8536763620 -0.9995921609
H -3.2301467840 -2.0539232458 -1.9171938052
H -1.8722917665 2.9611709315 -0.6641390453
H -0.1504568893 2.8554983170 -1.1397191841
H -0.8415221732 1.0427205420 -2.8066481912
H -2.5277006280 1.4040143808 -2.4169130541
H -1.5156326221 2.6457577465 -3.1702572531
H -0.3456911064 -3.3054986789 1.3811863001
H -0.3013557380 -2.5459021153 -0.2520300479
H 3.8679805382 2.8004503427 1.0757418271
H 4.4778007458 3.8864874198 -1.0791163535
H 3.5845026748 3.0435811201 -3.1986758946
H 2.0547642660 1.0846650244 -3.2420286980
40
CONF27
C -1.5683124736 1.7201182177 2.9137467535
C -2.5732327768 0.7000253702 2.4177964469
O -1.9933147090 -0.1852564468 1.4294976885
P -1.9726742135 0.1371438281 -0.1200369676
S -1.0182932981 1.7621037038 -0.7001617188
O -3.5222636834 0.1931627501 -0.4671573369
C -4.0080725052 0.7299791980 -1.7101906488
C -3.6302061140 -0.1502106216 -2.8833684364
S -1.3605022651 -1.7534121241 -0.8279174743
C 0.2220420918 -1.9296497635 0.1262674562
H -0.0475974629 -2.1179813591 1.1715547479
C 0.9625771502 -3.1073573826 -0.4841396990
Cl 2.4541974667 -3.3978371102 0.4553251897
N 0.9836750943 -0.7240608997 0.1016788170
C 1.4775742687 -0.1077268153 -1.0537611365
O 1.3157584526 -0.5377065712 -2.1719889792
C 2.1878643821 1.0932883854 -0.5857060079
C 2.8543745218 2.0719190574 -1.2924530218
C 3.4131669574 3.1218748444 -0.5673892140
C 3.3002657558 3.1834026933 0.8128758166
C 2.6245642315 2.1968287209 1.5267332041
C 2.0749270672 1.1540735266 0.8096723434
C 1.2925255439 -0.0059892276 1.2580772989
O 0.9460906143 -0.3373671970 2.3693892184
H -1.2797065564 2.3948364239 2.1100220849
H -2.0125159196 2.2952949190 3.7196640936
H -0.6788107256 1.2124722667 3.2796793675
H -3.4526547550 1.1821719987 1.9847616457
H -2.8782971376 0.0254782265 3.2195137992
H -5.0885717760 0.7789628342 -1.5705199260
H -3.5993015216 1.7379669302 -1.8355839798
H -4.0905147592 0.2340312955 -3.7878491111
H -2.5474048110 -0.1525616923 -3.0112787712
H -3.9609664079 -1.1713496481 -2.7120219511
H 0.3527937062 -4.0070357360 -0.4362130991
H 1.2511209327 -2.8904877846 -1.5120872707
H 2.9276384597 2.0196498453 -2.3666902927
H 3.9385415815 3.9033082224 -1.0929561472
H 3.7385743412 4.0120801699 1.3458028200
H 2.5261030055 2.2393424467 2.5995986273
40
CONF288
C -3.6443749985 -2.2860984732 0.8735392954
C -3.5706357258 -1.2787105504 -0.2564297277
O -2.2898414512 -0.6287769145 -0.3172055994
P -1.8608325878 0.4556769869 0.7696695922
S -3.3426010215 1.5011390958 1.5066276448
O -0.7470048265 1.3080221426 0.0133787651
C -1.0968428084 2.4368655444 -0.8157441473
C -1.8361102958 2.0144074265 -2.0680371308
S -0.6588428051 -0.5244295838 2.1933170441
C 0.6954478957 -1.4026130961 1.2360756516
H 1.4189173446 -1.5864872270 2.0403319324
C 0.1686318828 -2.7034559712 0.6721587819
Cl 1.5441186952 -3.6392498119 0.0130802634
N 1.3227873314 -0.5457055320 0.2893911248
C 0.9965192910 -0.3761741598 -1.0598799764
O 0.1702297232 -1.0094268909 -1.6724960674
C 1.8765812485 0.7031184286 -1.5453164599
C 1.9854690732 1.2699595520 -2.7987879473
C 2.9027975466 2.3059272539 -2.9601211770
C 3.6802005466 2.7496073378 -1.9007735952
C 3.5721883408 2.1759888622 -0.6360406286
C 2.6608380437 1.1513422226 -0.4760149468
C 2.3034129875 0.3620991156 0.7102946045
O 2.7210582102 0.4186474629 1.8433319306
H -3.4822801889 -1.7820470121 1.8263268306
H -4.6295463907 -2.7415622674 0.8806539543
H -2.8926903074 -3.0605085265 0.7503358009
H -4.3405143576 -0.5106155812 -0.1289626603
H -3.6743236760 -1.7534380215 -1.2328203974
H -1.7029020044 3.1251669088 -0.2181786900
H -0.1336417581 2.8956222835 -1.0468081842
H -1.3084686639 1.1980339659 -2.5557028119
H -2.8391669998 1.6773697535 -1.8118336060
H -1.9086629160 2.8592734566 -2.7453060427
H -0.2806561272 -3.2940365367 1.4681904756
H -0.5270076837 -2.5382893672 -0.1486538899
H 1.3791706370 0.9183411489 -3.6181001472
H 3.0080173369 2.7706574466 -3.9274159523
H 4.3815033070 3.5538196365 -2.0562320259
H 4.1712842255 2.5127857967 0.1946221247
40
CONF468
C -4.2250966126 -1.2330423691 2.1288602861
C -4.3272723600 0.0596099154 1.3465274180
O -3.4018456542 0.0953858091 0.2432765884
P -1.8315078276 0.1806299878 0.4703169531
S -1.2932258892 1.3332240922 1.9726475993
O -1.3280652011 0.6131845590 -0.9745976043
C -1.8091484449 1.7762410528 -1.6872863711
C -1.0859380710 3.0391815297 -1.2627395263
S -1.1612987579 -1.8124068581 0.5222863527
C 0.5309297074 -1.4288643897 1.1469502146
H 0.4041655459 -0.8930897990 2.1002909974
C 1.2982871940 -2.7104934997 1.4275534618
Cl 1.6104904284 -3.6444943039 -0.0677335264
N 1.2022592301 -0.5162959568 0.2641031089
C 1.1705667489 -0.5213939711 -1.1319872512
O 0.6390433110 -1.3623507065 -1.8171592695
C 1.8963972334 0.6945672527 -1.5456459368
C 2.1421710905 1.2021926660 -2.8047059631
C 2.8359484574 2.4075953969 -2.8890113322
C 3.2647915295 3.0716885933 -1.7494653072
C 3.0191687134 2.5576763438 -0.4781982033
C 2.3299247327 1.3644770637 -0.3953102594
C 1.9036986934 0.5832167023 0.7754560590
O 2.0933400608 0.7700131396 1.9537343549
H -3.2631187752 -1.2831939583 2.6371251737
H -5.0178933856 -1.2689012165 2.8690497236
H -4.3122833706 -2.0867190676 1.4615410469
H -4.1237987179 0.9187144382 1.9936764977
H -5.3030360767 0.1705213469 0.8719998884
H -1.6112626686 1.5354449756 -2.7335207165
H -2.8860345725 1.8631930497 -1.5272048570
H -0.0150758674 2.9333327484 -1.4179499250
H -1.4528844487 3.8727171227 -1.8530324458
H -1.2649858096 3.2439422027 -0.2091297049
H 2.2660899772 -2.4689739771 1.8662655925
H 0.7184821645 -3.3490355520 2.0910015625
H 1.8026865412 0.6780182946 -3.6836703752
H 3.0400120794 2.8310711148 -3.8594462770
H 3.7967975334 4.0045090635 -1.8465518744
H 3.3438302188 3.0663795812 0.4150655357
40
CONF111
C -2.8901108521 -1.4557405390 2.5835726983
C -3.2588463256 -0.0714869485 2.0900064832
O -2.1592042923 0.5531460365 1.3737615862
P -1.8949601358 0.4596336369 -0.1706293087
S -0.7151744263 1.8950184432 -0.8003692158
O -3.3571925110 0.5006200392 -0.7850835341
C -3.5640203529 0.5351695274 -2.2131064258
C -5.0106538516 0.9095006131 -2.4617305705
S -1.3008482366 -1.5347271622 -0.6540846888
C 0.1910330071 -1.6546655806 0.4425276150
H -0.1590826417 -1.5360071200 1.4744592000
C 0.7927302835 -3.0296161189 0.2157169702
Cl 2.1732612013 -3.2389160635 1.3311091277
N 1.1073514671 -0.5915414502 0.1995658377
C 1.2683277743 0.4552081595 1.1140823913
O 0.6859621576 0.5078994304 2.1739946955
C 2.2600649737 1.3578257162 0.5143148937
C 2.8009197055 2.5370309672 0.9825973917
C 3.7191522740 3.1927612483 0.1662008536
C 4.0742115991 2.6812104807 -1.0723614236
C 3.5256790671 1.4922372847 -1.5468660440
C 2.6190395004 0.8401396286 -0.7373622017
C 1.8611574312 -0.4014033933 -0.9607982273
O 1.8392386694 -1.1406334520 -1.9174660778
H -2.7613533911 -2.1421358462 1.7500145076
H -1.9706120612 -1.4110039161 3.1628439430
H -3.6885225380 -1.8232108440 3.2208805789
H -3.4345299976 0.6109903821 2.9228849410
H -4.1317801241 -0.0971532177 1.4370320082
H -2.8764744286 1.2693495360 -2.6451961447
H -3.3293484382 -0.4543276693 -2.6143171241
H -5.6689808346 0.1732528614 -2.0104944542
H -5.2223809630 1.8845911345 -2.0323461498
H -5.1887917029 0.9428726772 -3.5313665744
H 0.0629913212 -3.8060597667 0.4348300882
H 1.1684998649 -3.1262011537 -0.8021712766
H 2.5111844874 2.9306109837 1.9436035159
H 4.1568519209 4.1184626359 0.5044762904
H 4.7848270346 3.2146093029 -1.6834165045
H 3.7905746572 1.0885777283 -2.5108461864
40
CONF316
C -2.3675894628 -0.2172169903 3.2013040348
C -2.7229602498 0.7778995826 2.1149372315
O -2.8175484655 0.1049380742 0.8438765032
P -2.0120287585 0.4784552178 -0.4812638467
S -0.8040298970 2.0167665004 -0.3302003994
O -3.1108162407 0.7698794553 -1.5788669711
C -4.4388493083 0.1915802393 -1.6334410806
C -4.4291485331 -1.3191520805 -1.7187425233
S -1.2040598657 -1.3665601726 -1.1256283376
C 0.1276129532 -1.6038275520 0.1415697189
H -0.3431005370 -1.5505306560 1.1295609792
C 0.7231844776 -2.9782402038 -0.1121414427
Cl 1.9605688105 -3.3064236393 1.1351641181
N 1.0971880197 -0.5591381766 0.0821152936
C 1.2984779205 0.3312552389 1.1416989000
O 0.7265162353 0.2442223770 2.2038932972
C 2.3186264760 1.2799595159 0.6748939189
C 2.8924782868 2.3641292099 1.3054164755
C 3.8331883128 3.1008680567 0.5898606121
C 4.1790527098 2.7584729833 -0.7082513689
C 3.5984020537 1.6647018287 -1.3455839963
C 2.6678251220 0.9333422632 -0.6369412998
C 1.8764116828 -0.2432968366 -1.0311513073
O 1.8495448934 -0.8526823077 -2.0760244235
H -1.3300249641 -0.5274788264 3.1092967077
H -2.4986594661 0.2574494030 4.1681553569
H -3.0163286669 -1.0860948674 3.1372010506
H -1.9754122927 1.5749311495 2.0444054832
H -3.7060717299 1.2191531162 2.2922307311
H -4.9918032499 0.5279517378 -0.7538189882
H -4.8628469081 0.6428630715 -2.5318309832
H -4.0593731954 -1.7485146471 -0.7906945894
H -5.4427502743 -1.6674978518 -1.8922194342
H -3.7918620878 -1.6489373191 -2.5357265573
H -0.0433146349 -3.7462637649 -0.0368232010
H 1.2116806256 -3.0121860096 -1.0851564955
H 2.6118087478 2.6259647460 2.3127372391
H 4.2971142757 3.9559247580 1.0552045756
H 4.9081845699 3.3507915919 -1.2378619403
H 3.8568464248 1.3924862443 -2.3563719253
40
CONF603
C -3.4227408871 -2.2933596923 -2.4107284132
C -3.4838826594 -2.8359143891 -0.9997961049
O -3.6443766627 -1.7878118163 -0.0125287189
P -2.6343998069 -0.6223090021 0.2841402568
S -2.9332741859 0.1983014282 2.0347750056
O -2.8243619925 0.3756726632 -0.9434914001
C -2.6798671880 1.8050248012 -0.8710253233
C -3.7402646009 2.4310761622 -1.7546057005
S -0.7214707545 -1.5313084742 0.0079924463
C 0.2640931467 -0.2850056716 0.9596279743
H -0.3712389191 0.6040611118 1.0711199527
C 0.5977587697 -0.8756485657 2.3154783461
Cl 1.5530944863 0.3130151291 3.2409216020
N 1.4079836708 0.1063658546 0.2045994894
C 2.5562834903 -0.6653607500 -0.0023749865
O 2.7245340196 -1.7783952505 0.4344711881
C 3.4353930725 0.1632976019 -0.8456889380
C 4.7043743874 -0.0826497642 -1.3283012053
C 5.2974786855 0.9032047835 -2.1146728973
C 4.6367243243 2.0874312826 -2.4033432444
C 3.3545809206 2.3362513454 -1.9181669572
C 2.7674301456 1.3606382449 -1.1381194579
C 1.4513233770 1.3186556549 -0.4857746471
O 0.5386111499 2.1137705042 -0.5030777824
H -4.2989078517 -1.6850517886 -2.6182230467
H -2.5312409992 -1.6832908138 -2.5383368255
H -3.3872660779 -3.1237632815 -3.1090045106
H -2.5791270978 -3.3990747764 -0.7569634181
H -4.3647026025 -3.4603738777 -0.8430967753
H -2.7959879495 2.1212681411 0.1716547587
H -1.6726910005 2.0639931950 -1.2081261673
H -4.7305770978 2.1666150184 -1.3935124774
H -3.6268863332 3.5099087056 -1.7316917540
H -3.6294639098 2.0786811012 -2.7758717762
H -0.3185084553 -1.0668390839 2.8735934315
H 1.1961790834 -1.7803573526 2.2153343322
H 5.2098479273 -1.0066809565 -1.0984789682
H 6.2892131755 0.7395324707 -2.5051047920
H 5.1218410208 2.8313884199 -3.0148539142
H 2.8329574292 3.2540231955 -2.1370789279
40
CONF216
C -3.1417580410 0.4139986013 -2.2020269316
C -3.4033195525 -0.7425311885 -1.2611099816
O -2.2846365110 -0.9755278556 -0.3794717743
P -1.9646681688 -0.0168254968 0.8390304340
S -3.5256450999 0.6824453476 1.7907926728
O -1.0354003090 1.1228002624 0.1939326858
C -0.9182376418 2.4232867261 0.7943695931
C -0.1936390596 2.3806524803 2.1249653837
S -0.6818270273 -1.2576686188 1.9538947971
C 0.6810052156 -1.7783186598 0.7747026619
H 1.4428726156 -2.1204570787 1.4868063744
C 0.1988907527 -2.9193311522 -0.0926932604
Cl 1.5905981201 -3.5684301720 -1.0083516994
N 1.2307361866 -0.6706808732 0.0698684302
C 0.8553155017 -0.1698740594 -1.1814268567
O 0.0431703342 -0.6637119713 -1.9263282853
C 1.6737567586 1.0401317484 -1.3830972014
C 1.7050299051 1.9311387788 -2.4361545476
C 2.5821626294 3.0096558948 -2.3418347855
C 3.3963674391 3.1806097344 -1.2321847470
C 3.3673575731 2.2798993162 -0.1703419682
C 2.4961923836 1.2128141115 -0.2637124149
C 2.2199911386 0.1165471704 0.6745085373
O 2.6983060774 -0.1237510393 1.7585484599
H -3.1134596968 1.3497022112 -1.6461786388
H -2.1855554192 0.2677134537 -2.6989089974
H -3.9341994574 0.4633601715 -2.9419794982
H -3.5095638823 -1.6839581470 -1.8014020285
H -4.2919495035 -0.5602891159 -0.6478055196
H -0.3728052782 3.0090836858 0.0524553205
H -1.9247098527 2.8314732944 0.9295466076
H 0.7905070557 1.9290192601 2.0230360725
H -0.0833753533 3.3910967540 2.5048826099
H -0.7713218446 1.7960742813 2.8409083239
H -0.1895033787 -3.7208733022 0.5325168895
H -0.5429812515 -2.5937640070 -0.8191897503
H 1.0692945893 1.7911319782 -3.2955880235
H 2.6265454026 3.7242116559 -3.1482498746
H 4.0645007786 4.0257705240 -1.1883729941
H 3.9956698930 2.4026526820 0.6971186550
40
CONF6
C -3.9916578588 -0.5053386425 2.3775877648
C -4.1140296884 0.6934662539 1.4602643943
O -3.3486012306 0.5413504925 0.2496624637
P -1.7636377828 0.4376211783 0.2384530246
S -0.8453370154 1.6338677886 1.4893808459
O -1.4092704405 0.8143579268 -1.2513472605
C -2.0746706212 0.2180238173 -2.3950592499
C -3.0503594803 1.2048584466 -2.9995384312
S -1.5028405332 -1.6768031113 0.3702896442
C 0.3263162746 -1.8466009942 0.6678149589
H 0.4659509199 -1.8960751992 1.7541693059
C 0.7540567465 -3.1387114426 -0.0068531180
Cl 2.4829610062 -3.4273877033 0.3512327722
N 1.0461100190 -0.7042452107 0.2136296466
C 1.7450859480 0.1295294091 1.1031686535
O 1.8649870962 -0.1042388468 2.2820920626
C 2.2982854232 1.2090540536 0.2728164908
C 3.0220669989 2.3294771432 0.6245584162
C 3.4034239090 3.1959587085 -0.3968996611
C 3.0706241736 2.9409903036 -1.7186771996
C 2.3415671734 1.8091822782 -2.0741793866
C 1.9617116785 0.9512147531 -1.0625235192
C 1.1796393396 -0.2940434859 -1.1102985352
O 0.7278365050 -0.8920234070 -2.0618411271
H -4.6807115068 -0.3913381327 3.2082889427
H -4.2210134696 -1.4213576985 1.8389529715
H -2.9775149010 -0.5713664178 2.7694662036
H -3.7750449867 1.6018536447 1.9671447294
H -5.1365597243 0.8244500669 1.1036379298
H -1.2675117311 -0.0367506316 -3.0854652071
H -2.5794941461 -0.6968157929 -2.0742121330
H -3.4861782027 0.7687384439 -3.8927500449
H -3.8394573218 1.4338201119 -2.2880811775
H -2.5354251185 2.1248236959 -3.2615843044
H 0.1837656232 -3.9778031744 0.3860471278
H 0.6470088504 -3.0680148090 -1.0885855824
H 3.2685393944 2.5201111252 1.6565721535
H 3.9660123445 4.0827091577 -0.1517837721
H 3.3793554741 3.6321133445 -2.4867817409
H 2.0775701907 1.6028428004 -3.0989529780
40
CONF33
C -3.2682720893 0.8304602391 3.1214970773
C -3.7795150299 1.3093720352 1.7783215027
O -3.4451842797 0.3962644449 0.7191149964
P -1.9578675933 0.1785805537 0.1980830154
S -0.9502617533 1.8733133378 0.1235477520
O -2.2143300788 -0.5684772044 -1.1698938063
C -2.6183514306 0.1460881743 -2.3612455457
C -2.2730476717 -0.7115770587 -3.5599200647
S -1.2873966569 -1.4108208384 1.3956595684
C 0.4000650677 -1.8209574381 0.7144593495
H 0.8997640055 -2.2671482474 1.5835858278
C 0.2345702244 -2.8329608536 -0.4013335262
Cl 1.8520402922 -3.3340201084 -0.9722584772
N 1.1407783830 -0.6571122427 0.3628445746
C 1.9645035835 -0.0210133598 1.3036308580
O 2.0956191730 -0.4082885993 2.4410828321
C 2.5668720504 1.1195079990 0.6045304112
C 3.4536917011 2.0804081075 1.0471060208
C 3.8449621812 3.0614220208 0.1400743873
C 3.3610586891 3.0732400070 -1.1593996934
C 2.4648792204 2.1054306204 -1.6058381461
C 2.0773558128 1.1338268715 -0.7071530399
C 1.1460159420 0.0048707629 -0.8684482364
O 0.5271922351 -0.3437513841 -1.8487873699
H -2.1789101764 0.8471426574 3.1336008760
H -3.6386738594 1.4865737097 3.9025316507
H -3.6022873234 -0.1861720359 3.3121557109
H -3.3614978399 2.2911762425 1.5335029786
H -4.8691035901 1.3510574847 1.7525323186
H -3.6925523813 0.3315024143 -2.2882008302
H -2.0865543673 1.1030886089 -2.3895195164
H -1.1984381630 -0.8691126553 -3.5973231773
H -2.7736243687 -1.6726032729 -3.4860488768
H -2.5938035472 -0.2048196864 -4.4641598312
H -0.2746450265 -3.7174150516 -0.0238856634
H -0.2959648601 -2.4117265925 -1.2539848393
H 3.8213487832 2.0628364103 2.0604165412
H 4.5350136085 3.8271932741 0.4566880653
H 3.6803903511 3.8477636135 -1.8384298873
H 2.0779642175 2.1100020645 -2.6121384555
40
CONF217
C -2.2870357487 -0.1878705386 -3.1010639552
C -2.7636984071 -1.2456407161 -2.1288319248
O -1.9744462110 -1.2530246131 -0.9205042066
P -2.1240049627 -0.1292885873 0.1845444108
S -3.9491833099 0.5055826912 0.4961839169
O -1.1127145949 1.0198040210 -0.3005545664
C -1.2788366186 2.3869887578 0.1101807182
C -1.0161672413 2.5799798742 1.5904131870
S -1.1885908699 -1.0864477783 1.8084383623
C 0.5107694672 -1.5927723878 1.1962501691
H 1.0247057126 -1.7657790095 2.1504659913
C 0.4065410106 -2.8723652301 0.3971956883
Cl 2.0570066677 -3.4712435299 0.0596896184
N 1.1845664626 -0.5226342934 0.5430923147
C 1.8744081143 0.4315698860 1.3030684348
O 1.9949107755 0.3720589136 2.5045690836
C 2.3642147031 1.4345224465 0.3477973590
C 3.0874108134 2.5931061777 0.5502698075
C 3.3954127182 3.3622940868 -0.5691517750
C 2.9923981074 2.9766560402 -1.8389314830
C 2.2647230019 1.8059729736 -2.0425063564
C 1.9567200645 1.0451213947 -0.9334369704
C 1.1979766824 -0.2144122483 -0.8215614767
O 0.7016034226 -0.8764290321 -1.7011545784
H -2.8018187489 -0.3106233407 -4.0486174400
H -2.4969427238 0.8049323336 -2.7066494791
H -1.2148311492 -0.2903768382 -3.2510024644
H -2.6321270552 -2.2504549821 -2.5319826955
H -3.8115976293 -1.0867004959 -1.8537661303
H -0.5644960109 2.9367787402 -0.5050787312
H -2.3001701167 2.6970339971 -0.1319608655
H -0.0236309542 2.2287343188 1.8631771532
H -1.0995991304 3.6340752027 1.8341612003
H -1.7526366428 2.0246172981 2.1711171609
H -0.1089096061 -3.6322910627 0.9811749314
H -0.0831106788 -2.7153028175 -0.5618337889
H 3.3953602698 2.8829789893 1.5419731789
H 3.9570922248 4.2741225574 -0.4438504835
H 3.2453546863 3.5933966432 -2.6865798713
H 1.9482324637 1.4992507154 -3.0264503146
40
CONF505
C -2.3751613520 -0.2615820087 2.9462407916
C -3.1853032476 0.6008123640 1.9992905810
O -3.2634343350 0.0294470778 0.6857623141
P -2.0807359256 0.0765849363 -0.3823277868
S -0.9433163501 1.6774435767 -0.2177227300
O -2.8665952519 -0.1101302235 -1.7428352928
C -4.1154760407 0.5429283830 -2.0578617557
C -3.9810096587 2.0508487923 -2.1147514415
S -1.2290633336 -1.8567013308 -0.4743063646
C 0.3327877013 -1.7844994233 0.5448170858
H 0.0436988967 -1.6994487805 1.5978607942
C 1.0466915371 -3.0999877227 0.2776216153
Cl 2.5118096283 -3.1739188960 1.2959914329
N 1.1365099923 -0.6503164207 0.2391879115
C 1.3813020845 0.3565516411 1.1814553544
O 0.9579531623 0.3248727490 2.3141812729
C 2.2335201599 1.3394160131 0.4995564235
C 2.7803604710 2.5218044337 0.9527491160
C 3.5428589889 3.2641588750 0.0543022795
C 3.7422114084 2.8327036339 -1.2480354109
C 3.1874493947 1.6403303691 -1.7066420134
C 2.4351572496 0.9023099587 -0.8164141601
C 1.7148181309 -0.3683573730 -0.9983254177
O 1.5971180501 -1.0645559250 -1.9812746024
H -2.5272579411 0.0816433400 3.9645850164
H -2.6872538099 -1.3000674800 2.8676840951
H -1.3132804485 -0.1812546188 2.7164324366
H -2.7500175598 1.6026614542 1.9228870424
H -4.2273884219 0.6698351805 2.3149950748
H -4.3769648916 0.1277353399 -3.0325753537
H -4.8575406732 0.2430144599 -1.3149235892
H -3.7198793682 2.4437609473 -1.1330128440
H -3.1994020149 2.3339420417 -2.8158880078
H -4.9239055389 2.4849544290 -2.4321888901
H 0.4082505695 -3.9397681680 0.5423523377
H 1.3595711357 -3.1645645442 -0.7635948394
H 2.6125040221 2.8518248242 1.9651283417
H 3.9818624255 4.1940806775 0.3790023085
H 4.3342439887 3.4316191119 -1.9216609615
H 3.3323234703 1.2981701640 -2.7188746946
40
CONF689
C -1.1698620618 3.2115694983 -0.3954214770
C -0.7986450539 2.2932899533 -1.5401546407
O -0.5782179758 0.9440542604 -1.0798375944
P -1.7807202681 -0.0211606372 -0.6941890583
S -3.4309788461 0.2640503617 -1.7080558486
O -1.8460041907 0.2251741793 0.8822385260
C -2.8363122723 -0.3997035294 1.7246244239
C -4.0372721750 0.5065815041 1.9100534276
S -0.9344818838 -1.9345424046 -0.9238682197
C 0.2382271804 -1.9586814023 0.5240014001
H -0.3804348505 -1.9459601787 1.4311682668
C 1.0160934460 -3.2650163837 0.5248323409
Cl 2.0151704648 -3.4877833131 -0.9476910455
N 1.0300799955 -0.7692083019 0.5748512260
C 0.9839857902 0.0514362039 1.7090305434
O 0.3952882397 -0.2420706287 2.7232407973
C 1.7680058602 1.2468905758 1.3744741678
C 2.0556735018 2.3730685002 2.1200943109
C 2.8123352398 3.3718047017 1.5119341390
C 3.2606639888 3.2392392467 0.2062946746
C 2.9701597472 2.1026014860 -0.5454511249
C 2.2209934838 1.1131917917 0.0566343459
C 1.7193695813 -0.1655902063 -0.4816179402
O 1.8355582049 -0.6224825658 -1.5936180651
H -2.1294743787 2.9081749761 0.0196647790
H -0.4158573435 3.1637623546 0.3865348265
H -1.2477525177 4.2294248394 -0.7636992531
H 0.1506435286 2.5722141115 -2.0002995597
H -1.5886073057 2.2756612030 -2.2980811523
H -3.1349238070 -1.3553636319 1.2826451129
H -2.3160793837 -0.5709263664 2.6706074489
H -4.7404272808 0.0308506427 2.5858996715
H -3.7256051579 1.4594378080 2.3283674252
H -4.5263997624 0.6816005324 0.9541843541
H 1.6931091063 -3.2874294187 1.3782640832
H 0.3186443836 -4.0996332797 0.5598545990
H 1.6984824054 2.4677741341 3.1329447102
H 3.0505202756 4.2650792219 2.0669334506
H 3.8428773059 4.0302208368 -0.2388612788
H 3.3124576315 1.9905891614 -1.5620092460
40
CONF195
C -3.8005039649 1.8314332544 3.0421731436
C -3.1143573486 0.4808550586 2.9735820863
O -3.1180632908 -0.0076638881 1.6157311141
P -1.8225157892 -0.0090249060 0.6936584154
S -0.7883871098 1.6641690904 0.8385884409
O -2.4386270504 -0.3703579774 -0.7111694902
C -3.0494797025 0.6315131089 -1.5597479991
C -2.9934739244 0.1330394811 -2.9878950528
S -0.9342756879 -1.8234414685 1.2738516070
C 0.5638245148 -1.9997856650 0.1733325145
H 1.2314062104 -2.6212700424 0.7832901822
C 0.1404860465 -2.7232582492 -1.0896548544
Cl 1.5854865256 -3.0169825095 -2.0982967119
N 1.2315044078 -0.7627615141 -0.0431640163
C 0.9533986400 0.1825107751 -1.0348768521
O 0.1037763138 0.0621291883 -1.8891527193
C 1.9273063816 1.2675515060 -0.8320361835
C 2.1106289008 2.4436262674 -1.5285815116
C 3.1161684368 3.3008950769 -1.0892371421
C 3.9032292776 2.9847456477 0.0078248529
C 3.7183235692 1.7972872980 0.7106348998
C 2.7227947156 0.9460310543 0.2746664226
C 2.2784114236 -0.3516051645 0.7951986425
O 2.6743918312 -1.0040592216 1.7325725066
H -3.8475612329 2.1558277637 4.0765693597
H -3.2389852063 2.5632190068 2.4651943998
H -4.8069091077 1.7598642223 2.6399789372
H -3.6516860109 -0.2736252097 3.5503741459
H -2.0839550083 0.5499993784 3.3322022170
H -4.0772033480 0.7702748544 -1.2169338016
H -2.4973625168 1.5698612191 -1.4424060820
H -3.4732765624 0.8585228919 -3.6366131018
H -1.9571744874 0.0089397509 -3.2903618837
H -3.5064266002 -0.8208075040 -3.0691956796
H -0.2912038177 -3.6889390849 -0.8345985598
H -0.5549588852 -2.1291678240 -1.6809072071
H 1.4893916770 2.6835374391 -2.3763835378
H 3.2815096977 4.2295431012 -1.6119099350
H 4.6714430164 3.6714139036 0.3258712866
H 4.3225061762 1.5423051900 1.5663461144
40
CONF179
C -2.5345127489 1.7177116266 2.4633354695
C -3.1658010655 0.4086576673 2.0369469840
O -2.2755864122 -0.3801811185 1.2128859445
P -1.9549546722 -0.0722220326 -0.3017194532
S -0.9665448713 1.5665416718 -0.7746330227
O -3.3883527869 -0.1567822064 -0.9771576625
C -3.7012141252 0.4238870649 -2.2599454949
C -4.5548681312 1.6624781686 -2.0686570014
S -1.0618105920 -1.9102171968 -0.8389478717
C 0.3496554653 -1.8778082481 0.3737510974
H -0.0972980234 -1.8195395718 1.3725839915
C 1.1223916362 -3.1695182063 0.1827727743
Cl 2.4245184857 -3.2404171471 1.4019690089
N 1.1488305498 -0.7109710552 0.2045823964
C 1.9457683195 -0.4183235210 -0.9054924383
O 2.0840443360 -1.1491248184 -1.8591278024
C 2.5165646448 0.9116817678 -0.6406985469
C 3.3795761573 1.6807191271 -1.3937850616
C 3.7324591838 2.9312804021 -0.8926241325
C 3.2325553427 3.3879689885 0.3171482371
C 2.3592420067 2.6136180129 1.0768543334
C 2.0114578398 1.3740048746 0.5817419125
C 1.1126453011 0.3451587628 1.1221101313
O 0.4673931025 0.3198560719 2.1459970832
H -3.1715579996 2.2025667436 3.1960188465
H -1.5570535762 1.5266593956 2.9010506695
H -2.4052486844 2.3783908277 1.6083606670
H -4.0946969574 0.5709072195 1.4855949807
H -3.3502061981 -0.2392690065 2.8954409660
H -2.7732139717 0.6717130447 -2.7819778326
H -4.2348569864 -0.3549356619 -2.8065424283
H -4.8399610114 2.0525700581 -3.0401999406
H -5.4491413123 1.4187271794 -1.5021512106
H -3.9893741236 2.4227140134 -1.5336945859
H 0.4709686404 -4.0272883592 0.3351816057
H 1.5850989550 -3.2035165684 -0.8028475148
H 3.7581661066 1.3178199731 -2.3358032771
H 4.4036116719 3.5560743364 -1.4601250228
H 3.5200077751 4.3630559262 0.6769262188
H 1.9597015050 2.9634114706 2.0150067919
40
CONF503
C -2.3224769523 -0.1591282663 2.9879974744
C -3.1591699913 0.6791961030 2.0425825168
O -3.2613365922 0.0830438376 0.7417676914
P -2.0877659769 0.0867711442 -0.3373367193
S -0.9333649441 1.6806557224 -0.2306063495
O -2.8892962715 -0.1308179157 -1.6841027279
C -4.1309839640 0.5315067107 -2.0082513927
C -3.9735328959 2.0343767603 -2.1168466508
S -1.2576133480 -1.8576903383 -0.3790643419
C 0.3275547321 -1.7674362710 0.6023503306
H 0.0632866069 -1.6422544465 1.6579041213
C 1.0211608300 -3.0995733599 0.3661633464
Cl 2.5063732185 -3.1555061321 1.3561338558
N 1.1356551840 -0.6536838208 0.2390765332
C 1.6895686420 -0.4222206696 -1.0197445512
O 1.5446411904 -1.1522786300 -1.9741417537
C 2.4243654516 0.8474796003 -0.8996869199
C 3.1631706659 1.5457606095 -1.8323072896
C 3.7368989588 2.7493721207 -1.4299779152
C 3.5688214307 3.2301139888 -0.1405346936
C 2.8204509612 2.5276352177 0.8008166487
C 2.2548463552 1.3340511272 0.4033953269
C 1.4101810896 0.3839700231 1.1391882637
O 1.0136977027 0.3954882910 2.2819578589
H -1.2667507762 -0.0781904536 2.7309932502
H -2.4519081852 0.2047928409 4.0023028191
H -2.6306496039 -1.2006455897 2.9388056381
H -2.7328903096 1.6822746362 1.9380906084
H -4.1948742168 0.7467645072 2.3788853608
H -4.4091719307 0.0885028802 -2.9659660253
H -4.8699265412 0.2684207243 -1.2484323041
H -3.6980756708 2.4559092111 -1.1510464621
H -3.1935658559 2.2813200632 -2.8333172128
H -4.9121795423 2.4724966918 -2.4412833017
H 0.3791730590 -3.9221534221 0.6730062839
H 1.3113743106 -3.2037291185 -0.6783943124
H 3.2836917839 1.1652618857 -2.8339966849
H 4.3190401079 3.3179847270 -2.1376223377
H 4.0216747266 4.1676988350 0.1401101409
H 2.6769997349 2.8960626734 1.8036520088
40
CONF84
C -2.4981478573 3.1573099073 -0.7582778525
C -1.1488578777 2.4856028277 -0.6176300814
O -1.2229201317 1.2738428153 0.1601325636
P -2.0146222375 -0.0038023122 -0.3627947359
S -2.0904588478 -0.3202115486 -2.3000207021
O -3.4494517312 0.2523341251 0.2775271758
C -4.6279711791 -0.4414489271 -0.1624128477
C -4.6005509634 -1.9076215491 0.2183819173
S -1.2798018859 -1.4615716268 0.9787500963
C 0.4731723611 -1.8050562520 0.4804294268
H 0.8117678257 -2.4736213207 1.2824024947
C 0.5103454092 -2.5086138101 -0.8612358096
Cl 2.2003989377 -2.9491615893 -1.2307359778
N 1.2763478341 -0.6289190316 0.5608445675
C 1.9923323479 -0.3177152630 1.7265670287
O 2.0229680675 -1.0273426713 2.7026398696
C 2.6372247024 0.9766375128 1.4634404260
C 3.4625265291 1.7491568972 2.2557916101
C 3.9230001933 2.9522051574 1.7252690032
C 3.5668619286 3.3584849756 0.4480419987
C 2.7357140927 2.5782477600 -0.3528885783
C 2.2785571740 1.3870706186 0.1728819176
C 1.3964616446 0.3612903435 -0.4081808021
O 0.8599669074 0.3385576881 -1.4945816081
H -2.3710734228 4.1150985542 -1.2530473252
H -3.1615326939 2.5348251031 -1.3573770385
H -2.9450148712 3.3084696888 0.2209083211
H -0.4428180919 3.1063938662 -0.0628032655
H -0.7315983864 2.2349583356 -1.5986932466
H -5.4438229309 0.0886008222 0.3306153256
H -4.7100694295 -0.3298346446 -1.2486256048
H -3.8154733853 -2.4188107567 -0.3370335980
H -4.4040551484 -2.0180061134 1.2817879240
H -5.5566642089 -2.3604630926 -0.0234076578
H -0.0710911940 -3.4273738412 -0.8153902733
H 0.1610688507 -1.8706314976 -1.6728173433
H 3.7334473204 1.4239097144 3.2472263199
H 4.5684857165 3.5778912533 2.3207268186
H 3.9390164868 4.2951632226 0.0648006325
H 2.4551108412 2.8841264282 -1.3481256433
40
CONF311
C -4.3132889565 -2.0230116787 -0.1189658873
C -4.3954981638 -0.5160012114 0.0086294770
O -3.2039994512 0.1253626005 -0.4789440794
P -1.8231843342 0.0324447117 0.3032469055
S -2.0047455930 0.0707980742 2.2592628430
O -0.9809286817 1.1695874028 -0.4277399237
C -1.3895010555 2.5500259666 -0.5598559077
C -1.4923306067 3.2552042276 0.7768601490
S -0.8321346874 -1.6468609183 -0.4943203753
C 0.7113161428 -1.4666665664 0.5166564688
H 0.3946301949 -1.1962119419 1.5330922956
C 1.4740264073 -2.7809591745 0.5058565234
Cl 0.5411858577 -4.0118405794 1.3860654213
N 1.4899053030 -0.3816267555 0.0051396255
C 1.5504222301 0.8600572637 0.6457803346
O 1.1170973576 1.0710321609 1.7545428495
C 2.2333075448 1.7618958991 -0.2945268720
C 2.5707142845 3.0950625606 -0.1767285193
C 3.2086613020 3.6963613666 -1.2596088673
C 3.4967873150 2.9810433653 -2.4121314113
C 3.1567106169 1.6351309418 -2.5312689513
C 2.5216115783 1.0395700934 -1.4602616957
C 2.0240892845 -0.3353137707 -1.2870888391
O 2.0379448918 -1.2695688384 -2.0523535732
H -5.2668274453 -2.4615317892 0.1568659499
H -4.0658943168 -2.3037388480 -1.1395673392
H -3.5412435523 -2.4094311960 0.5455754116
H -4.5411918517 -0.2261852790 1.0543799405
H -5.1909946228 -0.0996584701 -0.6106433903
H -0.6022795284 2.9836177011 -1.1805185398
H -2.3412112859 2.5749399285 -1.0949967103
H -0.5861066172 3.0935384731 1.3572267741
H -1.6344530139 4.3186319327 0.6137693090
H -2.3329346544 2.8659875858 1.3485728894
H 1.6217389324 -3.1359445461 -0.5137557910
H 2.4282911197 -2.6634612335 1.0192383868
H 2.3437463697 3.6432533081 0.7235767916
H 3.4813620705 4.7377622050 -1.1977473909
H 3.9915782488 3.4741425143 -3.2335921840
H 3.3745122335 1.0703204615 -3.4233107662
40
CONF324
C -3.4065293402 -2.3101849276 -0.0847756446
C -3.1561530678 -1.1414633722 -1.0159955238
O -1.9542137986 -0.4269435568 -0.6826370351
P -1.8436507979 0.4464685155 0.6469262823
S -3.5124392607 1.3019054055 1.2056089407
O -0.6502020748 1.4410038381 0.2916981342
C -0.9038861500 2.7376251051 -0.2903208442
C -1.3823911943 2.6309187777 -1.7226716044
S -0.9376766655 -0.7470599420 2.1237287489
C 0.6568719553 -1.4334405800 1.3883156539
H 1.3178922752 -1.4077285888 2.2631287026
C 0.4109386536 -2.8555835276 0.9357072418
Cl 1.9838105291 -3.6069283963 0.5318465579
N 1.2177942314 -0.5772849705 0.4023919626
C 1.0521234135 -0.6318825338 -0.9852431740
O 0.4383251393 -1.4764006142 -1.5921407880
C 1.7837092785 0.5334122178 -1.5149452400
C 1.9522650698 0.9630634228 -2.8155834178
C 2.6784199252 2.1346541759 -3.0182376100
C 3.2145765965 2.8415151401 -1.9523056098
C 3.0472129007 2.4060785447 -0.6397586631
C 2.3254249359 1.2463786108 -0.4394460027
C 1.9550377712 0.5478027599 0.7981210460
O 2.1948106944 0.8176533043 1.9517116717
H -4.3198959306 -2.8145376085 -0.3837834315
H -2.5806143300 -3.0151432277 -0.1213466884
H -3.5203232169 -1.9498227801 0.9376619084
H -3.9943200151 -0.4383850715 -0.9749598943
H -2.9889426521 -1.4695378129 -2.0427080162
H -1.6454220899 3.2528276773 0.3281959562
H 0.0583425942 3.2473033035 -0.2179787741
H -1.4443349035 3.6250628019 -2.1535649051
H -0.6948162374 2.0236995262 -2.3063945100
H -2.3691945950 2.1711890609 -1.7488403349
H -0.0338732852 -3.4298724355 1.7457400089
H -0.2010792608 -2.8948553298 0.0366313307
H 1.5313061516 0.4061164077 -3.6376125757
H 2.8233084300 2.4977789376 -4.0231373420
H 3.7708155151 3.7458835421 -2.1404522898
H 3.4594676986 2.9479456666 0.1963664321
40
CONF572
C -3.6861791211 1.6471161481 2.0751345009
C -2.4298320127 0.8851527979 2.4346044202
O -2.1845548463 -0.2022064711 1.5154727103
P -1.8353479274 0.0289731987 -0.0063014529
S -0.8563600681 1.6837298437 -0.4413630891
O -3.2554195126 -0.0646478140 -0.7098407878
C -3.4478895466 0.2300279514 -2.1070366569
C -4.9061584969 0.5875185559 -2.3128840338
S -0.9661159557 -1.8283383751 -0.4889688635
C 0.4307468632 -1.7447987787 0.7266129817
H -0.0277245640 -1.5414026017 1.7043759365
C 1.1238642546 -3.0949303543 0.8097197525
Cl 1.6978495610 -3.6822862969 -0.7823872421
N 1.2899462247 -0.6311370181 0.4618548313
C 1.8891445238 -0.2886923164 -0.7576619870
O 1.7947381626 -0.9258568965 -1.7786564574
C 2.5702719867 0.9947656477 -0.5144968890
C 3.3587513779 1.7592962425 -1.3485131065
C 3.8370508784 2.9693519008 -0.8511998854
C 3.5243074720 3.3941332063 0.4309723810
C 2.7212022402 2.6265986398 1.2705076367
C 2.2551386793 1.4236817201 0.7807138187
C 1.3794786511 0.4161431029 1.3890584734
O 0.8083686181 0.4093082552 2.4566909424
H -4.5293883851 0.9654273773 2.0026703768
H -3.8852790621 2.3936980505 2.8373412026
H -3.5517001921 2.1462539965 1.1161386808
H -2.5124504228 0.3887463689 3.4020243047
H -1.5541238897 1.5416768393 2.4344147555
H -2.7874634319 1.0589226305 -2.3852353390
H -3.1680872721 -0.6567511099 -2.6822928564
H -5.1577680566 1.4784877457 -1.7445998108
H -5.0804729127 0.7740164431 -3.3674366070
H -5.5366385821 -0.2324514913 -1.9819998482
H 1.9932835881 -3.0253819327 1.4623804673
H 0.4197441161 -3.8380585166 1.1785780810
H 3.5878821369 1.4241915788 -2.3473858653
H 4.4568718997 3.5885996381 -1.4799881737
H 3.9038414053 4.3395313294 0.7844988458
H 2.4641442583 2.9525329179 2.2653499371
40
CONF70
C -3.9745720579 -0.5583692460 2.4591148190
C -4.1715175524 0.4868335406 1.3804656193
O -3.4446274523 0.1715814205 0.1792247735
P -1.8587831422 0.1674503448 0.1080170725
S -1.0169896016 1.6441150012 1.1075112957
O -1.5944999000 0.1905530507 -1.4521237435
C -1.4755586046 1.4101165838 -2.2112691073
C -2.8039404228 2.1238557068 -2.3448272902
S -1.4312550457 -1.8553785668 0.5085832899
C 0.4204955356 -1.8871498108 0.7808397922
H 0.5693183200 -1.8667411937 1.8669240309
C 0.9181875458 -3.1879654515 0.1766601638
Cl 2.6657495140 -3.3464522896 0.5179418498
N 1.0623850246 -0.7312291715 0.2568967967
C 1.6330632081 0.2351741365 1.1053360074
O 1.6846792787 0.1194694810 2.3062499833
C 2.1597442681 1.2780174142 0.2134348609
C 2.7792337780 2.4766804626 0.5016448012
C 3.1620790183 3.2776697644 -0.5713782498
C 2.9324789901 2.8843476782 -1.8813518526
C 2.3090201402 1.6738497919 -2.1724169853
C 1.9266450125 0.8803260275 -1.1095447195
C 1.2383806990 -0.4215930480 -1.0905540067
O 0.8795838361 -1.1189674419 -2.0125738148
H -4.1947902735 -1.5492001443 2.0699169284
H -2.9431645031 -0.5413362784 2.8098319573
H -4.6329595194 -0.3419026049 3.2943238353
H -3.8439283575 1.4698404489 1.7336980086
H -5.2099366226 0.5355463959 1.0504552559
H -0.7377140164 2.0544277877 -1.7202116897
H -1.0916586480 1.0744004011 -3.1757988064
H -3.1271702730 2.4891473679 -1.3713052535
H -2.6910558294 2.9663461125 -3.0198093294
H -3.5566760333 1.4437111621 -2.7340114973
H 0.4076092668 -4.0340205976 0.6315926824
H 0.7903835742 -3.1913750491 -0.9050436910
H 2.9461912053 2.7742076979 1.5241462556
H 3.6441784938 4.2223561983 -0.3766832328
H 3.2395049898 3.5270850015 -2.6908676648
H 2.1252679059 1.3585628206 -3.1870017079
40
CONF352
C -2.2626619094 0.4316699802 3.4611093455
C -2.6389243118 0.0188814809 2.0539684567
O -1.7586823004 0.7318873283 1.1411802358
P -1.6029966770 0.3600760263 -0.3779311923
S -0.5313711897 1.6881172033 -1.3408823416
O -3.1100926268 0.2643396968 -0.8729544321
C -3.4341815908 0.0513443892 -2.2630392970
C -4.8892482377 0.4230587623 -2.4618984663
S -1.0302669360 -1.6875007273 -0.4597970243
C 0.5013521051 -1.6441746642 0.6020372328
H 0.1621126078 -1.6133444498 1.6439140737
C 1.2873762300 -2.9155488740 0.3197917546
Cl 0.2853209057 -4.3224507075 0.7319845097
N 1.2776575779 -0.4705796161 0.3775219623
C 1.9133670209 -0.1356217464 -0.8258454459
O 1.9046910739 -0.8363435758 -1.8103653673
C 2.5583064185 1.1633524092 -0.5790712669
C 3.3177483961 1.9571573090 -1.4125326785
C 3.7812202662 3.1677512081 -0.9026144395
C 3.4875362860 3.5624553664 0.3934818408
C 2.7186865263 2.7625480305 1.2351868756
C 2.2626257924 1.5611087741 0.7323822775
C 1.4266408220 0.5253079569 1.3501255406
O 0.9430800186 0.4529754556 2.4560473446
H -1.2036698597 0.2521843773 3.6306159824
H -2.4569971463 1.4905277783 3.6037695194
H -2.8478235026 -0.1435544531 4.1711018659
H -3.6656299831 0.2945207992 1.8078131887
H -2.5088201343 -1.0556938900 1.8963789651
H -2.7715890160 0.6734531874 -2.8738105904
H -3.2524608983 -1.0012935510 -2.4965522160
H -5.5198763489 -0.1929159356 -1.8276460029
H -5.0443580489 1.4678182521 -2.2078759142
H -5.1573549485 0.2627521349 -3.5008797012
H 1.5427473825 -2.9852786086 -0.7375599406
H 2.1829792875 -2.9510829844 0.9398144568
H 3.5313838526 1.6454453541 -2.4220084513
H 4.3750744400 3.8109661765 -1.5322679908
H 3.8559426435 4.5083563631 0.7573633512
H 2.4792017669 3.0630430680 2.2425372268
40
CONF612
C -2.9773744845 -3.7232446631 -0.2533110992
C -3.5816590172 -2.6824525050 0.6696626516
O -3.5766547442 -1.3823209144 0.0554716773
P -2.5046170653 -0.2515976625 0.3374432225
S -2.2220541674 0.2400038792 2.2186004753
O -3.2431645926 0.8351241847 -0.5486565816
C -3.1199407367 2.2498536853 -0.3390058537
C -1.8052411856 2.7930970785 -0.8636000472
S -0.7882756544 -0.8026366457 -0.7930140888
C 0.5473752247 -0.6460968649 0.4929329162
H 0.0972266939 -0.0780036601 1.3209684773
C 1.0066665478 -2.0173952805 0.9579315652
Cl -0.2907136404 -2.7803879786 1.9058139323
N 1.6230994081 0.1321340800 -0.0324495522
C 1.7230146632 1.5063446661 0.2046522026
O 0.9587245640 2.1233847192 0.9105428218
C 2.8840705484 1.9634121235 -0.5722545517
C 3.4607158629 3.2129613776 -0.6775141802
C 4.5690351641 3.3421977041 -1.5119006990
C 5.0732085740 2.2562731596 -2.2112828744
C 4.4902626869 0.9949761283 -2.1064404764
C 3.3927039748 0.8653958425 -1.2799428669
C 2.5676009550 -0.3130571751 -0.9643629438
O 2.6398304237 -1.4439126001 -1.3809755916
H -3.4924428266 -3.7101403022 -1.2095804391
H -1.9224492389 -3.5226974296 -0.4209340485
H -3.0821729315 -4.7032069515 0.2010761279
H -3.0516329319 -2.6353207041 1.6262133404
H -4.6369617197 -2.8920819021 0.8572404490
H -3.9693337744 2.6664870562 -0.8828741233
H -3.2254278309 2.4606399688 0.7303505644
H -1.8424954761 3.8777009686 -0.8699797727
H -0.9844822359 2.4801284589 -0.2197579672
H -1.6272223437 2.4320051321 -1.8736962506
H 1.2361865063 -2.6663294408 0.1139903922
H 1.8721452965 -1.9190834177 1.6133116356
H 3.0607683551 4.0511934582 -0.1301038967
H 5.0411940159 4.3061884851 -1.6146610887
H 5.9320404559 2.3882849520 -2.8498458197
H 4.8737412416 0.1449869824 -2.6472554713
40
CONF606
C -3.5936964245 -0.6875283055 -2.2395506421
C -2.1298253826 -0.4049800337 -1.9727405072
O -1.7382410720 -0.8514318709 -0.6537729956
P -1.8898793747 0.0501765748 0.6387140567
S -3.6752569499 0.6413935540 1.1816337677
O -0.8990790433 1.2666513000 0.3021539141
C -1.0167125860 2.5728091492 0.8960219031
C -1.0089322781 3.6149502093 -0.2049319077
S -0.9538818393 -1.1750646980 2.0560906996
C 0.7017405191 -1.6556590251 1.2951356502
H 1.3476816457 -1.6691076847 2.1812187798
C 0.5613637994 -3.0394921285 0.7028168142
Cl 2.1778834000 -3.6313008087 0.2234106593
N 1.1970254347 -0.6578348273 0.4084830567
C 1.1819505607 -0.6403080230 -0.9897398252
O 0.7777381467 -1.5218541444 -1.7099858581
C 1.7619488394 0.6593232582 -1.3745685063
C 1.9813470755 1.1998333385 -2.6250918039
C 2.5338211396 2.4774962156 -2.6862548085
C 2.8516504254 3.1796826455 -1.5332005832
C 2.6288210695 2.6341804475 -0.2706990096
C 2.0814542568 1.3682109790 -0.2114200202
C 1.7014461681 0.5384088741 0.9384783890
O 1.7611502952 0.7705281556 2.1236942711
H -3.8314550721 -0.3980729072 -3.2582937443
H -3.7998477582 -1.7461908868 -2.1088852130
H -4.2205489921 -0.1232946618 -1.5522865668
H -1.9059242829 0.6610306546 -2.0651300922
H -1.4805553594 -0.9751036907 -2.6413979929
H -1.9478558586 2.6161085303 1.4706576283
H -0.1678662986 2.6907856875 1.5741153470
H -1.0266329966 4.6019100471 0.2449879453
H -0.1149846040 3.5113797139 -0.8143365323
H -1.8867448043 3.4964614268 -0.8351753723
H 0.1706983483 -3.7209866590 1.4559492582
H -0.0656637242 -3.0397635253 -0.1871594347
H 1.7299191609 0.6467671794 -3.5158031405
H 2.7143572437 2.9277061373 -3.6493276254
H 3.2756337011 4.1679578619 -1.6125936038
H 2.8693836615 3.1738516217 0.6311301467
40
CONF85
C -2.5635848347 3.1461751179 -0.7700997246
C -1.2039950068 2.4979658682 -0.6182079663
O -1.2629826065 1.2878598554 0.1631809952
P -2.0308857926 -0.0043340087 -0.3583650724
S -2.1056507276 -0.3264378807 -2.2947636775
O -3.4697908409 0.2275684031 0.2828151942
C -4.6363921958 -0.4872888146 -0.1547149369
C -4.5836980231 -1.9522793012 0.2281813403
S -1.2730531884 -1.4464750567 0.9878110259
C 0.4759463362 -1.7903496394 0.4780650914
H 0.8175383310 -2.4650648839 1.2736395849
C 0.5058439619 -2.4845776256 -0.8687903007
Cl 2.1929468114 -2.9281780356 -1.2474384134
N 1.2837124505 -0.6174634075 0.5620111621
C 2.0294413969 -0.3289131806 1.7148214911
O 2.0789087240 -1.0536690080 2.6788703416
C 2.6767922005 0.9650779430 1.4555424043
C 3.5269816442 1.7194131778 2.2389191679
C 3.9839990828 2.9268433623 1.7152061160
C 3.5999576418 3.3550160444 0.4533920580
C 2.7435648439 2.5930740923 -0.3386411347
C 2.2903384886 1.3973705911 0.1800633273
C 1.3891831784 0.3852102414 -0.3953623241
O 0.8288534976 0.3796200070 -1.4700105550
H -3.0190006377 3.2942801735 0.2056207683
H -2.4500047402 4.1036329258 -1.2687802070
H -3.2126386718 2.5095597480 -1.3701162192
H -0.5122147317 3.1323262330 -0.0608263955
H -0.7760223551 2.2509453164 -1.5954856726
H -5.4609117255 0.0293199546 0.3381780078
H -4.7215292334 -0.3789314565 -1.2410360385
H -5.5324080383 -2.4214455502 -0.0116337180
H -3.7909949406 -2.4510268591 -0.3276655034
H -4.3839093341 -2.0577653828 1.2914713668
H -0.0787828817 -3.4015460330 -0.8278060246
H 0.1559000627 -1.8394382562 -1.6743985735
H 3.8195759953 1.3772612396 3.2184350741
H 4.6489073113 3.5383875295 2.3039487511
H 3.9699914007 4.2945329395 0.0750660225
H 2.4416347103 2.9161282223 -1.3221344442
40
CONF512
C -0.5948993353 3.0506143993 -0.3458405658
C -1.0923735637 2.4094173189 0.9348667549
O -1.1290697435 0.9741306735 0.8446650055
P -2.2255529584 0.2202422263 -0.0315827467
S -3.8118381815 1.2991106979 -0.4230681876
O -2.3909330399 -1.0307323592 0.9302905258
C -3.0476342354 -2.2677971970 0.5902563804
C -4.3640577336 -2.0773997880 -0.1344960137
S -1.1713080540 -0.5280757626 -1.7229056133
C 0.2121023912 -1.4217329939 -0.8532019890
H -0.2264617908 -2.0253807296 -0.0518041906
C 0.8900615701 -2.2884123382 -1.8987367633
Cl 2.1689630853 -3.2523221805 -1.1015302369
N 1.1016324635 -0.5043800796 -0.2216417558
C 1.8683599895 0.4586604654 -0.8751653677
O 1.9145995955 0.6032276505 -2.0749393878
C 2.5482060748 1.2124148669 0.1944893703
C 3.4230113403 2.2773108019 0.1211355954
C 3.8987765498 2.8035071502 1.3199376353
C 3.5085292810 2.2753827013 2.5412351389
C 2.6277762445 1.1982573634 2.6152689273
C 2.1540728822 0.6773065098 1.4282707714
C 1.2243467563 -0.4338638486 1.1707747451
O 0.6648633034 -1.1845806416 1.9346343837
H 0.3864247010 2.6695924393 -0.6183245888
H -1.2898169569 2.8389402007 -1.1579462828
H -0.5336379098 4.1249765706 -0.2064131901
H -2.0981443665 2.7699352252 1.1706658255
H -0.4219735098 2.6032609558 1.7739470916
H -2.3659066347 -2.8686319224 -0.0190387031
H -3.1909154875 -2.7514545904 1.5585526404
H -5.0273900798 -1.4357963978 0.4407327566
H -4.1968964423 -1.6168706882 -1.1078118947
H -4.8352975739 -3.0449063321 -0.2765934343
H 0.1788925339 -2.9792397693 -2.3459869432
H 1.3624752430 -1.6737268325 -2.6638922135
H 3.7192716486 2.6805758855 -0.8340019555
H 4.5824320075 3.6369298852 1.2949714604
H 3.8928457823 2.7047673131 3.4526650506
H 2.3191281549 0.7808254362 3.5602336504
40
CONF353
C -2.1125357224 1.6796404835 2.6334560150
C -3.0254921966 0.7764511909 1.8298800918
O -2.2786177601 -0.1396787719 0.9963752830
P -1.8568727782 0.2489518876 -0.4973056953
S -0.7867173361 1.8721432603 -0.7302389651
O -3.1929373583 0.4065613972 -1.3325047048
C -4.2128259121 -0.6268841854 -1.3922255894
C -5.5659177437 0.0491805085 -1.4820256928
S -1.1060899155 -1.6231956561 -1.1065301002
C 0.2600163843 -1.8031228895 0.1393409894
H -0.2096830594 -1.8374680466 1.1286416536
C 0.9752372808 -3.1022228001 -0.1876725153
Cl 2.2419321410 -3.3811172385 1.0403419725
N 1.1241723080 -0.6704578889 0.1253913498
C 1.2158915393 0.2081175520 1.2101725652
O 0.6144602462 0.0534509319 2.2475813683
C 2.1638452441 1.2515801364 0.7968964245
C 2.6230244667 2.3648989668 1.4693782240
C 3.5151907802 3.1988444427 0.7997357266
C 3.9249131168 2.9219658095 -0.4952530787
C 3.4592303834 1.7993904608 -1.1757082877
C 2.5778060235 0.9715865562 -0.5122710887
C 1.8988518373 -0.2542835750 -0.9600367821
O 1.9445454552 -0.8302447796 -2.0228291456
H -1.5955882901 2.3779024412 1.9784448727
H -2.7036586658 2.2363928345 3.3534488213
H -1.3672723258 1.0846979377 3.1554328384
H -3.6976242021 1.3643924638 1.1972304187
H -3.6053863604 0.1211608707 2.4826624343
H -4.0061120220 -1.2273427703 -2.2802363377
H -4.1358356820 -1.2583001794 -0.5035631349
H -5.7643329037 0.6294166645 -0.5848348374
H -5.5897193921 0.7145598187 -2.3402421604
H -6.3336893512 -0.7095122124 -1.5940422862
H 0.2808974723 -3.9389386838 -0.1525194170
H 1.4604941131 -3.0419963216 -1.1612279180
H 2.2936718353 2.5756931162 2.4739931927
H 3.8893114604 4.0786070126 1.2986494272
H 4.6134560459 3.5889803349 -0.9891272434
H 3.7665526041 1.5780885965 -2.1851683890
40
CONF673
C -2.2664044725 0.7877020551 3.2726007750
C -2.7370334169 1.0754149540 1.8609711915
O -2.4998654567 -0.0852459372 1.0366554435
P -1.8881873491 -0.0798213927 -0.4346180755
S -0.9229575745 1.5754748981 -0.8863125697
O -3.0713594618 -0.4399955331 -1.4350190379
C -3.7462103655 0.5410899180 -2.2441167928
C -4.6796940686 1.3978861212 -1.4124504567
S -1.0040242709 -1.9699015111 -0.4743481965
C 0.2572408081 -1.6711631286 0.8477429806
H -0.2936846610 -1.3838848660 1.7538275866
C 1.0076624753 -2.9614728124 1.1431100030
Cl 1.9578940546 -3.5127616075 -0.2721643270
N 1.1148913467 -0.5676375841 0.5216491600
C 1.6432467874 -0.2532411631 -0.7345767548
O 1.4664792015 -0.8966503984 -1.7426941097
C 2.3944294333 1.0002924391 -0.5433715529
C 3.1266658570 1.7479983227 -1.4408897889
C 3.7075285385 2.9252646498 -0.9744502760
C 3.5494959805 3.3336996759 0.3409342728
C 2.8044053294 2.5819919662 1.2458370858
C 2.2348575973 1.4123094239 0.7852252447
C 1.3873808920 0.4268134308 1.4660154389
O 0.9572634984 0.4062684259 2.5968316162
H -1.1870821025 0.6549821661 3.2989416727
H -2.5317164250 1.6254125932 3.9091989754
H -2.7449506633 -0.1129853414 3.6463540745
H -2.2043057592 1.9298946429 1.4287987049
H -3.8126199046 1.2647996764 1.8360256003
H -2.9951818976 1.1609300979 -2.7445429624
H -4.2878355111 -0.0526705801 -2.9814957134
H -4.1004233883 2.0061286171 -0.7182726450
H -5.2458374017 2.0532103916 -2.0667805549
H -5.3648643664 0.7680626365 -0.8509232899
H 1.7098493728 -2.8025355105 1.9608438274
H 0.3001553442 -3.7524474037 1.3827463724
H 3.2357165596 1.4258017262 -2.4640907263
H 4.2863137426 3.5308526586 -1.6536123036
H 4.0074657503 4.2528819143 0.6698577858
H 2.6692081068 2.8943084465 2.2687608164
40
CONF80
C -3.6466351032 0.7439008165 2.6094023751
C -2.4196653698 -0.0581792801 2.2319295035
O -1.6450568795 0.6445919603 1.2238771207
P -1.7347797510 0.3655410597 -0.3185546571
S -0.6790571336 1.6623556484 -1.3398962402
O -3.2902734592 0.4128622261 -0.6249219496
C -3.7911548177 0.2694235078 -1.9716706717
C -5.2428499714 0.7024032898 -1.9732198257
S -1.3428283061 -1.7209112777 -0.5739040219
C 0.2451738618 -1.8494662412 0.3843758453
H -0.0222115553 -1.9192986775 1.4452772292
C 0.9373552152 -3.1147645294 -0.0923285455
Cl 2.4259933688 -3.3494355147 0.8684261577
N 1.0457315688 -0.6798436667 0.2377664761
C 1.6557557665 -0.2575191513 -0.9504890120
O 1.5702658436 -0.8473135337 -2.0022377372
C 2.3913593142 0.9674402434 -0.5975402489
C 3.1540145027 1.8088000641 -1.3798196256
C 3.7203175798 2.9223642907 -0.7642912294
C 3.5234144961 3.1772531617 0.5843098361
C 2.7518906519 2.3289856068 1.3741661850
C 2.1923946716 1.2237239207 0.7658176980
C 1.3270486216 0.1704090395 1.3106970396
O 0.9067288564 -0.0060662655 2.4319278944
H -4.1736276392 0.2295131921 3.4068589806
H -3.3543629879 1.7328968301 2.9510132918
H -4.3039390824 0.8484348653 1.7503207608
H -2.6961041757 -1.0425554218 1.8449031823
H -1.7281353738 -0.1626888157 3.0712539300
H -3.1830024113 0.8916386134 -2.6360782655
H -3.6830780644 -0.7785147571 -2.2643680800
H -5.6440218624 0.5933974946 -2.9753114090
H -5.8159196390 0.0851645814 -1.2876359781
H -5.3225649053 1.7414987367 -1.6665574375
H 0.2954268667 -3.9794605223 0.0631044744
H 1.2261125222 -3.0290914224 -1.1393055733
H 3.2918189382 1.6061830433 -2.4295528914
H 4.3193547384 3.6002150363 -1.3512575725
H 3.9717731574 4.0503043958 1.0311158505
H 2.5883185209 2.5204259976 2.4225633347
40
CONF493
C -3.3153986662 -3.3032903950 1.2708022788
C -3.8936437944 -1.9027125943 1.3358200965
O -3.6067984550 -1.1714498884 0.1305782665
P -2.4414585835 -0.1070794917 0.0326861539
S -2.3996717395 1.2275736991 1.4765227662
O -2.8812340762 0.4147707668 -1.3939674512
C -2.2234796396 1.4856564185 -2.0966946157
C -1.3370388248 0.9323365894 -3.1969043823
S -0.6618376595 -1.2378166305 -0.2514226674
C 0.4666050159 -0.3909190411 0.9602255000
H -0.1283246163 0.4452520727 1.3613338592
C 0.8631293372 -1.3436724725 2.0714989039
Cl -0.5686422408 -1.6571585621 3.0848406954
N 1.5780368423 0.1676462122 0.2577054899
C 2.8011441123 -0.4529601699 -0.0183222532
O 3.1385412607 -1.5332134058 0.4018086928
C 3.5301411159 0.4886523949 -0.8867334433
C 4.7977856252 0.4086840818 -1.4261132366
C 5.2248137378 1.4649072691 -2.2286519570
C 4.4066554582 2.5565523096 -2.4764955183
C 3.1267900959 2.6388881808 -1.9319578824
C 2.7039464900 1.5932127107 -1.1365179528
C 1.4329555952 1.3748183077 -0.4330975805
O 0.4196961095 2.0369662437 -0.4169011442
H -2.2291972612 -3.2699847864 1.2477726814
H -3.6320684638 -3.8582190382 2.1480730381
H -3.6702645492 -3.8066927420 0.3760899447
H -3.5061296861 -1.3479663711 2.1976752000
H -4.9838787851 -1.9304622040 1.3906812970
H -3.0347810157 2.0869828383 -2.5119964397
H -1.6481426380 2.0930936412 -1.3914266149
H -0.9285832597 1.7573981359 -3.7712008766
H -0.5182028033 0.3545667337 -2.7736084346
H -1.9181056040 0.2874044883 -3.8498866186
H 1.2155156733 -2.2974231223 1.6832712561
H 1.6208921536 -0.8885713185 2.7087449636
H 5.4256824012 -0.4450433697 -1.2287537703
H 6.2101288025 1.4298180589 -2.6653182053
H 4.7648128609 3.3578957526 -3.1028390540
H 2.4838104002 3.4839694627 -2.1180613244
40
CONF599
C -3.2452629885 -1.9461055364 -2.7339623522
C -3.3622916523 -2.6976924195 -1.4259721442
O -3.5909377696 -1.8130854215 -0.3017521011
P -2.6053528602 -0.7085008521 0.2274668225
S -3.0141047252 -0.1592100558 2.0594454494
O -2.6984829327 0.4689376235 -0.8427330713
C -2.7061951272 1.8738461403 -0.5328633582
C -3.8557699327 2.5254428506 -1.2751921436
S -0.6803043338 -1.5749184929 -0.0699087935
C 0.2554621904 -0.3363166792 0.9406405348
H -0.4034490328 0.5314894040 1.0765020522
C 0.5921273069 -0.9678847358 2.2773200990
Cl 1.5011650430 0.2124350936 3.2583025355
N 1.3966761805 0.1124644308 0.2137779685
C 2.5434810873 -0.6451338537 -0.0462496775
O 2.7130519824 -1.7816869063 0.3248302515
C 3.4166929045 0.2318113709 -0.8452107582
C 4.6802802654 0.0133750215 -1.3545070070
C 5.2673477580 1.0435372171 -2.0867183439
C 4.6062443906 2.2439935968 -2.2968003290
C 3.3299991527 2.4656001672 -1.7835708179
C 2.7483697578 1.4457795533 -1.0578341454
C 1.4378886847 1.3666895864 -0.3969248447
O 0.5300491539 2.1659707998 -0.3516774749
H -4.1272283388 -1.3322260638 -2.8956011413
H -2.3670426670 -1.3043931818 -2.7194430251
H -3.1499219026 -2.6599629105 -3.5462154272
H -2.4586676071 -3.2792715629 -1.2255084677
H -4.2361410541 -3.3507913356 -1.4101484397
H -2.8175933097 1.9991863712 0.5501157492
H -1.7415301325 2.2833879893 -0.8433842882
H -4.8011672056 2.1060008627 -0.9402215324
H -3.8465734463 3.5917356024 -1.0743541027
H -3.7522394910 2.3591400981 -2.3434233169
H -0.3232705407 -1.2092089866 2.8174183041
H 1.2186198354 -1.8497329680 2.1484115052
H 5.1858988593 -0.9236692081 -1.1858244599
H 6.2545740334 0.9019271457 -2.4967227895
H 5.0865345629 3.0223654808 -2.8679595341
H 2.8083250196 3.3957303177 -1.9417622575
40
CONF161
C -3.1848768193 -0.7687133064 3.0778476660
C -3.4918917908 0.5366250407 2.3736215845
O -3.0251604516 0.5507188908 1.0112573686
P -1.4822613554 0.4811070760 0.6267204874
S -0.2953331125 1.5235756473 1.7869066666
O -1.4919359864 1.0802990484 -0.8346360504
C -2.4434900380 0.6557662570 -1.8467664780
C -2.0589029933 1.3231168499 -3.1496982533
S -1.2128510487 -1.6171532690 0.4138838681
C 0.6443872184 -1.7866390898 0.3744994375
H 0.9709282487 -1.9035035567 1.4143099934
C 0.9711962174 -3.0229756257 -0.4494937037
Cl 0.2055405699 -4.4399409316 0.3008549793
N 1.2708101178 -0.6125033643 -0.1346092359
C 1.0651116396 -0.0756011312 -1.4038737443
O 0.4105913092 -0.6131400040 -2.2683963171
C 1.8042821913 1.1958801434 -1.4213546355
C 1.9102842486 2.1585844884 -2.4042590654
C 2.6723716574 3.2889404978 -2.1204434267
C 3.3039793286 3.4412068798 -0.8955816975
C 3.2005684460 2.4689564460 0.0964046378
C 2.4432409002 1.3504052643 -0.1832487108
C 2.1324025367 0.1780846878 0.6475312384
O 2.5357707675 -0.1544395522 1.7356757625
H -3.5457064645 -1.6110867624 2.4926529137
H -2.1095094568 -0.8719800034 3.2179055305
H -3.6657115920 -0.7719044668 4.0507895365
H -3.0305585175 1.3762987766 2.9021756338
H -4.5662149118 0.7002976278 2.2785732885
H -2.3962097793 -0.4338252586 -1.9280955611
H -3.4392655206 0.9533676416 -1.5137291579
H -1.9985309169 2.3988963597 -3.0122541576
H -1.0953765456 0.9478445770 -3.4822108218
H -2.8101812471 1.0941147282 -3.8984745943
H 0.5778865054 -2.9293270205 -1.4616686075
H 2.0476208265 -3.1929116589 -0.4628068060
H 1.4164458098 2.0343027276 -3.3545007415
H 2.7694919033 4.0602464635 -2.8677854305
H 3.8843882131 4.3294412748 -0.7030782125
H 3.6805569465 2.5787872509 1.0553467117
40
CONF671
C -2.1925560357 0.9591775193 3.4832373988
C -2.6770670106 1.1285947270 2.0581574563
O -2.3096921040 -0.0549919506 1.3091601303
P -1.9122499781 -0.0224006463 -0.2190610888
S -0.9224028812 1.5819217790 -0.7943588947
O -3.3114088904 -0.1952927221 -0.9539479394
C -3.5131306128 0.1147527492 -2.3485098323
C -4.3295231939 1.3856942464 -2.4794927709
S -1.0705691749 -1.9378220210 -0.4048673678
C 0.2929166061 -1.7258965416 0.8300062075
H -0.1900343640 -1.4874439597 1.7874430168
C 1.0431452644 -3.0383088940 0.9982132985
Cl 1.8691392448 -3.5430894051 -0.5096449075
N 1.1292503170 -0.6077428023 0.5087559625
C 1.6069634812 -0.2500687852 -0.7574590837
O 1.3969953258 -0.8664497327 -1.7755424111
C 2.3490481382 1.0071912294 -0.5570618909
C 3.0476774843 1.7848147565 -1.4558406850
C 3.6212402209 2.9613656974 -0.9788622912
C 3.4877372225 3.3408096866 0.3478514646
C 2.7760706881 2.5591523572 1.2541412143
C 2.2149961163 1.3894498110 0.7833274351
C 1.3955698368 0.3798632428 1.4627743086
O 0.9796352112 0.3381448097 2.5984790174
H -2.6381615059 0.0723319206 3.9242392032
H -1.1096130439 0.8574952897 3.5036916513
H -2.4789793778 1.8318934452 4.0607076087
H -2.2191195595 2.0010804517 1.5793906960
H -3.7640636067 1.2172917548 2.0091413030
H -2.5426318081 0.2239310040 -2.8410609025
H -4.0382714835 -0.7467714418 -2.7641527326
H -4.5357563631 1.5711582394 -3.5285198776
H -5.2660613737 1.2836564737 -1.9390966777
H -3.7737152268 2.2274949549 -2.0716202054
H 1.8102285342 -2.9284369221 1.7640543551
H 0.3427214316 -3.8293222536 1.2584923323
H 3.1364344325 1.4859828561 -2.4879657972
H 4.1737092323 3.5901926322 -1.6588000258
H 3.9375675850 4.2611502545 0.6846230388
H 2.6588322564 2.8494305224 2.2857415776
40
CONF668
C -5.3300538913 0.5022263475 -0.3598717378
C -4.2207116330 -0.4807328068 -0.0439149058
O -3.3307599403 0.1228387319 0.9353000972
P -1.7551496958 0.1023102251 0.7846502437
S -0.9320110623 1.1196322699 2.2386537324
O -1.4283428923 0.6718272295 -0.6777215740
C -1.5916222855 2.0836786442 -0.9478211092
C -1.9106188739 2.2400568030 -2.4200054504
S -1.3267827444 -1.9363393682 0.4810609535
C 0.5189951232 -1.9308699589 0.7015627021
H 0.7200680822 -1.9105468078 1.7794377480
C 1.0316450821 -3.2091572086 0.0594032656
Cl 2.7951106886 -3.3176125730 0.3344792384
N 1.0969326634 -0.7514636558 0.1489751954
C 1.8451100496 0.1461605108 0.9225084331
O 2.1440732478 -0.0465818341 2.0769861470
C 2.1879352319 1.2514452747 0.0141858049
C 2.8567452731 2.4342005234 0.2550212385
C 3.0317226085 3.3053213011 -0.8179693534
C 2.5594708038 2.9914998578 -2.0834912452
C 1.8882031224 1.7957574531 -2.3274185078
C 1.7049607444 0.9364785169 -1.2630715118
C 1.0222939844 -0.3674409324 -1.1924547661
O 0.5034093611 -1.0225908573 -2.0646675980
H -4.9259880190 1.4009498726 -0.8187346806
H -6.0320363838 0.0360239188 -1.0437886128
H -5.8483093848 0.7805827235 0.5532979979
H -3.6471974928 -0.7420543616 -0.9369667588
H -4.6116562841 -1.3908186242 0.4140803533
H -2.3897749524 2.4778333607 -0.3106686133
H -0.6559031422 2.5831442527 -0.6804212191
H -1.9389730543 3.2956936477 -2.6686754599
H -1.1448901063 1.7467351061 -3.0116184825
H -2.8710950903 1.7878932391 -2.6507118612
H 0.5643259746 -4.0789799541 0.5160719262
H 0.8605951893 -3.1963291688 -1.0163627682
H 3.2188994558 2.6656405271 1.2437290416
H 3.5459481870 4.2395417880 -0.6580781554
H 2.7133730844 3.6847454099 -2.8948829042
H 1.5231443550 1.5413737363 -3.3094800075
40
CONF473
C -2.1898406785 3.2200264004 0.4340439262
C -0.8355047334 2.5433606219 0.4461650571
O -0.9242735552 1.1474678318 0.8006952774
P -1.6106058863 0.0806211690 -0.1615205854
S -1.2899536071 0.3810569900 -2.0790689899
O -3.1387338444 0.1786027394 0.2652535098
C -4.1995541466 -0.3425241026 -0.5542777564
C -4.1863202572 -1.8565033950 -0.6075825042
S -1.0134186757 -1.7016790013 0.7740178777
C 0.7580356788 -1.8644765847 0.2124278010
H 1.1675533793 -2.5371881231 0.9762766910
C 0.8328327227 -2.5052095981 -1.1604562557
Cl 0.1658962631 -4.1488078184 -1.0580420216
N 1.4296543429 -0.6036332703 0.3084068804
C 1.6006440059 -0.0056067590 1.5675688748
O 1.2780793368 -0.5311642069 2.6056277565
C 2.2267884577 1.2987141166 1.3129785077
C 2.5998711637 2.3045535637 2.1817807114
C 3.1597849636 3.4552882136 1.6309270425
C 3.3384860827 3.5840036785 0.2616490945
C 2.9673308493 2.5662748057 -0.6145701639
C 2.4092131694 1.4281103967 -0.0691034776
C 1.9202332328 0.2012448820 -0.7248672728
O 1.9569085712 -0.1015602710 -1.8934125300
H -2.7066691946 3.0381701000 1.3725091145
H -2.0532408277 4.2877760641 0.2942813562
H -2.7942607019 2.8301237629 -0.3832744058
H -0.1808779682 2.9647613490 1.2108249421
H -0.3559506845 2.6194566804 -0.5360725359
H -5.1063105899 0.0362993770 -0.0810808438
H -4.0975172331 0.0778460465 -1.5602958701
H -5.0677479683 -2.2068300107 -1.1350206845
H -3.2985067338 -2.2034803955 -1.1351569223
H -4.1763478395 -2.2703836798 0.3976771089
H 0.2534979726 -1.9558384313 -1.9026888173
H 1.8675385525 -2.5878840808 -1.4918612217
H 2.4574383106 2.1929366327 3.2446219716
H 3.4594950034 4.2595956025 2.2835909901
H 3.7740500081 4.4870552863 -0.1350117873
H 3.1022882838 2.6537614902 -1.6806587126
40
CONF133
C -4.6201001781 0.6367139729 3.2239973348
C -3.2540583310 0.1725250999 2.7610648196
O -3.1581310049 0.4288232316 1.3452708381
P -1.7593513823 0.4353963501 0.5857396594
S -0.4197310054 1.6174691992 1.3894499453
O -2.1912564699 0.9190339906 -0.8430882212
C -3.2420696668 0.2732073838 -1.6122044743
C -2.9715024106 0.5340636851 -3.0784431094
S -1.4169003019 -1.6678968910 0.5191820484
C 0.4158600416 -1.9320979789 0.2762040215
H 0.7956745255 -2.2889144968 1.2403313745
C 0.5458590110 -2.9934506818 -0.8046478175
Cl 2.2738130752 -3.4173456049 -0.9879736925
N 1.1236826594 -0.7407715349 -0.0349160771
C 0.9190482102 0.0371354415 -1.1708479112
O 0.0847080668 -0.2092447645 -2.0137453554
C 1.8873643353 1.1391723543 -1.0809870165
C 2.1183907141 2.2019924578 -1.9289588009
C 3.1019518499 3.1170260858 -1.5604714461
C 3.8183813893 2.9674158963 -0.3832790553
C 3.5813617439 1.8969350524 0.4761340781
C 2.6104095597 0.9883613568 0.1102593181
C 2.1151001484 -0.2098844961 0.8023160078
O 2.4405529969 -0.7097302031 1.8522599738
H -4.7191666925 0.4446026097 4.2871735827
H -4.7341643702 1.7011333420 3.0392800311
H -5.3956217119 0.0995462417 2.6861864004
H -3.1192584227 -0.9001331153 2.9231539199
H -2.4505544711 0.7169685461 3.2681205347
H -3.2308092532 -0.7970141872 -1.3867080799
H -4.1914050075 0.7027663542 -1.2874894453
H -1.9908829532 0.1477477307 -3.3428970619
H -3.7310596919 0.0390496342 -3.6746524294
H -2.9915629227 1.6014514691 -3.2777353789
H 0.0056178969 -3.8935979445 -0.5191030364
H 0.1935237404 -2.6174995605 -1.7642685080
H 1.5511658184 2.3138775304 -2.8390034386
H 3.3047551467 3.9593586352 -2.2025721994
H 4.5702076887 3.6951554994 -0.1224139462
H 4.1260314637 1.7759695752 1.3985077475
