      -----------------------------------------------------------      
     |                   =====================                   |     
     |                           x T B                           |     
     |                   =====================                   |     
     |                         S. Grimme                         |     
     |          Mulliken Center for Theoretical Chemistry        |     
     |                    University of Bonn                     |     
      -----------------------------------------------------------      

   * xtb version 6.7.1 (edcfbbe) compiled by 'albert@albert-system' on 2024-07-22

   xtb is free software: you can redistribute it and/or modify it under
   the terms of the GNU Lesser General Public License as published by
   the Free Software Foundation, either version 3 of the License, or
   (at your option) any later version.
   
   xtb is distributed in the hope that it will be useful,
   but WITHOUT ANY WARRANTY; without even the implied warranty of
   MERCHANTABILITY or FITNESS FOR A PARTICULAR PURPOSE.  See the
   GNU Lesser General Public License for more details.
   
   Cite this work as:
   * C. Bannwarth, E. Caldeweyher, S. Ehlert, A. Hansen, P. Pracht,
     J. Seibert, S. Spicher, S. Grimme, WIREs Comput. Mol. Sci., 2020, 11,
     e01493. DOI: 10.1002/wcms.1493
   
   for GFN2-xTB:
   * C. Bannwarth, S. Ehlert and S. Grimme., J. Chem. Theory Comput., 2019,
     15, 1652-1671. DOI: 10.1021/acs.jctc.8b01176
   for GFN1-xTB:
   * S. Grimme, C. Bannwarth, P. Shushkov, J. Chem. Theory Comput., 2017,
     13, 1989-2009. DOI: 10.1021/acs.jctc.7b00118
   for GFN0-xTB:
   * P. Pracht, E. Caldeweyher, S. Ehlert, S. Grimme, ChemRxiv, 2019, preprint.
     DOI: 10.26434/chemrxiv.8326202.v1
   for GFN-FF:
   * S. Spicher and S. Grimme, Angew. Chem. Int. Ed., 2020, 59, 15665-15673.
     DOI: 10.1002/anie.202004239
   
   for ALPB and GBSA implicit solvation:
   * S. Ehlert, M. Stahn, S. Spicher, S. Grimme, J. Chem. Theory Comput.,
     2021, 17, 4250-4261. DOI: 10.1021/acs.jctc.1c00471
   
   for ddCOSMO and CPCM-X implicit solvation:
   * M. Stahn, S. Ehlert, S. Grimme, J. Phys. Chem. A,
     2023, XX, XXXX-XXXX. DOI: 10.1021/acs.jpca.3c04382
   
   for DFT-D4:
   * E. Caldeweyher, C. Bannwarth and S. Grimme, J. Chem. Phys., 2017,
     147, 034112. DOI: 10.1063/1.4993215
   * E. Caldeweyher, S. Ehlert, A. Hansen, H. Neugebauer, S. Spicher,
     C. Bannwarth and S. Grimme, J. Chem. Phys., 2019, 150, 154122.
     DOI: 10.1063/1.5090222
   * E. Caldeweyher, J.-M. Mewes, S. Ehlert and S. Grimme, Phys. Chem. Chem. Phys.
     2020, 22, 8499-8512. DOI: 10.1039/D0CP00502A
   
   for sTDA-xTB:
   * S. Grimme and C. Bannwarth, J. Chem. Phys., 2016, 145, 054103.
     DOI: 10.1063/1.4959605
   
   in the mass-spec context:
   * V. Asgeirsson, C. Bauer and S. Grimme, Chem. Sci., 2017, 8, 4879.
     DOI: 10.1039/c7sc00601b
   * J. Koopman and S. Grimme, ACS Omega 2019, 4, 12, 15120-15133.
     DOI: 10.1021/acsomega.9b02011
   
   for metadynamics refer to:
   * S. Grimme, J. Chem. Theory Comput., 2019, 155, 2847-2862
     DOI: 10.1021/acs.jctc.9b00143
   
   for SPH calculations refer to:
   * S. Spicher and S. Grimme, J. Chem. Theory Comput., 2021, 17, 1701-1714
     DOI: 10.1021/acs.jctc.0c01306
   
   for ONIOM refer to:
   * C. Plett, A. Katbashev, S. Ehlert, S. Grimme, M. Bursch,
     Phys. Chem. Chem. Phys., 2023, 25, 17860-17868. DOI: 10.1039/D3CP02178E
   
   for DIPRO refer to:
   * J. Kohn, N. Gildemeister, S. Grimme, D. Fazzi, A. Hansen,
     J. Chem. Phys., 2023, just accepted.
   
   for PTB refer to:
   * S. Grimme, M. Mueller, A. Hansen, J. Chem. Phys., 2023, 158, 124111.
     DOI: 10.1063/5.0137838
   
   with help from (in alphabetical order)
   P. Atkinson, C. Bannwarth, F. Bohle, G. Brandenburg, E. Caldeweyher
   M. Checinski, S. Dohm, S. Ehlert, S. Ehrlich, I. Gerasimov, C. Hölzer
   A. Katbashev, J. Kohn, J. Koopman, C. Lavigne, S. Lehtola, F. März, M. Müller,
   F. Musil, H. Neugebauer, J. Pisarek, C. Plett, P. Pracht, F. Pultar,
   J. Seibert, P. Shushkov, S. Spicher, M. Stahn, M. Steiner, T. Strunk,
   J. Stückrath, T. Rose, and J. Unsleber
   
 * started run on 2025/04/03 at 17:02:52.234     
   ID    Z sym.   atoms
    1    6 C      1-10
    2    8 O      11
    3    1 H      12-33

           -------------------------------------------------
          |                Calculation Setup                |
           -------------------------------------------------

          program call               : /srv/scratch/z5358697/.xtb/bin/xtb gas.coord --gfn2 --sp --chrg 0 --norestart --parallel 1
          hostname                   : k140
          coordinate file            : gas.coord
          omp threads                :                     1


           -------------------------------------------------
          |                 G F N 2 - x T B                 |
           -------------------------------------------------

        Reference                      10.1021/acs.jctc.8b01176
      * Hamiltonian:
        H0-scaling (s, p, d)           1.850000    2.230000    2.230000
        zeta-weighting                 0.500000
      * Dispersion:
        s8                             2.700000
        a1                             0.520000
        a2                             5.000000
        s9                             5.000000
      * Repulsion:
        kExp                           1.500000    1.000000
        rExp                           1.000000
      * Coulomb:
        alpha                          2.000000
        third order                    shell-resolved
        anisotropic                    true
        a3                             3.000000
        a5                             4.000000
        cn-shift                       1.200000
        cn-exp                         4.000000
        max-rad                        5.000000


          ...................................................
          :                      SETUP                      :
          :.................................................:
          :  # basis functions                  66          :
          :  # atomic orbitals                  66          :
          :  # shells                           44          :
          :  # electrons                        68          :
          :  max. iterations                   250          :
          :  Hamiltonian                  GFN2-xTB          :
          :  restarted?                      false          :
          :  GBSA solvation                  false          :
          :  PC potential                    false          :
          :  electronic temp.          300.0000000     K    :
          :  accuracy                    1.0000000          :
          :  -> integral cutoff          0.2500000E+02      :
          :  -> integral neglect         0.1000000E-07      :
          :  -> SCF convergence          0.1000000E-05 Eh   :
          :  -> wf. convergence          0.1000000E-03 e    :
          :  Broyden damping             0.4000000          :
          :  net charge                          0          :
          :  unpaired electrons                  0          :
          ...................................................

 iter      E             dE          RMSdq      gap      omega  full diag
   1    -37.1181476 -0.371181E+02  0.285E+00   12.23       0.0  T
   2    -37.1974492 -0.793016E-01  0.154E+00   11.82       1.0  T
   3    -37.1986514 -0.120219E-02  0.729E-01   11.92       1.0  T
   4    -37.1989312 -0.279757E-03  0.981E-02   11.96       1.0  T
   5    -37.1989661 -0.349501E-04  0.557E-02   11.97       1.0  T
   6    -37.1989684 -0.229823E-05  0.670E-03   11.97       2.6  T
   7    -37.1989686 -0.164497E-06  0.323E-03   11.97       5.4  T
   8    -37.1989686 -0.191645E-07  0.797E-04   11.97      21.8  T
   9    -37.1989686 -0.835783E-09  0.311E-04   11.97      55.9  T

   *** convergence criteria satisfied after 9 iterations ***

         #    Occupation            Energy/Eh            Energy/eV
      -------------------------------------------------------------
         1        2.0000           -0.6835137             -18.5994
       ...           ...                  ...                  ...
        28        2.0000           -0.4346829             -11.8283
        29        2.0000           -0.4308013             -11.7227
        30        2.0000           -0.4264417             -11.6041
        31        2.0000           -0.4203927             -11.4395
        32        2.0000           -0.4156173             -11.3095
        33        2.0000           -0.4142124             -11.2713
        34        2.0000           -0.4035008             -10.9798 (HOMO)
        35                          0.0364221               0.9911 (LUMO)
        36                          0.0709605               1.9309
        37                          0.0785484               2.1374
        38                          0.0912913               2.4842
        39                          0.0943940               2.5686
       ...                                ...                  ...
        66                          0.3216289               8.7520
      -------------------------------------------------------------
                  HL-Gap            0.4399229 Eh           11.9709 eV
             Fermi-level           -0.1835393 Eh           -4.9944 eV

 SCC (total)                   0 d,  0 h,  0 min,  0.023 sec
 SCC setup                      ...        0 min,  0.000 sec (  0.847%)
 Dispersion                     ...        0 min,  0.000 sec (  0.886%)
 classical contributions        ...        0 min,  0.000 sec (  0.177%)
 integral evaluation            ...        0 min,  0.003 sec ( 11.153%)
 iterations                     ...        0 min,  0.012 sec ( 50.830%)
 molecular gradient             ...        0 min,  0.008 sec ( 35.444%)
 printout                       ...        0 min,  0.000 sec (  0.614%)

         :::::::::::::::::::::::::::::::::::::::::::::::::::::
         ::                     SUMMARY                     ::
         :::::::::::::::::::::::::::::::::::::::::::::::::::::
         :: total energy             -36.705097798794 Eh    ::
         :: gradient norm              0.005527796142 Eh/a0 ::
         :: HOMO-LUMO gap             11.970910731963 eV    ::
         ::.................................................::
         :: SCC energy               -37.198802675462 Eh    ::
         :: -> isotropic ES            0.029538122674 Eh    ::
         :: -> anisotropic ES          0.009596151855 Eh    ::
         :: -> anisotropic XC          0.016754829204 Eh    ::
         :: -> dispersion             -0.022514224860 Eh    ::
         :: repulsion energy           0.493704876668 Eh    ::
         :: add. restraining           0.000000000000 Eh    ::
         :: total charge               0.000000000000 e     ::
         :::::::::::::::::::::::::::::::::::::::::::::::::::::

           -------------------------------------------------
          |                Property Printout                |
           -------------------------------------------------

    * Orbital Energies and Occupations

         #    Occupation            Energy/Eh            Energy/eV
      -------------------------------------------------------------
         1        2.0000           -0.6835137             -18.5994
       ...           ...                  ...                  ...
        22        2.0000           -0.4700782             -12.7915
        23        2.0000           -0.4660124             -12.6808
        24        2.0000           -0.4576422             -12.4531
        25        2.0000           -0.4487050             -12.2099
        26        2.0000           -0.4467568             -12.1569
        27        2.0000           -0.4364930             -11.8776
        28        2.0000           -0.4346829             -11.8283
        29        2.0000           -0.4308013             -11.7227
        30        2.0000           -0.4264417             -11.6041
        31        2.0000           -0.4203927             -11.4395
        32        2.0000           -0.4156173             -11.3095
        33        2.0000           -0.4142124             -11.2713
        34        2.0000           -0.4035008             -10.9798 (HOMO)
        35                          0.0364221               0.9911 (LUMO)
        36                          0.0709605               1.9309
        37                          0.0785484               2.1374
        38                          0.0912913               2.4842
        39                          0.0943940               2.5686
        40                          0.0997517               2.7144
        41                          0.1173540               3.1934
        42                          0.1218790               3.3165
        43                          0.1251062               3.4043
        44                          0.1361207               3.7040
        45                          0.1388790               3.7791
       ...                                ...                  ...
        66                          0.3216289               8.7520
      -------------------------------------------------------------
                  HL-Gap            0.4399229 Eh           11.9709 eV
             Fermi-level           -0.1835393 Eh           -4.9944 eV

     #   Z          covCN         q      C6AA      α(0)
     1   6 C        3.751    -0.100    22.476     6.761
     2   6 C        3.799    -0.053    21.522     6.605
     3   6 C        3.801    -0.058    21.616     6.620
     4   6 C        3.801    -0.058    21.618     6.620
     5   6 C        3.801    -0.059    21.628     6.621
     6   6 C        3.801    -0.059    21.628     6.621
     7   6 C        3.801    -0.060    21.656     6.626
     8   6 C        3.802    -0.061    21.673     6.628
     9   6 C        3.800    -0.071    21.865     6.658
    10   6 C        3.674     0.079    19.481     6.325
    11   8 O        1.654    -0.445    21.735     6.294
    12   1 H        0.925     0.030     2.585     2.515
    13   1 H        0.925     0.034     2.531     2.488
    14   1 H        0.925     0.033     2.551     2.498
    15   1 H        0.924     0.026     2.638     2.540
    16   1 H        0.924     0.031     2.577     2.510
    17   1 H        0.924     0.029     2.607     2.525
    18   1 H        0.924     0.027     2.636     2.539
    19   1 H        0.924     0.027     2.630     2.536
    20   1 H        0.925     0.035     2.510     2.477
    21   1 H        0.924     0.028     2.610     2.527
    22   1 H        0.925     0.034     2.530     2.488
    23   1 H        0.924     0.029     2.603     2.523
    24   1 H        0.924     0.029     2.597     2.520
    25   1 H        0.924     0.028     2.619     2.531
    26   1 H        0.924     0.033     2.542     2.493
    27   1 H        0.924     0.038     2.473     2.459
    28   1 H        0.924     0.032     2.553     2.499
    29   1 H        0.924     0.044     2.401     2.423
    30   1 H        0.924     0.029     2.600     2.522
    31   1 H        0.924     0.048     2.350     2.397
    32   1 H        0.924     0.017     2.781     2.608
    33   1 H        0.805     0.283     0.773     1.381

 Mol. C6AA /au·bohr⁶  :       7294.271939
 Mol. C8AA /au·bohr⁸  :     151913.293405
 Mol. α(0) /au        :        126.376767


Wiberg/Mayer (AO) data.
largest (>0.10) Wiberg bond orders for each atom

 ---------------------------------------------------------------------------
     #   Z sym  total        # sym  WBO       # sym  WBO       # sym  WBO
 ---------------------------------------------------------------------------
     1   6 C    3.997 --     2 C    1.020    14 H    0.988    12 H    0.988
                            13 H    0.986
     2   6 C    3.998 --     1 C    1.020     3 C    1.008    15 H    0.979
                            16 H    0.977
     3   6 C    3.998 --     2 C    1.008     4 C    1.007    18 H    0.978
                            17 H    0.978
     4   6 C    3.998 --     5 C    1.009     3 C    1.007    19 H    0.977
                            20 H    0.973
     5   6 C    3.997 --     4 C    1.009     6 C    1.007    21 H    0.976
                            22 H    0.973
     6   6 C    3.997 --     5 C    1.007     7 C    1.006    23 H    0.978
                            24 H    0.977
     7   6 C    3.998 --     8 C    1.009     6 C    1.006    25 H    0.975
                            26 H    0.975
     8   6 C    3.997 --     7 C    1.009     9 C    1.006    28 H    0.977
                            27 H    0.974
     9   6 C    3.997 --     8 C    1.006    10 C    0.999    30 H    0.977
                            29 H    0.976
    10   6 C    3.955 --     9 C    0.999    11 O    0.996    31 H    0.973
                            32 H    0.970
    11   8 O    1.957 --    10 C    0.996    33 H    0.905
    12   1 H    0.999 --     1 C    0.988
    13   1 H    0.999 --     1 C    0.986
    14   1 H    0.999 --     1 C    0.988
    15   1 H    0.999 --     2 C    0.979
    16   1 H    0.999 --     2 C    0.977
    17   1 H    0.999 --     3 C    0.978
    18   1 H    0.999 --     3 C    0.978
    19   1 H    0.999 --     4 C    0.977
    20   1 H    0.999 --     4 C    0.973
    21   1 H    0.999 --     5 C    0.976
    22   1 H    0.999 --     5 C    0.973
    23   1 H    0.999 --     6 C    0.978
    24   1 H    0.999 --     6 C    0.977
    25   1 H    0.999 --     7 C    0.975
    26   1 H    0.999 --     7 C    0.975
    27   1 H    0.999 --     8 C    0.974
    28   1 H    0.999 --     8 C    0.977
    29   1 H    0.998 --     9 C    0.976
    30   1 H    0.999 --     9 C    0.977
    31   1 H    0.998 --    10 C    0.973
    32   1 H    1.000 --    10 C    0.970
    33   1 H    0.920 --    11 O    0.905
 ---------------------------------------------------------------------------

Topologies differ in total number of bonds
Writing topology from bond orders to xtbtopo.mol

molecular dipole:
                 x           y           z       tot (Debye)
 q only:        0.553      -0.009       0.269
   full:        0.678      -0.048       0.439       2.057
molecular quadrupole (traceless):
                xx          xy          yy          xz          yz          zz
 q only:       -9.121      -0.745       5.016      -4.157      -1.944       4.104
  q+dip:      -13.039      -1.881       6.242      -5.684      -3.098       6.797
   full:      -12.445      -1.259       6.439      -5.952      -3.038       6.006


           -------------------------------------------------
          | TOTAL ENERGY              -36.705097798794 Eh   |
          | GRADIENT NORM               0.005527796142 Eh/α |
          | HOMO-LUMO GAP              11.970910731963 eV   |
           -------------------------------------------------

------------------------------------------------------------------------
 * finished run on 2025/04/03 at 17:02:52.298     
------------------------------------------------------------------------
 total:
 * wall-time:     0 d,  0 h,  0 min,  0.064 sec
 *  cpu-time:     0 d,  0 h,  0 min,  0.032 sec
 * ratio c/w:     0.507 speedup
 SCF:
 * wall-time:     0 d,  0 h,  0 min,  0.023 sec
 *  cpu-time:     0 d,  0 h,  0 min,  0.022 sec
 * ratio c/w:     0.952 speedup

